p cnf 746 16630
1 2 3 4 5 6 7 8 9 10 11 12 13 14 15 0
-1 -2 0
-1 -3 0
-1 -4 0
-1 -5 0
-1 -6 0
-1 -7 0
-1 -8 0
-1 -9 0
-1 -10 0
-1 -11 0
-1 -12 0
-1 -13 0
-1 -14 0
-1 -15 0
-2 -3 0
-2 -4 0
-2 -5 0
-2 -6 0
-2 -7 0
-2 -8 0
-2 -9 0
-2 -10 0
-2 -11 0
-2 -12 0
-2 -13 0
-2 -14 0
-2 -15 0
-3 -4 0
-3 -5 0
-3 -6 0
-3 -7 0
-3 -8 0
-3 -9 0
-3 -10 0
-3 -11 0
-3 -12 0
-3 -13 0
-3 -14 0
-3 -15 0
-4 -5 0
-4 -6 0
-4 -7 0
-4 -8 0
-4 -9 0
-4 -10 0
-4 -11 0
-4 -12 0
-4 -13 0
-4 -14 0
-4 -15 0
-5 -6 0
-5 -7 0
-5 -8 0
-5 -9 0
-5 -10 0
-5 -11 0
-5 -12 0
-5 -13 0
-5 -14 0
-5 -15 0
-6 -7 0
-6 -8 0
-6 -9 0
-6 -10 0
-6 -11 0
-6 -12 0
-6 -13 0
-6 -14 0
-6 -15 0
-7 -8 0
-7 -9 0
-7 -10 0
-7 -11 0
-7 -12 0
-7 -13 0
-7 -14 0
-7 -15 0
-8 -9 0
-8 -10 0
-8 -11 0
-8 -12 0
-8 -13 0
-8 -14 0
-8 -15 0
-9 -10 0
-9 -11 0
-9 -12 0
-9 -13 0
-9 -14 0
-9 -15 0
-10 -11 0
-10 -12 0
-10 -13 0
-10 -14 0
-10 -15 0
-11 -12 0
-11 -13 0
-11 -14 0
-11 -15 0
-12 -13 0
-12 -14 0
-12 -15 0
-13 -14 0
-13 -15 0
-14 -15 0
16 17 18 19 20 21 22 23 24 25 26 27 28 29 30 0
-16 -17 0
-16 -18 0
-16 -19 0
-16 -20 0
-16 -21 0
-16 -22 0
-16 -23 0
-16 -24 0
-16 -25 0
-16 -26 0
-16 -27 0
-16 -28 0
-16 -29 0
-16 -30 0
-17 -18 0
-17 -19 0
-17 -20 0
-17 -21 0
-17 -22 0
-17 -23 0
-17 -24 0
-17 -25 0
-17 -26 0
-17 -27 0
-17 -28 0
-17 -29 0
-17 -30 0
-18 -19 0
-18 -20 0
-18 -21 0
-18 -22 0
-18 -23 0
-18 -24 0
-18 -25 0
-18 -26 0
-18 -27 0
-18 -28 0
-18 -29 0
-18 -30 0
-19 -20 0
-19 -21 0
-19 -22 0
-19 -23 0
-19 -24 0
-19 -25 0
-19 -26 0
-19 -27 0
-19 -28 0
-19 -29 0
-19 -30 0
-20 -21 0
-20 -22 0
-20 -23 0
-20 -24 0
-20 -25 0
-20 -26 0
-20 -27 0
-20 -28 0
-20 -29 0
-20 -30 0
-21 -22 0
-21 -23 0
-21 -24 0
-21 -25 0
-21 -26 0
-21 -27 0
-21 -28 0
-21 -29 0
-21 -30 0
-22 -23 0
-22 -24 0
-22 -25 0
-22 -26 0
-22 -27 0
-22 -28 0
-22 -29 0
-22 -30 0
-23 -24 0
-23 -25 0
-23 -26 0
-23 -27 0
-23 -28 0
-23 -29 0
-23 -30 0
-24 -25 0
-24 -26 0
-24 -27 0
-24 -28 0
-24 -29 0
-24 -30 0
-25 -26 0
-25 -27 0
-25 -28 0
-25 -29 0
-25 -30 0
-26 -27 0
-26 -28 0
-26 -29 0
-26 -30 0
-27 -28 0
-27 -29 0
-27 -30 0
-28 -29 0
-28 -30 0
-29 -30 0
31 32 33 34 35 36 37 38 39 40 41 42 43 44 45 0
-31 -32 0
-31 -33 0
-31 -34 0
-31 -35 0
-31 -36 0
-31 -37 0
-31 -38 0
-31 -39 0
-31 -40 0
-31 -41 0
-31 -42 0
-31 -43 0
-31 -44 0
-31 -45 0
-32 -33 0
-32 -34 0
-32 -35 0
-32 -36 0
-32 -37 0
-32 -38 0
-32 -39 0
-32 -40 0
-32 -41 0
-32 -42 0
-32 -43 0
-32 -44 0
-32 -45 0
-33 -34 0
-33 -35 0
-33 -36 0
-33 -37 0
-33 -38 0
-33 -39 0
-33 -40 0
-33 -41 0
-33 -42 0
-33 -43 0
-33 -44 0
-33 -45 0
-34 -35 0
-34 -36 0
-34 -37 0
-34 -38 0
-34 -39 0
-34 -40 0
-34 -41 0
-34 -42 0
-34 -43 0
-34 -44 0
-34 -45 0
-35 -36 0
-35 -37 0
-35 -38 0
-35 -39 0
-35 -40 0
-35 -41 0
-35 -42 0
-35 -43 0
-35 -44 0
-35 -45 0
-36 -37 0
-36 -38 0
-36 -39 0
-36 -40 0
-36 -41 0
-36 -42 0
-36 -43 0
-36 -44 0
-36 -45 0
-37 -38 0
-37 -39 0
-37 -40 0
-37 -41 0
-37 -42 0
-37 -43 0
-37 -44 0
-37 -45 0
-38 -39 0
-38 -40 0
-38 -41 0
-38 -42 0
-38 -43 0
-38 -44 0
-38 -45 0
-39 -40 0
-39 -41 0
-39 -42 0
-39 -43 0
-39 -44 0
-39 -45 0
-40 -41 0
-40 -42 0
-40 -43 0
-40 -44 0
-40 -45 0
-41 -42 0
-41 -43 0
-41 -44 0
-41 -45 0
-42 -43 0
-42 -44 0
-42 -45 0
-43 -44 0
-43 -45 0
-44 -45 0
46 47 48 49 50 51 52 53 54 55 56 57 58 59 60 0
-46 -47 0
-46 -48 0
-46 -49 0
-46 -50 0
-46 -51 0
-46 -52 0
-46 -53 0
-46 -54 0
-46 -55 0
-46 -56 0
-46 -57 0
-46 -58 0
-46 -59 0
-46 -60 0
-47 -48 0
-47 -49 0
-47 -50 0
-47 -51 0
-47 -52 0
-47 -53 0
-47 -54 0
-47 -55 0
-47 -56 0
-47 -57 0
-47 -58 0
-47 -59 0
-47 -60 0
-48 -49 0
-48 -50 0
-48 -51 0
-48 -52 0
-48 -53 0
-48 -54 0
-48 -55 0
-48 -56 0
-48 -57 0
-48 -58 0
-48 -59 0
-48 -60 0
-49 -50 0
-49 -51 0
-49 -52 0
-49 -53 0
-49 -54 0
-49 -55 0
-49 -56 0
-49 -57 0
-49 -58 0
-49 -59 0
-49 -60 0
-50 -51 0
-50 -52 0
-50 -53 0
-50 -54 0
-50 -55 0
-50 -56 0
-50 -57 0
-50 -58 0
-50 -59 0
-50 -60 0
-51 -52 0
-51 -53 0
-51 -54 0
-51 -55 0
-51 -56 0
-51 -57 0
-51 -58 0
-51 -59 0
-51 -60 0
-52 -53 0
-52 -54 0
-52 -55 0
-52 -56 0
-52 -57 0
-52 -58 0
-52 -59 0
-52 -60 0
-53 -54 0
-53 -55 0
-53 -56 0
-53 -57 0
-53 -58 0
-53 -59 0
-53 -60 0
-54 -55 0
-54 -56 0
-54 -57 0
-54 -58 0
-54 -59 0
-54 -60 0
-55 -56 0
-55 -57 0
-55 -58 0
-55 -59 0
-55 -60 0
-56 -57 0
-56 -58 0
-56 -59 0
-56 -60 0
-57 -58 0
-57 -59 0
-57 -60 0
-58 -59 0
-58 -60 0
-59 -60 0
61 62 63 64 65 66 67 68 69 70 71 72 73 74 75 0
-61 -62 0
-61 -63 0
-61 -64 0
-61 -65 0
-61 -66 0
-61 -67 0
-61 -68 0
-61 -69 0
-61 -70 0
-61 -71 0
-61 -72 0
-61 -73 0
-61 -74 0
-61 -75 0
-62 -63 0
-62 -64 0
-62 -65 0
-62 -66 0
-62 -67 0
-62 -68 0
-62 -69 0
-62 -70 0
-62 -71 0
-62 -72 0
-62 -73 0
-62 -74 0
-62 -75 0
-63 -64 0
-63 -65 0
-63 -66 0
-63 -67 0
-63 -68 0
-63 -69 0
-63 -70 0
-63 -71 0
-63 -72 0
-63 -73 0
-63 -74 0
-63 -75 0
-64 -65 0
-64 -66 0
-64 -67 0
-64 -68 0
-64 -69 0
-64 -70 0
-64 -71 0
-64 -72 0
-64 -73 0
-64 -74 0
-64 -75 0
-65 -66 0
-65 -67 0
-65 -68 0
-65 -69 0
-65 -70 0
-65 -71 0
-65 -72 0
-65 -73 0
-65 -74 0
-65 -75 0
-66 -67 0
-66 -68 0
-66 -69 0
-66 -70 0
-66 -71 0
-66 -72 0
-66 -73 0
-66 -74 0
-66 -75 0
-67 -68 0
-67 -69 0
-67 -70 0
-67 -71 0
-67 -72 0
-67 -73 0
-67 -74 0
-67 -75 0
-68 -69 0
-68 -70 0
-68 -71 0
-68 -72 0
-68 -73 0
-68 -74 0
-68 -75 0
-69 -70 0
-69 -71 0
-69 -72 0
-69 -73 0
-69 -74 0
-69 -75 0
-70 -71 0
-70 -72 0
-70 -73 0
-70 -74 0
-70 -75 0
-71 -72 0
-71 -73 0
-71 -74 0
-71 -75 0
-72 -73 0
-72 -74 0
-72 -75 0
-73 -74 0
-73 -75 0
-74 -75 0
76 77 78 79 80 81 82 83 84 85 86 87 88 89 90 0
-76 -77 0
-76 -78 0
-76 -79 0
-76 -80 0
-76 -81 0
-76 -82 0
-76 -83 0
-76 -84 0
-76 -85 0
-76 -86 0
-76 -87 0
-76 -88 0
-76 -89 0
-76 -90 0
-77 -78 0
-77 -79 0
-77 -80 0
-77 -81 0
-77 -82 0
-77 -83 0
-77 -84 0
-77 -85 0
-77 -86 0
-77 -87 0
-77 -88 0
-77 -89 0
-77 -90 0
-78 -79 0
-78 -80 0
-78 -81 0
-78 -82 0
-78 -83 0
-78 -84 0
-78 -85 0
-78 -86 0
-78 -87 0
-78 -88 0
-78 -89 0
-78 -90 0
-79 -80 0
-79 -81 0
-79 -82 0
-79 -83 0
-79 -84 0
-79 -85 0
-79 -86 0
-79 -87 0
-79 -88 0
-79 -89 0
-79 -90 0
-80 -81 0
-80 -82 0
-80 -83 0
-80 -84 0
-80 -85 0
-80 -86 0
-80 -87 0
-80 -88 0
-80 -89 0
-80 -90 0
-81 -82 0
-81 -83 0
-81 -84 0
-81 -85 0
-81 -86 0
-81 -87 0
-81 -88 0
-81 -89 0
-81 -90 0
-82 -83 0
-82 -84 0
-82 -85 0
-82 -86 0
-82 -87 0
-82 -88 0
-82 -89 0
-82 -90 0
-83 -84 0
-83 -85 0
-83 -86 0
-83 -87 0
-83 -88 0
-83 -89 0
-83 -90 0
-84 -85 0
-84 -86 0
-84 -87 0
-84 -88 0
-84 -89 0
-84 -90 0
-85 -86 0
-85 -87 0
-85 -88 0
-85 -89 0
-85 -90 0
-86 -87 0
-86 -88 0
-86 -89 0
-86 -90 0
-87 -88 0
-87 -89 0
-87 -90 0
-88 -89 0
-88 -90 0
-89 -90 0
91 92 93 94 95 96 97 98 99 100 101 102 103 104 105 0
-91 -92 0
-91 -93 0
-91 -94 0
-91 -95 0
-91 -96 0
-91 -97 0
-91 -98 0
-91 -99 0
-91 -100 0
-91 -101 0
-91 -102 0
-91 -103 0
-91 -104 0
-91 -105 0
-92 -93 0
-92 -94 0
-92 -95 0
-92 -96 0
-92 -97 0
-92 -98 0
-92 -99 0
-92 -100 0
-92 -101 0
-92 -102 0
-92 -103 0
-92 -104 0
-92 -105 0
-93 -94 0
-93 -95 0
-93 -96 0
-93 -97 0
-93 -98 0
-93 -99 0
-93 -100 0
-93 -101 0
-93 -102 0
-93 -103 0
-93 -104 0
-93 -105 0
-94 -95 0
-94 -96 0
-94 -97 0
-94 -98 0
-94 -99 0
-94 -100 0
-94 -101 0
-94 -102 0
-94 -103 0
-94 -104 0
-94 -105 0
-95 -96 0
-95 -97 0
-95 -98 0
-95 -99 0
-95 -100 0
-95 -101 0
-95 -102 0
-95 -103 0
-95 -104 0
-95 -105 0
-96 -97 0
-96 -98 0
-96 -99 0
-96 -100 0
-96 -101 0
-96 -102 0
-96 -103 0
-96 -104 0
-96 -105 0
-97 -98 0
-97 -99 0
-97 -100 0
-97 -101 0
-97 -102 0
-97 -103 0
-97 -104 0
-97 -105 0
-98 -99 0
-98 -100 0
-98 -101 0
-98 -102 0
-98 -103 0
-98 -104 0
-98 -105 0
-99 -100 0
-99 -101 0
-99 -102 0
-99 -103 0
-99 -104 0
-99 -105 0
-100 -101 0
-100 -102 0
-100 -103 0
-100 -104 0
-100 -105 0
-101 -102 0
-101 -103 0
-101 -104 0
-101 -105 0
-102 -103 0
-102 -104 0
-102 -105 0
-103 -104 0
-103 -105 0
-104 -105 0
106 107 108 109 110 111 112 113 114 115 116 117 118 119 120 0
-106 -107 0
-106 -108 0
-106 -109 0
-106 -110 0
-106 -111 0
-106 -112 0
-106 -113 0
-106 -114 0
-106 -115 0
-106 -116 0
-106 -117 0
-106 -118 0
-106 -119 0
-106 -120 0
-107 -108 0
-107 -109 0
-107 -110 0
-107 -111 0
-107 -112 0
-107 -113 0
-107 -114 0
-107 -115 0
-107 -116 0
-107 -117 0
-107 -118 0
-107 -119 0
-107 -120 0
-108 -109 0
-108 -110 0
-108 -111 0
-108 -112 0
-108 -113 0
-108 -114 0
-108 -115 0
-108 -116 0
-108 -117 0
-108 -118 0
-108 -119 0
-108 -120 0
-109 -110 0
-109 -111 0
-109 -112 0
-109 -113 0
-109 -114 0
-109 -115 0
-109 -116 0
-109 -117 0
-109 -118 0
-109 -119 0
-109 -120 0
-110 -111 0
-110 -112 0
-110 -113 0
-110 -114 0
-110 -115 0
-110 -116 0
-110 -117 0
-110 -118 0
-110 -119 0
-110 -120 0
-111 -112 0
-111 -113 0
-111 -114 0
-111 -115 0
-111 -116 0
-111 -117 0
-111 -118 0
-111 -119 0
-111 -120 0
-112 -113 0
-112 -114 0
-112 -115 0
-112 -116 0
-112 -117 0
-112 -118 0
-112 -119 0
-112 -120 0
-113 -114 0
-113 -115 0
-113 -116 0
-113 -117 0
-113 -118 0
-113 -119 0
-113 -120 0
-114 -115 0
-114 -116 0
-114 -117 0
-114 -118 0
-114 -119 0
-114 -120 0
-115 -116 0
-115 -117 0
-115 -118 0
-115 -119 0
-115 -120 0
-116 -117 0
-116 -118 0
-116 -119 0
-116 -120 0
-117 -118 0
-117 -119 0
-117 -120 0
-118 -119 0
-118 -120 0
-119 -120 0
121 122 123 124 125 126 127 128 129 130 131 132 133 134 135 0
-121 -122 0
-121 -123 0
-121 -124 0
-121 -125 0
-121 -126 0
-121 -127 0
-121 -128 0
-121 -129 0
-121 -130 0
-121 -131 0
-121 -132 0
-121 -133 0
-121 -134 0
-121 -135 0
-122 -123 0
-122 -124 0
-122 -125 0
-122 -126 0
-122 -127 0
-122 -128 0
-122 -129 0
-122 -130 0
-122 -131 0
-122 -132 0
-122 -133 0
-122 -134 0
-122 -135 0
-123 -124 0
-123 -125 0
-123 -126 0
-123 -127 0
-123 -128 0
-123 -129 0
-123 -130 0
-123 -131 0
-123 -132 0
-123 -133 0
-123 -134 0
-123 -135 0
-124 -125 0
-124 -126 0
-124 -127 0
-124 -128 0
-124 -129 0
-124 -130 0
-124 -131 0
-124 -132 0
-124 -133 0
-124 -134 0
-124 -135 0
-125 -126 0
-125 -127 0
-125 -128 0
-125 -129 0
-125 -130 0
-125 -131 0
-125 -132 0
-125 -133 0
-125 -134 0
-125 -135 0
-126 -127 0
-126 -128 0
-126 -129 0
-126 -130 0
-126 -131 0
-126 -132 0
-126 -133 0
-126 -134 0
-126 -135 0
-127 -128 0
-127 -129 0
-127 -130 0
-127 -131 0
-127 -132 0
-127 -133 0
-127 -134 0
-127 -135 0
-128 -129 0
-128 -130 0
-128 -131 0
-128 -132 0
-128 -133 0
-128 -134 0
-128 -135 0
-129 -130 0
-129 -131 0
-129 -132 0
-129 -133 0
-129 -134 0
-129 -135 0
-130 -131 0
-130 -132 0
-130 -133 0
-130 -134 0
-130 -135 0
-131 -132 0
-131 -133 0
-131 -134 0
-131 -135 0
-132 -133 0
-132 -134 0
-132 -135 0
-133 -134 0
-133 -135 0
-134 -135 0
136 137 138 139 140 141 142 143 144 145 146 147 148 149 150 0
-136 -137 0
-136 -138 0
-136 -139 0
-136 -140 0
-136 -141 0
-136 -142 0
-136 -143 0
-136 -144 0
-136 -145 0
-136 -146 0
-136 -147 0
-136 -148 0
-136 -149 0
-136 -150 0
-137 -138 0
-137 -139 0
-137 -140 0
-137 -141 0
-137 -142 0
-137 -143 0
-137 -144 0
-137 -145 0
-137 -146 0
-137 -147 0
-137 -148 0
-137 -149 0
-137 -150 0
-138 -139 0
-138 -140 0
-138 -141 0
-138 -142 0
-138 -143 0
-138 -144 0
-138 -145 0
-138 -146 0
-138 -147 0
-138 -148 0
-138 -149 0
-138 -150 0
-139 -140 0
-139 -141 0
-139 -142 0
-139 -143 0
-139 -144 0
-139 -145 0
-139 -146 0
-139 -147 0
-139 -148 0
-139 -149 0
-139 -150 0
-140 -141 0
-140 -142 0
-140 -143 0
-140 -144 0
-140 -145 0
-140 -146 0
-140 -147 0
-140 -148 0
-140 -149 0
-140 -150 0
-141 -142 0
-141 -143 0
-141 -144 0
-141 -145 0
-141 -146 0
-141 -147 0
-141 -148 0
-141 -149 0
-141 -150 0
-142 -143 0
-142 -144 0
-142 -145 0
-142 -146 0
-142 -147 0
-142 -148 0
-142 -149 0
-142 -150 0
-143 -144 0
-143 -145 0
-143 -146 0
-143 -147 0
-143 -148 0
-143 -149 0
-143 -150 0
-144 -145 0
-144 -146 0
-144 -147 0
-144 -148 0
-144 -149 0
-144 -150 0
-145 -146 0
-145 -147 0
-145 -148 0
-145 -149 0
-145 -150 0
-146 -147 0
-146 -148 0
-146 -149 0
-146 -150 0
-147 -148 0
-147 -149 0
-147 -150 0
-148 -149 0
-148 -150 0
-149 -150 0
151 152 153 154 155 156 157 158 159 160 161 162 163 164 165 0
-151 -152 0
-151 -153 0
-151 -154 0
-151 -155 0
-151 -156 0
-151 -157 0
-151 -158 0
-151 -159 0
-151 -160 0
-151 -161 0
-151 -162 0
-151 -163 0
-151 -164 0
-151 -165 0
-152 -153 0
-152 -154 0
-152 -155 0
-152 -156 0
-152 -157 0
-152 -158 0
-152 -159 0
-152 -160 0
-152 -161 0
-152 -162 0
-152 -163 0
-152 -164 0
-152 -165 0
-153 -154 0
-153 -155 0
-153 -156 0
-153 -157 0
-153 -158 0
-153 -159 0
-153 -160 0
-153 -161 0
-153 -162 0
-153 -163 0
-153 -164 0
-153 -165 0
-154 -155 0
-154 -156 0
-154 -157 0
-154 -158 0
-154 -159 0
-154 -160 0
-154 -161 0
-154 -162 0
-154 -163 0
-154 -164 0
-154 -165 0
-155 -156 0
-155 -157 0
-155 -158 0
-155 -159 0
-155 -160 0
-155 -161 0
-155 -162 0
-155 -163 0
-155 -164 0
-155 -165 0
-156 -157 0
-156 -158 0
-156 -159 0
-156 -160 0
-156 -161 0
-156 -162 0
-156 -163 0
-156 -164 0
-156 -165 0
-157 -158 0
-157 -159 0
-157 -160 0
-157 -161 0
-157 -162 0
-157 -163 0
-157 -164 0
-157 -165 0
-158 -159 0
-158 -160 0
-158 -161 0
-158 -162 0
-158 -163 0
-158 -164 0
-158 -165 0
-159 -160 0
-159 -161 0
-159 -162 0
-159 -163 0
-159 -164 0
-159 -165 0
-160 -161 0
-160 -162 0
-160 -163 0
-160 -164 0
-160 -165 0
-161 -162 0
-161 -163 0
-161 -164 0
-161 -165 0
-162 -163 0
-162 -164 0
-162 -165 0
-163 -164 0
-163 -165 0
-164 -165 0
166 167 168 169 170 171 172 173 174 175 176 177 178 179 180 0
-166 -167 0
-166 -168 0
-166 -169 0
-166 -170 0
-166 -171 0
-166 -172 0
-166 -173 0
-166 -174 0
-166 -175 0
-166 -176 0
-166 -177 0
-166 -178 0
-166 -179 0
-166 -180 0
-167 -168 0
-167 -169 0
-167 -170 0
-167 -171 0
-167 -172 0
-167 -173 0
-167 -174 0
-167 -175 0
-167 -176 0
-167 -177 0
-167 -178 0
-167 -179 0
-167 -180 0
-168 -169 0
-168 -170 0
-168 -171 0
-168 -172 0
-168 -173 0
-168 -174 0
-168 -175 0
-168 -176 0
-168 -177 0
-168 -178 0
-168 -179 0
-168 -180 0
-169 -170 0
-169 -171 0
-169 -172 0
-169 -173 0
-169 -174 0
-169 -175 0
-169 -176 0
-169 -177 0
-169 -178 0
-169 -179 0
-169 -180 0
-170 -171 0
-170 -172 0
-170 -173 0
-170 -174 0
-170 -175 0
-170 -176 0
-170 -177 0
-170 -178 0
-170 -179 0
-170 -180 0
-171 -172 0
-171 -173 0
-171 -174 0
-171 -175 0
-171 -176 0
-171 -177 0
-171 -178 0
-171 -179 0
-171 -180 0
-172 -173 0
-172 -174 0
-172 -175 0
-172 -176 0
-172 -177 0
-172 -178 0
-172 -179 0
-172 -180 0
-173 -174 0
-173 -175 0
-173 -176 0
-173 -177 0
-173 -178 0
-173 -179 0
-173 -180 0
-174 -175 0
-174 -176 0
-174 -177 0
-174 -178 0
-174 -179 0
-174 -180 0
-175 -176 0
-175 -177 0
-175 -178 0
-175 -179 0
-175 -180 0
-176 -177 0
-176 -178 0
-176 -179 0
-176 -180 0
-177 -178 0
-177 -179 0
-177 -180 0
-178 -179 0
-178 -180 0
-179 -180 0
181 182 183 184 185 186 187 188 189 190 191 192 193 194 195 0
-181 -182 0
-181 -183 0
-181 -184 0
-181 -185 0
-181 -186 0
-181 -187 0
-181 -188 0
-181 -189 0
-181 -190 0
-181 -191 0
-181 -192 0
-181 -193 0
-181 -194 0
-181 -195 0
-182 -183 0
-182 -184 0
-182 -185 0
-182 -186 0
-182 -187 0
-182 -188 0
-182 -189 0
-182 -190 0
-182 -191 0
-182 -192 0
-182 -193 0
-182 -194 0
-182 -195 0
-183 -184 0
-183 -185 0
-183 -186 0
-183 -187 0
-183 -188 0
-183 -189 0
-183 -190 0
-183 -191 0
-183 -192 0
-183 -193 0
-183 -194 0
-183 -195 0
-184 -185 0
-184 -186 0
-184 -187 0
-184 -188 0
-184 -189 0
-184 -190 0
-184 -191 0
-184 -192 0
-184 -193 0
-184 -194 0
-184 -195 0
-185 -186 0
-185 -187 0
-185 -188 0
-185 -189 0
-185 -190 0
-185 -191 0
-185 -192 0
-185 -193 0
-185 -194 0
-185 -195 0
-186 -187 0
-186 -188 0
-186 -189 0
-186 -190 0
-186 -191 0
-186 -192 0
-186 -193 0
-186 -194 0
-186 -195 0
-187 -188 0
-187 -189 0
-187 -190 0
-187 -191 0
-187 -192 0
-187 -193 0
-187 -194 0
-187 -195 0
-188 -189 0
-188 -190 0
-188 -191 0
-188 -192 0
-188 -193 0
-188 -194 0
-188 -195 0
-189 -190 0
-189 -191 0
-189 -192 0
-189 -193 0
-189 -194 0
-189 -195 0
-190 -191 0
-190 -192 0
-190 -193 0
-190 -194 0
-190 -195 0
-191 -192 0
-191 -193 0
-191 -194 0
-191 -195 0
-192 -193 0
-192 -194 0
-192 -195 0
-193 -194 0
-193 -195 0
-194 -195 0
196 197 198 199 200 201 202 203 204 205 206 207 208 209 210 0
-196 -197 0
-196 -198 0
-196 -199 0
-196 -200 0
-196 -201 0
-196 -202 0
-196 -203 0
-196 -204 0
-196 -205 0
-196 -206 0
-196 -207 0
-196 -208 0
-196 -209 0
-196 -210 0
-197 -198 0
-197 -199 0
-197 -200 0
-197 -201 0
-197 -202 0
-197 -203 0
-197 -204 0
-197 -205 0
-197 -206 0
-197 -207 0
-197 -208 0
-197 -209 0
-197 -210 0
-198 -199 0
-198 -200 0
-198 -201 0
-198 -202 0
-198 -203 0
-198 -204 0
-198 -205 0
-198 -206 0
-198 -207 0
-198 -208 0
-198 -209 0
-198 -210 0
-199 -200 0
-199 -201 0
-199 -202 0
-199 -203 0
-199 -204 0
-199 -205 0
-199 -206 0
-199 -207 0
-199 -208 0
-199 -209 0
-199 -210 0
-200 -201 0
-200 -202 0
-200 -203 0
-200 -204 0
-200 -205 0
-200 -206 0
-200 -207 0
-200 -208 0
-200 -209 0
-200 -210 0
-201 -202 0
-201 -203 0
-201 -204 0
-201 -205 0
-201 -206 0
-201 -207 0
-201 -208 0
-201 -209 0
-201 -210 0
-202 -203 0
-202 -204 0
-202 -205 0
-202 -206 0
-202 -207 0
-202 -208 0
-202 -209 0
-202 -210 0
-203 -204 0
-203 -205 0
-203 -206 0
-203 -207 0
-203 -208 0
-203 -209 0
-203 -210 0
-204 -205 0
-204 -206 0
-204 -207 0
-204 -208 0
-204 -209 0
-204 -210 0
-205 -206 0
-205 -207 0
-205 -208 0
-205 -209 0
-205 -210 0
-206 -207 0
-206 -208 0
-206 -209 0
-206 -210 0
-207 -208 0
-207 -209 0
-207 -210 0
-208 -209 0
-208 -210 0
-209 -210 0
211 212 213 214 215 216 217 218 219 220 221 222 223 224 225 0
-211 -212 0
-211 -213 0
-211 -214 0
-211 -215 0
-211 -216 0
-211 -217 0
-211 -218 0
-211 -219 0
-211 -220 0
-211 -221 0
-211 -222 0
-211 -223 0
-211 -224 0
-211 -225 0
-212 -213 0
-212 -214 0
-212 -215 0
-212 -216 0
-212 -217 0
-212 -218 0
-212 -219 0
-212 -220 0
-212 -221 0
-212 -222 0
-212 -223 0
-212 -224 0
-212 -225 0
-213 -214 0
-213 -215 0
-213 -216 0
-213 -217 0
-213 -218 0
-213 -219 0
-213 -220 0
-213 -221 0
-213 -222 0
-213 -223 0
-213 -224 0
-213 -225 0
-214 -215 0
-214 -216 0
-214 -217 0
-214 -218 0
-214 -219 0
-214 -220 0
-214 -221 0
-214 -222 0
-214 -223 0
-214 -224 0
-214 -225 0
-215 -216 0
-215 -217 0
-215 -218 0
-215 -219 0
-215 -220 0
-215 -221 0
-215 -222 0
-215 -223 0
-215 -224 0
-215 -225 0
-216 -217 0
-216 -218 0
-216 -219 0
-216 -220 0
-216 -221 0
-216 -222 0
-216 -223 0
-216 -224 0
-216 -225 0
-217 -218 0
-217 -219 0
-217 -220 0
-217 -221 0
-217 -222 0
-217 -223 0
-217 -224 0
-217 -225 0
-218 -219 0
-218 -220 0
-218 -221 0
-218 -222 0
-218 -223 0
-218 -224 0
-218 -225 0
-219 -220 0
-219 -221 0
-219 -222 0
-219 -223 0
-219 -224 0
-219 -225 0
-220 -221 0
-220 -222 0
-220 -223 0
-220 -224 0
-220 -225 0
-221 -222 0
-221 -223 0
-221 -224 0
-221 -225 0
-222 -223 0
-222 -224 0
-222 -225 0
-223 -224 0
-223 -225 0
-224 -225 0
226 227 228 229 230 231 232 233 234 235 236 237 238 239 240 0
-226 -227 0
-226 -228 0
-226 -229 0
-226 -230 0
-226 -231 0
-226 -232 0
-226 -233 0
-226 -234 0
-226 -235 0
-226 -236 0
-226 -237 0
-226 -238 0
-226 -239 0
-226 -240 0
-227 -228 0
-227 -229 0
-227 -230 0
-227 -231 0
-227 -232 0
-227 -233 0
-227 -234 0
-227 -235 0
-227 -236 0
-227 -237 0
-227 -238 0
-227 -239 0
-227 -240 0
-228 -229 0
-228 -230 0
-228 -231 0
-228 -232 0
-228 -233 0
-228 -234 0
-228 -235 0
-228 -236 0
-228 -237 0
-228 -238 0
-228 -239 0
-228 -240 0
-229 -230 0
-229 -231 0
-229 -232 0
-229 -233 0
-229 -234 0
-229 -235 0
-229 -236 0
-229 -237 0
-229 -238 0
-229 -239 0
-229 -240 0
-230 -231 0
-230 -232 0
-230 -233 0
-230 -234 0
-230 -235 0
-230 -236 0
-230 -237 0
-230 -238 0
-230 -239 0
-230 -240 0
-231 -232 0
-231 -233 0
-231 -234 0
-231 -235 0
-231 -236 0
-231 -237 0
-231 -238 0
-231 -239 0
-231 -240 0
-232 -233 0
-232 -234 0
-232 -235 0
-232 -236 0
-232 -237 0
-232 -238 0
-232 -239 0
-232 -240 0
-233 -234 0
-233 -235 0
-233 -236 0
-233 -237 0
-233 -238 0
-233 -239 0
-233 -240 0
-234 -235 0
-234 -236 0
-234 -237 0
-234 -238 0
-234 -239 0
-234 -240 0
-235 -236 0
-235 -237 0
-235 -238 0
-235 -239 0
-235 -240 0
-236 -237 0
-236 -238 0
-236 -239 0
-236 -240 0
-237 -238 0
-237 -239 0
-237 -240 0
-238 -239 0
-238 -240 0
-239 -240 0
241 242 243 244 245 246 247 248 249 250 251 252 253 254 255 0
-241 -242 0
-241 -243 0
-241 -244 0
-241 -245 0
-241 -246 0
-241 -247 0
-241 -248 0
-241 -249 0
-241 -250 0
-241 -251 0
-241 -252 0
-241 -253 0
-241 -254 0
-241 -255 0
-242 -243 0
-242 -244 0
-242 -245 0
-242 -246 0
-242 -247 0
-242 -248 0
-242 -249 0
-242 -250 0
-242 -251 0
-242 -252 0
-242 -253 0
-242 -254 0
-242 -255 0
-243 -244 0
-243 -245 0
-243 -246 0
-243 -247 0
-243 -248 0
-243 -249 0
-243 -250 0
-243 -251 0
-243 -252 0
-243 -253 0
-243 -254 0
-243 -255 0
-244 -245 0
-244 -246 0
-244 -247 0
-244 -248 0
-244 -249 0
-244 -250 0
-244 -251 0
-244 -252 0
-244 -253 0
-244 -254 0
-244 -255 0
-245 -246 0
-245 -247 0
-245 -248 0
-245 -249 0
-245 -250 0
-245 -251 0
-245 -252 0
-245 -253 0
-245 -254 0
-245 -255 0
-246 -247 0
-246 -248 0
-246 -249 0
-246 -250 0
-246 -251 0
-246 -252 0
-246 -253 0
-246 -254 0
-246 -255 0
-247 -248 0
-247 -249 0
-247 -250 0
-247 -251 0
-247 -252 0
-247 -253 0
-247 -254 0
-247 -255 0
-248 -249 0
-248 -250 0
-248 -251 0
-248 -252 0
-248 -253 0
-248 -254 0
-248 -255 0
-249 -250 0
-249 -251 0
-249 -252 0
-249 -253 0
-249 -254 0
-249 -255 0
-250 -251 0
-250 -252 0
-250 -253 0
-250 -254 0
-250 -255 0
-251 -252 0
-251 -253 0
-251 -254 0
-251 -255 0
-252 -253 0
-252 -254 0
-252 -255 0
-253 -254 0
-253 -255 0
-254 -255 0
256 257 258 259 260 261 262 263 264 265 266 267 268 269 270 0
-256 -257 0
-256 -258 0
-256 -259 0
-256 -260 0
-256 -261 0
-256 -262 0
-256 -263 0
-256 -264 0
-256 -265 0
-256 -266 0
-256 -267 0
-256 -268 0
-256 -269 0
-256 -270 0
-257 -258 0
-257 -259 0
-257 -260 0
-257 -261 0
-257 -262 0
-257 -263 0
-257 -264 0
-257 -265 0
-257 -266 0
-257 -267 0
-257 -268 0
-257 -269 0
-257 -270 0
-258 -259 0
-258 -260 0
-258 -261 0
-258 -262 0
-258 -263 0
-258 -264 0
-258 -265 0
-258 -266 0
-258 -267 0
-258 -268 0
-258 -269 0
-258 -270 0
-259 -260 0
-259 -261 0
-259 -262 0
-259 -263 0
-259 -264 0
-259 -265 0
-259 -266 0
-259 -267 0
-259 -268 0
-259 -269 0
-259 -270 0
-260 -261 0
-260 -262 0
-260 -263 0
-260 -264 0
-260 -265 0
-260 -266 0
-260 -267 0
-260 -268 0
-260 -269 0
-260 -270 0
-261 -262 0
-261 -263 0
-261 -264 0
-261 -265 0
-261 -266 0
-261 -267 0
-261 -268 0
-261 -269 0
-261 -270 0
-262 -263 0
-262 -264 0
-262 -265 0
-262 -266 0
-262 -267 0
-262 -268 0
-262 -269 0
-262 -270 0
-263 -264 0
-263 -265 0
-263 -266 0
-263 -267 0
-263 -268 0
-263 -269 0
-263 -270 0
-264 -265 0
-264 -266 0
-264 -267 0
-264 -268 0
-264 -269 0
-264 -270 0
-265 -266 0
-265 -267 0
-265 -268 0
-265 -269 0
-265 -270 0
-266 -267 0
-266 -268 0
-266 -269 0
-266 -270 0
-267 -268 0
-267 -269 0
-267 -270 0
-268 -269 0
-268 -270 0
-269 -270 0
271 272 273 274 275 276 277 278 279 280 281 282 283 284 285 0
-271 -272 0
-271 -273 0
-271 -274 0
-271 -275 0
-271 -276 0
-271 -277 0
-271 -278 0
-271 -279 0
-271 -280 0
-271 -281 0
-271 -282 0
-271 -283 0
-271 -284 0
-271 -285 0
-272 -273 0
-272 -274 0
-272 -275 0
-272 -276 0
-272 -277 0
-272 -278 0
-272 -279 0
-272 -280 0
-272 -281 0
-272 -282 0
-272 -283 0
-272 -284 0
-272 -285 0
-273 -274 0
-273 -275 0
-273 -276 0
-273 -277 0
-273 -278 0
-273 -279 0
-273 -280 0
-273 -281 0
-273 -282 0
-273 -283 0
-273 -284 0
-273 -285 0
-274 -275 0
-274 -276 0
-274 -277 0
-274 -278 0
-274 -279 0
-274 -280 0
-274 -281 0
-274 -282 0
-274 -283 0
-274 -284 0
-274 -285 0
-275 -276 0
-275 -277 0
-275 -278 0
-275 -279 0
-275 -280 0
-275 -281 0
-275 -282 0
-275 -283 0
-275 -284 0
-275 -285 0
-276 -277 0
-276 -278 0
-276 -279 0
-276 -280 0
-276 -281 0
-276 -282 0
-276 -283 0
-276 -284 0
-276 -285 0
-277 -278 0
-277 -279 0
-277 -280 0
-277 -281 0
-277 -282 0
-277 -283 0
-277 -284 0
-277 -285 0
-278 -279 0
-278 -280 0
-278 -281 0
-278 -282 0
-278 -283 0
-278 -284 0
-278 -285 0
-279 -280 0
-279 -281 0
-279 -282 0
-279 -283 0
-279 -284 0
-279 -285 0
-280 -281 0
-280 -282 0
-280 -283 0
-280 -284 0
-280 -285 0
-281 -282 0
-281 -283 0
-281 -284 0
-281 -285 0
-282 -283 0
-282 -284 0
-282 -285 0
-283 -284 0
-283 -285 0
-284 -285 0
286 287 288 289 290 291 292 293 294 295 296 297 298 299 300 0
-286 -287 0
-286 -288 0
-286 -289 0
-286 -290 0
-286 -291 0
-286 -292 0
-286 -293 0
-286 -294 0
-286 -295 0
-286 -296 0
-286 -297 0
-286 -298 0
-286 -299 0
-286 -300 0
-287 -288 0
-287 -289 0
-287 -290 0
-287 -291 0
-287 -292 0
-287 -293 0
-287 -294 0
-287 -295 0
-287 -296 0
-287 -297 0
-287 -298 0
-287 -299 0
-287 -300 0
-288 -289 0
-288 -290 0
-288 -291 0
-288 -292 0
-288 -293 0
-288 -294 0
-288 -295 0
-288 -296 0
-288 -297 0
-288 -298 0
-288 -299 0
-288 -300 0
-289 -290 0
-289 -291 0
-289 -292 0
-289 -293 0
-289 -294 0
-289 -295 0
-289 -296 0
-289 -297 0
-289 -298 0
-289 -299 0
-289 -300 0
-290 -291 0
-290 -292 0
-290 -293 0
-290 -294 0
-290 -295 0
-290 -296 0
-290 -297 0
-290 -298 0
-290 -299 0
-290 -300 0
-291 -292 0
-291 -293 0
-291 -294 0
-291 -295 0
-291 -296 0
-291 -297 0
-291 -298 0
-291 -299 0
-291 -300 0
-292 -293 0
-292 -294 0
-292 -295 0
-292 -296 0
-292 -297 0
-292 -298 0
-292 -299 0
-292 -300 0
-293 -294 0
-293 -295 0
-293 -296 0
-293 -297 0
-293 -298 0
-293 -299 0
-293 -300 0
-294 -295 0
-294 -296 0
-294 -297 0
-294 -298 0
-294 -299 0
-294 -300 0
-295 -296 0
-295 -297 0
-295 -298 0
-295 -299 0
-295 -300 0
-296 -297 0
-296 -298 0
-296 -299 0
-296 -300 0
-297 -298 0
-297 -299 0
-297 -300 0
-298 -299 0
-298 -300 0
-299 -300 0
301 302 303 304 305 306 307 308 309 310 311 312 313 314 315 0
-301 -302 0
-301 -303 0
-301 -304 0
-301 -305 0
-301 -306 0
-301 -307 0
-301 -308 0
-301 -309 0
-301 -310 0
-301 -311 0
-301 -312 0
-301 -313 0
-301 -314 0
-301 -315 0
-302 -303 0
-302 -304 0
-302 -305 0
-302 -306 0
-302 -307 0
-302 -308 0
-302 -309 0
-302 -310 0
-302 -311 0
-302 -312 0
-302 -313 0
-302 -314 0
-302 -315 0
-303 -304 0
-303 -305 0
-303 -306 0
-303 -307 0
-303 -308 0
-303 -309 0
-303 -310 0
-303 -311 0
-303 -312 0
-303 -313 0
-303 -314 0
-303 -315 0
-304 -305 0
-304 -306 0
-304 -307 0
-304 -308 0
-304 -309 0
-304 -310 0
-304 -311 0
-304 -312 0
-304 -313 0
-304 -314 0
-304 -315 0
-305 -306 0
-305 -307 0
-305 -308 0
-305 -309 0
-305 -310 0
-305 -311 0
-305 -312 0
-305 -313 0
-305 -314 0
-305 -315 0
-306 -307 0
-306 -308 0
-306 -309 0
-306 -310 0
-306 -311 0
-306 -312 0
-306 -313 0
-306 -314 0
-306 -315 0
-307 -308 0
-307 -309 0
-307 -310 0
-307 -311 0
-307 -312 0
-307 -313 0
-307 -314 0
-307 -315 0
-308 -309 0
-308 -310 0
-308 -311 0
-308 -312 0
-308 -313 0
-308 -314 0
-308 -315 0
-309 -310 0
-309 -311 0
-309 -312 0
-309 -313 0
-309 -314 0
-309 -315 0
-310 -311 0
-310 -312 0
-310 -313 0
-310 -314 0
-310 -315 0
-311 -312 0
-311 -313 0
-311 -314 0
-311 -315 0
-312 -313 0
-312 -314 0
-312 -315 0
-313 -314 0
-313 -315 0
-314 -315 0
316 317 318 319 320 321 322 323 324 325 326 327 328 329 330 0
-316 -317 0
-316 -318 0
-316 -319 0
-316 -320 0
-316 -321 0
-316 -322 0
-316 -323 0
-316 -324 0
-316 -325 0
-316 -326 0
-316 -327 0
-316 -328 0
-316 -329 0
-316 -330 0
-317 -318 0
-317 -319 0
-317 -320 0
-317 -321 0
-317 -322 0
-317 -323 0
-317 -324 0
-317 -325 0
-317 -326 0
-317 -327 0
-317 -328 0
-317 -329 0
-317 -330 0
-318 -319 0
-318 -320 0
-318 -321 0
-318 -322 0
-318 -323 0
-318 -324 0
-318 -325 0
-318 -326 0
-318 -327 0
-318 -328 0
-318 -329 0
-318 -330 0
-319 -320 0
-319 -321 0
-319 -322 0
-319 -323 0
-319 -324 0
-319 -325 0
-319 -326 0
-319 -327 0
-319 -328 0
-319 -329 0
-319 -330 0
-320 -321 0
-320 -322 0
-320 -323 0
-320 -324 0
-320 -325 0
-320 -326 0
-320 -327 0
-320 -328 0
-320 -329 0
-320 -330 0
-321 -322 0
-321 -323 0
-321 -324 0
-321 -325 0
-321 -326 0
-321 -327 0
-321 -328 0
-321 -329 0
-321 -330 0
-322 -323 0
-322 -324 0
-322 -325 0
-322 -326 0
-322 -327 0
-322 -328 0
-322 -329 0
-322 -330 0
-323 -324 0
-323 -325 0
-323 -326 0
-323 -327 0
-323 -328 0
-323 -329 0
-323 -330 0
-324 -325 0
-324 -326 0
-324 -327 0
-324 -328 0
-324 -329 0
-324 -330 0
-325 -326 0
-325 -327 0
-325 -328 0
-325 -329 0
-325 -330 0
-326 -327 0
-326 -328 0
-326 -329 0
-326 -330 0
-327 -328 0
-327 -329 0
-327 -330 0
-328 -329 0
-328 -330 0
-329 -330 0
331 332 333 334 335 336 337 338 339 340 341 342 343 344 345 0
-331 -332 0
-331 -333 0
-331 -334 0
-331 -335 0
-331 -336 0
-331 -337 0
-331 -338 0
-331 -339 0
-331 -340 0
-331 -341 0
-331 -342 0
-331 -343 0
-331 -344 0
-331 -345 0
-332 -333 0
-332 -334 0
-332 -335 0
-332 -336 0
-332 -337 0
-332 -338 0
-332 -339 0
-332 -340 0
-332 -341 0
-332 -342 0
-332 -343 0
-332 -344 0
-332 -345 0
-333 -334 0
-333 -335 0
-333 -336 0
-333 -337 0
-333 -338 0
-333 -339 0
-333 -340 0
-333 -341 0
-333 -342 0
-333 -343 0
-333 -344 0
-333 -345 0
-334 -335 0
-334 -336 0
-334 -337 0
-334 -338 0
-334 -339 0
-334 -340 0
-334 -341 0
-334 -342 0
-334 -343 0
-334 -344 0
-334 -345 0
-335 -336 0
-335 -337 0
-335 -338 0
-335 -339 0
-335 -340 0
-335 -341 0
-335 -342 0
-335 -343 0
-335 -344 0
-335 -345 0
-336 -337 0
-336 -338 0
-336 -339 0
-336 -340 0
-336 -341 0
-336 -342 0
-336 -343 0
-336 -344 0
-336 -345 0
-337 -338 0
-337 -339 0
-337 -340 0
-337 -341 0
-337 -342 0
-337 -343 0
-337 -344 0
-337 -345 0
-338 -339 0
-338 -340 0
-338 -341 0
-338 -342 0
-338 -343 0
-338 -344 0
-338 -345 0
-339 -340 0
-339 -341 0
-339 -342 0
-339 -343 0
-339 -344 0
-339 -345 0
-340 -341 0
-340 -342 0
-340 -343 0
-340 -344 0
-340 -345 0
-341 -342 0
-341 -343 0
-341 -344 0
-341 -345 0
-342 -343 0
-342 -344 0
-342 -345 0
-343 -344 0
-343 -345 0
-344 -345 0
346 347 348 349 350 351 352 353 354 355 356 357 358 359 360 0
-346 -347 0
-346 -348 0
-346 -349 0
-346 -350 0
-346 -351 0
-346 -352 0
-346 -353 0
-346 -354 0
-346 -355 0
-346 -356 0
-346 -357 0
-346 -358 0
-346 -359 0
-346 -360 0
-347 -348 0
-347 -349 0
-347 -350 0
-347 -351 0
-347 -352 0
-347 -353 0
-347 -354 0
-347 -355 0
-347 -356 0
-347 -357 0
-347 -358 0
-347 -359 0
-347 -360 0
-348 -349 0
-348 -350 0
-348 -351 0
-348 -352 0
-348 -353 0
-348 -354 0
-348 -355 0
-348 -356 0
-348 -357 0
-348 -358 0
-348 -359 0
-348 -360 0
-349 -350 0
-349 -351 0
-349 -352 0
-349 -353 0
-349 -354 0
-349 -355 0
-349 -356 0
-349 -357 0
-349 -358 0
-349 -359 0
-349 -360 0
-350 -351 0
-350 -352 0
-350 -353 0
-350 -354 0
-350 -355 0
-350 -356 0
-350 -357 0
-350 -358 0
-350 -359 0
-350 -360 0
-351 -352 0
-351 -353 0
-351 -354 0
-351 -355 0
-351 -356 0
-351 -357 0
-351 -358 0
-351 -359 0
-351 -360 0
-352 -353 0
-352 -354 0
-352 -355 0
-352 -356 0
-352 -357 0
-352 -358 0
-352 -359 0
-352 -360 0
-353 -354 0
-353 -355 0
-353 -356 0
-353 -357 0
-353 -358 0
-353 -359 0
-353 -360 0
-354 -355 0
-354 -356 0
-354 -357 0
-354 -358 0
-354 -359 0
-354 -360 0
-355 -356 0
-355 -357 0
-355 -358 0
-355 -359 0
-355 -360 0
-356 -357 0
-356 -358 0
-356 -359 0
-356 -360 0
-357 -358 0
-357 -359 0
-357 -360 0
-358 -359 0
-358 -360 0
-359 -360 0
361 362 363 364 365 366 367 368 369 370 371 372 373 374 375 0
-361 -362 0
-361 -363 0
-361 -364 0
-361 -365 0
-361 -366 0
-361 -367 0
-361 -368 0
-361 -369 0
-361 -370 0
-361 -371 0
-361 -372 0
-361 -373 0
-361 -374 0
-361 -375 0
-362 -363 0
-362 -364 0
-362 -365 0
-362 -366 0
-362 -367 0
-362 -368 0
-362 -369 0
-362 -370 0
-362 -371 0
-362 -372 0
-362 -373 0
-362 -374 0
-362 -375 0
-363 -364 0
-363 -365 0
-363 -366 0
-363 -367 0
-363 -368 0
-363 -369 0
-363 -370 0
-363 -371 0
-363 -372 0
-363 -373 0
-363 -374 0
-363 -375 0
-364 -365 0
-364 -366 0
-364 -367 0
-364 -368 0
-364 -369 0
-364 -370 0
-364 -371 0
-364 -372 0
-364 -373 0
-364 -374 0
-364 -375 0
-365 -366 0
-365 -367 0
-365 -368 0
-365 -369 0
-365 -370 0
-365 -371 0
-365 -372 0
-365 -373 0
-365 -374 0
-365 -375 0
-366 -367 0
-366 -368 0
-366 -369 0
-366 -370 0
-366 -371 0
-366 -372 0
-366 -373 0
-366 -374 0
-366 -375 0
-367 -368 0
-367 -369 0
-367 -370 0
-367 -371 0
-367 -372 0
-367 -373 0
-367 -374 0
-367 -375 0
-368 -369 0
-368 -370 0
-368 -371 0
-368 -372 0
-368 -373 0
-368 -374 0
-368 -375 0
-369 -370 0
-369 -371 0
-369 -372 0
-369 -373 0
-369 -374 0
-369 -375 0
-370 -371 0
-370 -372 0
-370 -373 0
-370 -374 0
-370 -375 0
-371 -372 0
-371 -373 0
-371 -374 0
-371 -375 0
-372 -373 0
-372 -374 0
-372 -375 0
-373 -374 0
-373 -375 0
-374 -375 0
376 377 378 379 380 381 382 383 384 385 386 387 388 389 390 0
-376 -377 0
-376 -378 0
-376 -379 0
-376 -380 0
-376 -381 0
-376 -382 0
-376 -383 0
-376 -384 0
-376 -385 0
-376 -386 0
-376 -387 0
-376 -388 0
-376 -389 0
-376 -390 0
-377 -378 0
-377 -379 0
-377 -380 0
-377 -381 0
-377 -382 0
-377 -383 0
-377 -384 0
-377 -385 0
-377 -386 0
-377 -387 0
-377 -388 0
-377 -389 0
-377 -390 0
-378 -379 0
-378 -380 0
-378 -381 0
-378 -382 0
-378 -383 0
-378 -384 0
-378 -385 0
-378 -386 0
-378 -387 0
-378 -388 0
-378 -389 0
-378 -390 0
-379 -380 0
-379 -381 0
-379 -382 0
-379 -383 0
-379 -384 0
-379 -385 0
-379 -386 0
-379 -387 0
-379 -388 0
-379 -389 0
-379 -390 0
-380 -381 0
-380 -382 0
-380 -383 0
-380 -384 0
-380 -385 0
-380 -386 0
-380 -387 0
-380 -388 0
-380 -389 0
-380 -390 0
-381 -382 0
-381 -383 0
-381 -384 0
-381 -385 0
-381 -386 0
-381 -387 0
-381 -388 0
-381 -389 0
-381 -390 0
-382 -383 0
-382 -384 0
-382 -385 0
-382 -386 0
-382 -387 0
-382 -388 0
-382 -389 0
-382 -390 0
-383 -384 0
-383 -385 0
-383 -386 0
-383 -387 0
-383 -388 0
-383 -389 0
-383 -390 0
-384 -385 0
-384 -386 0
-384 -387 0
-384 -388 0
-384 -389 0
-384 -390 0
-385 -386 0
-385 -387 0
-385 -388 0
-385 -389 0
-385 -390 0
-386 -387 0
-386 -388 0
-386 -389 0
-386 -390 0
-387 -388 0
-387 -389 0
-387 -390 0
-388 -389 0
-388 -390 0
-389 -390 0
391 392 393 394 395 396 397 398 399 400 401 402 403 404 405 0
-391 -392 0
-391 -393 0
-391 -394 0
-391 -395 0
-391 -396 0
-391 -397 0
-391 -398 0
-391 -399 0
-391 -400 0
-391 -401 0
-391 -402 0
-391 -403 0
-391 -404 0
-391 -405 0
-392 -393 0
-392 -394 0
-392 -395 0
-392 -396 0
-392 -397 0
-392 -398 0
-392 -399 0
-392 -400 0
-392 -401 0
-392 -402 0
-392 -403 0
-392 -404 0
-392 -405 0
-393 -394 0
-393 -395 0
-393 -396 0
-393 -397 0
-393 -398 0
-393 -399 0
-393 -400 0
-393 -401 0
-393 -402 0
-393 -403 0
-393 -404 0
-393 -405 0
-394 -395 0
-394 -396 0
-394 -397 0
-394 -398 0
-394 -399 0
-394 -400 0
-394 -401 0
-394 -402 0
-394 -403 0
-394 -404 0
-394 -405 0
-395 -396 0
-395 -397 0
-395 -398 0
-395 -399 0
-395 -400 0
-395 -401 0
-395 -402 0
-395 -403 0
-395 -404 0
-395 -405 0
-396 -397 0
-396 -398 0
-396 -399 0
-396 -400 0
-396 -401 0
-396 -402 0
-396 -403 0
-396 -404 0
-396 -405 0
-397 -398 0
-397 -399 0
-397 -400 0
-397 -401 0
-397 -402 0
-397 -403 0
-397 -404 0
-397 -405 0
-398 -399 0
-398 -400 0
-398 -401 0
-398 -402 0
-398 -403 0
-398 -404 0
-398 -405 0
-399 -400 0
-399 -401 0
-399 -402 0
-399 -403 0
-399 -404 0
-399 -405 0
-400 -401 0
-400 -402 0
-400 -403 0
-400 -404 0
-400 -405 0
-401 -402 0
-401 -403 0
-401 -404 0
-401 -405 0
-402 -403 0
-402 -404 0
-402 -405 0
-403 -404 0
-403 -405 0
-404 -405 0
406 407 408 409 410 411 412 413 414 415 416 417 418 419 420 0
-406 -407 0
-406 -408 0
-406 -409 0
-406 -410 0
-406 -411 0
-406 -412 0
-406 -413 0
-406 -414 0
-406 -415 0
-406 -416 0
-406 -417 0
-406 -418 0
-406 -419 0
-406 -420 0
-407 -408 0
-407 -409 0
-407 -410 0
-407 -411 0
-407 -412 0
-407 -413 0
-407 -414 0
-407 -415 0
-407 -416 0
-407 -417 0
-407 -418 0
-407 -419 0
-407 -420 0
-408 -409 0
-408 -410 0
-408 -411 0
-408 -412 0
-408 -413 0
-408 -414 0
-408 -415 0
-408 -416 0
-408 -417 0
-408 -418 0
-408 -419 0
-408 -420 0
-409 -410 0
-409 -411 0
-409 -412 0
-409 -413 0
-409 -414 0
-409 -415 0
-409 -416 0
-409 -417 0
-409 -418 0
-409 -419 0
-409 -420 0
-410 -411 0
-410 -412 0
-410 -413 0
-410 -414 0
-410 -415 0
-410 -416 0
-410 -417 0
-410 -418 0
-410 -419 0
-410 -420 0
-411 -412 0
-411 -413 0
-411 -414 0
-411 -415 0
-411 -416 0
-411 -417 0
-411 -418 0
-411 -419 0
-411 -420 0
-412 -413 0
-412 -414 0
-412 -415 0
-412 -416 0
-412 -417 0
-412 -418 0
-412 -419 0
-412 -420 0
-413 -414 0
-413 -415 0
-413 -416 0
-413 -417 0
-413 -418 0
-413 -419 0
-413 -420 0
-414 -415 0
-414 -416 0
-414 -417 0
-414 -418 0
-414 -419 0
-414 -420 0
-415 -416 0
-415 -417 0
-415 -418 0
-415 -419 0
-415 -420 0
-416 -417 0
-416 -418 0
-416 -419 0
-416 -420 0
-417 -418 0
-417 -419 0
-417 -420 0
-418 -419 0
-418 -420 0
-419 -420 0
421 422 423 424 425 426 427 428 429 430 431 432 433 434 435 0
-421 -422 0
-421 -423 0
-421 -424 0
-421 -425 0
-421 -426 0
-421 -427 0
-421 -428 0
-421 -429 0
-421 -430 0
-421 -431 0
-421 -432 0
-421 -433 0
-421 -434 0
-421 -435 0
-422 -423 0
-422 -424 0
-422 -425 0
-422 -426 0
-422 -427 0
-422 -428 0
-422 -429 0
-422 -430 0
-422 -431 0
-422 -432 0
-422 -433 0
-422 -434 0
-422 -435 0
-423 -424 0
-423 -425 0
-423 -426 0
-423 -427 0
-423 -428 0
-423 -429 0
-423 -430 0
-423 -431 0
-423 -432 0
-423 -433 0
-423 -434 0
-423 -435 0
-424 -425 0
-424 -426 0
-424 -427 0
-424 -428 0
-424 -429 0
-424 -430 0
-424 -431 0
-424 -432 0
-424 -433 0
-424 -434 0
-424 -435 0
-425 -426 0
-425 -427 0
-425 -428 0
-425 -429 0
-425 -430 0
-425 -431 0
-425 -432 0
-425 -433 0
-425 -434 0
-425 -435 0
-426 -427 0
-426 -428 0
-426 -429 0
-426 -430 0
-426 -431 0
-426 -432 0
-426 -433 0
-426 -434 0
-426 -435 0
-427 -428 0
-427 -429 0
-427 -430 0
-427 -431 0
-427 -432 0
-427 -433 0
-427 -434 0
-427 -435 0
-428 -429 0
-428 -430 0
-428 -431 0
-428 -432 0
-428 -433 0
-428 -434 0
-428 -435 0
-429 -430 0
-429 -431 0
-429 -432 0
-429 -433 0
-429 -434 0
-429 -435 0
-430 -431 0
-430 -432 0
-430 -433 0
-430 -434 0
-430 -435 0
-431 -432 0
-431 -433 0
-431 -434 0
-431 -435 0
-432 -433 0
-432 -434 0
-432 -435 0
-433 -434 0
-433 -435 0
-434 -435 0
436 437 438 439 440 441 442 443 444 445 446 447 448 449 450 0
-436 -437 0
-436 -438 0
-436 -439 0
-436 -440 0
-436 -441 0
-436 -442 0
-436 -443 0
-436 -444 0
-436 -445 0
-436 -446 0
-436 -447 0
-436 -448 0
-436 -449 0
-436 -450 0
-437 -438 0
-437 -439 0
-437 -440 0
-437 -441 0
-437 -442 0
-437 -443 0
-437 -444 0
-437 -445 0
-437 -446 0
-437 -447 0
-437 -448 0
-437 -449 0
-437 -450 0
-438 -439 0
-438 -440 0
-438 -441 0
-438 -442 0
-438 -443 0
-438 -444 0
-438 -445 0
-438 -446 0
-438 -447 0
-438 -448 0
-438 -449 0
-438 -450 0
-439 -440 0
-439 -441 0
-439 -442 0
-439 -443 0
-439 -444 0
-439 -445 0
-439 -446 0
-439 -447 0
-439 -448 0
-439 -449 0
-439 -450 0
-440 -441 0
-440 -442 0
-440 -443 0
-440 -444 0
-440 -445 0
-440 -446 0
-440 -447 0
-440 -448 0
-440 -449 0
-440 -450 0
-441 -442 0
-441 -443 0
-441 -444 0
-441 -445 0
-441 -446 0
-441 -447 0
-441 -448 0
-441 -449 0
-441 -450 0
-442 -443 0
-442 -444 0
-442 -445 0
-442 -446 0
-442 -447 0
-442 -448 0
-442 -449 0
-442 -450 0
-443 -444 0
-443 -445 0
-443 -446 0
-443 -447 0
-443 -448 0
-443 -449 0
-443 -450 0
-444 -445 0
-444 -446 0
-444 -447 0
-444 -448 0
-444 -449 0
-444 -450 0
-445 -446 0
-445 -447 0
-445 -448 0
-445 -449 0
-445 -450 0
-446 -447 0
-446 -448 0
-446 -449 0
-446 -450 0
-447 -448 0
-447 -449 0
-447 -450 0
-448 -449 0
-448 -450 0
-449 -450 0
451 452 453 454 455 456 457 458 459 460 461 462 463 464 465 0
-451 -452 0
-451 -453 0
-451 -454 0
-451 -455 0
-451 -456 0
-451 -457 0
-451 -458 0
-451 -459 0
-451 -460 0
-451 -461 0
-451 -462 0
-451 -463 0
-451 -464 0
-451 -465 0
-452 -453 0
-452 -454 0
-452 -455 0
-452 -456 0
-452 -457 0
-452 -458 0
-452 -459 0
-452 -460 0
-452 -461 0
-452 -462 0
-452 -463 0
-452 -464 0
-452 -465 0
-453 -454 0
-453 -455 0
-453 -456 0
-453 -457 0
-453 -458 0
-453 -459 0
-453 -460 0
-453 -461 0
-453 -462 0
-453 -463 0
-453 -464 0
-453 -465 0
-454 -455 0
-454 -456 0
-454 -457 0
-454 -458 0
-454 -459 0
-454 -460 0
-454 -461 0
-454 -462 0
-454 -463 0
-454 -464 0
-454 -465 0
-455 -456 0
-455 -457 0
-455 -458 0
-455 -459 0
-455 -460 0
-455 -461 0
-455 -462 0
-455 -463 0
-455 -464 0
-455 -465 0
-456 -457 0
-456 -458 0
-456 -459 0
-456 -460 0
-456 -461 0
-456 -462 0
-456 -463 0
-456 -464 0
-456 -465 0
-457 -458 0
-457 -459 0
-457 -460 0
-457 -461 0
-457 -462 0
-457 -463 0
-457 -464 0
-457 -465 0
-458 -459 0
-458 -460 0
-458 -461 0
-458 -462 0
-458 -463 0
-458 -464 0
-458 -465 0
-459 -460 0
-459 -461 0
-459 -462 0
-459 -463 0
-459 -464 0
-459 -465 0
-460 -461 0
-460 -462 0
-460 -463 0
-460 -464 0
-460 -465 0
-461 -462 0
-461 -463 0
-461 -464 0
-461 -465 0
-462 -463 0
-462 -464 0
-462 -465 0
-463 -464 0
-463 -465 0
-464 -465 0
466 467 468 469 470 471 472 473 474 475 476 477 478 479 480 0
-466 -467 0
-466 -468 0
-466 -469 0
-466 -470 0
-466 -471 0
-466 -472 0
-466 -473 0
-466 -474 0
-466 -475 0
-466 -476 0
-466 -477 0
-466 -478 0
-466 -479 0
-466 -480 0
-467 -468 0
-467 -469 0
-467 -470 0
-467 -471 0
-467 -472 0
-467 -473 0
-467 -474 0
-467 -475 0
-467 -476 0
-467 -477 0
-467 -478 0
-467 -479 0
-467 -480 0
-468 -469 0
-468 -470 0
-468 -471 0
-468 -472 0
-468 -473 0
-468 -474 0
-468 -475 0
-468 -476 0
-468 -477 0
-468 -478 0
-468 -479 0
-468 -480 0
-469 -470 0
-469 -471 0
-469 -472 0
-469 -473 0
-469 -474 0
-469 -475 0
-469 -476 0
-469 -477 0
-469 -478 0
-469 -479 0
-469 -480 0
-470 -471 0
-470 -472 0
-470 -473 0
-470 -474 0
-470 -475 0
-470 -476 0
-470 -477 0
-470 -478 0
-470 -479 0
-470 -480 0
-471 -472 0
-471 -473 0
-471 -474 0
-471 -475 0
-471 -476 0
-471 -477 0
-471 -478 0
-471 -479 0
-471 -480 0
-472 -473 0
-472 -474 0
-472 -475 0
-472 -476 0
-472 -477 0
-472 -478 0
-472 -479 0
-472 -480 0
-473 -474 0
-473 -475 0
-473 -476 0
-473 -477 0
-473 -478 0
-473 -479 0
-473 -480 0
-474 -475 0
-474 -476 0
-474 -477 0
-474 -478 0
-474 -479 0
-474 -480 0
-475 -476 0
-475 -477 0
-475 -478 0
-475 -479 0
-475 -480 0
-476 -477 0
-476 -478 0
-476 -479 0
-476 -480 0
-477 -478 0
-477 -479 0
-477 -480 0
-478 -479 0
-478 -480 0
-479 -480 0
481 482 483 484 485 486 487 488 489 490 491 492 493 494 495 0
-481 -482 0
-481 -483 0
-481 -484 0
-481 -485 0
-481 -486 0
-481 -487 0
-481 -488 0
-481 -489 0
-481 -490 0
-481 -491 0
-481 -492 0
-481 -493 0
-481 -494 0
-481 -495 0
-482 -483 0
-482 -484 0
-482 -485 0
-482 -486 0
-482 -487 0
-482 -488 0
-482 -489 0
-482 -490 0
-482 -491 0
-482 -492 0
-482 -493 0
-482 -494 0
-482 -495 0
-483 -484 0
-483 -485 0
-483 -486 0
-483 -487 0
-483 -488 0
-483 -489 0
-483 -490 0
-483 -491 0
-483 -492 0
-483 -493 0
-483 -494 0
-483 -495 0
-484 -485 0
-484 -486 0
-484 -487 0
-484 -488 0
-484 -489 0
-484 -490 0
-484 -491 0
-484 -492 0
-484 -493 0
-484 -494 0
-484 -495 0
-485 -486 0
-485 -487 0
-485 -488 0
-485 -489 0
-485 -490 0
-485 -491 0
-485 -492 0
-485 -493 0
-485 -494 0
-485 -495 0
-486 -487 0
-486 -488 0
-486 -489 0
-486 -490 0
-486 -491 0
-486 -492 0
-486 -493 0
-486 -494 0
-486 -495 0
-487 -488 0
-487 -489 0
-487 -490 0
-487 -491 0
-487 -492 0
-487 -493 0
-487 -494 0
-487 -495 0
-488 -489 0
-488 -490 0
-488 -491 0
-488 -492 0
-488 -493 0
-488 -494 0
-488 -495 0
-489 -490 0
-489 -491 0
-489 -492 0
-489 -493 0
-489 -494 0
-489 -495 0
-490 -491 0
-490 -492 0
-490 -493 0
-490 -494 0
-490 -495 0
-491 -492 0
-491 -493 0
-491 -494 0
-491 -495 0
-492 -493 0
-492 -494 0
-492 -495 0
-493 -494 0
-493 -495 0
-494 -495 0
496 497 498 499 500 501 502 503 504 505 506 507 508 509 510 0
-496 -497 0
-496 -498 0
-496 -499 0
-496 -500 0
-496 -501 0
-496 -502 0
-496 -503 0
-496 -504 0
-496 -505 0
-496 -506 0
-496 -507 0
-496 -508 0
-496 -509 0
-496 -510 0
-497 -498 0
-497 -499 0
-497 -500 0
-497 -501 0
-497 -502 0
-497 -503 0
-497 -504 0
-497 -505 0
-497 -506 0
-497 -507 0
-497 -508 0
-497 -509 0
-497 -510 0
-498 -499 0
-498 -500 0
-498 -501 0
-498 -502 0
-498 -503 0
-498 -504 0
-498 -505 0
-498 -506 0
-498 -507 0
-498 -508 0
-498 -509 0
-498 -510 0
-499 -500 0
-499 -501 0
-499 -502 0
-499 -503 0
-499 -504 0
-499 -505 0
-499 -506 0
-499 -507 0
-499 -508 0
-499 -509 0
-499 -510 0
-500 -501 0
-500 -502 0
-500 -503 0
-500 -504 0
-500 -505 0
-500 -506 0
-500 -507 0
-500 -508 0
-500 -509 0
-500 -510 0
-501 -502 0
-501 -503 0
-501 -504 0
-501 -505 0
-501 -506 0
-501 -507 0
-501 -508 0
-501 -509 0
-501 -510 0
-502 -503 0
-502 -504 0
-502 -505 0
-502 -506 0
-502 -507 0
-502 -508 0
-502 -509 0
-502 -510 0
-503 -504 0
-503 -505 0
-503 -506 0
-503 -507 0
-503 -508 0
-503 -509 0
-503 -510 0
-504 -505 0
-504 -506 0
-504 -507 0
-504 -508 0
-504 -509 0
-504 -510 0
-505 -506 0
-505 -507 0
-505 -508 0
-505 -509 0
-505 -510 0
-506 -507 0
-506 -508 0
-506 -509 0
-506 -510 0
-507 -508 0
-507 -509 0
-507 -510 0
-508 -509 0
-508 -510 0
-509 -510 0
-1 -16 0
-1 -31 0
-1 -46 0
-16 -31 0
-16 -46 0
-31 -46 0
-2 -17 0
-2 -32 0
-2 -47 0
-17 -32 0
-17 -47 0
-32 -47 0
-3 -18 0
-3 -33 0
-3 -48 0
-18 -33 0
-18 -48 0
-33 -48 0
-4 -19 0
-4 -34 0
-4 -49 0
-19 -34 0
-19 -49 0
-34 -49 0
-5 -20 0
-5 -35 0
-5 -50 0
-20 -35 0
-20 -50 0
-35 -50 0
-6 -21 0
-6 -36 0
-6 -51 0
-21 -36 0
-21 -51 0
-36 -51 0
-7 -22 0
-7 -37 0
-7 -52 0
-22 -37 0
-22 -52 0
-37 -52 0
-8 -23 0
-8 -38 0
-8 -53 0
-23 -38 0
-23 -53 0
-38 -53 0
-9 -24 0
-9 -39 0
-9 -54 0
-24 -39 0
-24 -54 0
-39 -54 0
-10 -25 0
-10 -40 0
-10 -55 0
-25 -40 0
-25 -55 0
-40 -55 0
-11 -26 0
-11 -41 0
-11 -56 0
-26 -41 0
-26 -56 0
-41 -56 0
-12 -27 0
-12 -42 0
-12 -57 0
-27 -42 0
-27 -57 0
-42 -57 0
-13 -28 0
-13 -43 0
-13 -58 0
-28 -43 0
-28 -58 0
-43 -58 0
-14 -29 0
-14 -44 0
-14 -59 0
-29 -44 0
-29 -59 0
-44 -59 0
-15 -30 0
-15 -45 0
-15 -60 0
-30 -45 0
-30 -60 0
-45 -60 0
511 512 513 514 515 516 517 518 519 520 521 522 0
-511 -512 0
-511 -513 0
-511 -514 0
-511 -515 0
-511 -516 0
-511 -517 0
-511 -518 0
-511 -519 0
-511 -520 0
-511 -521 0
-511 -522 0
-512 -513 0
-512 -514 0
-512 -515 0
-512 -516 0
-512 -517 0
-512 -518 0
-512 -519 0
-512 -520 0
-512 -521 0
-512 -522 0
-513 -514 0
-513 -515 0
-513 -516 0
-513 -517 0
-513 -518 0
-513 -519 0
-513 -520 0
-513 -521 0
-513 -522 0
-514 -515 0
-514 -516 0
-514 -517 0
-514 -518 0
-514 -519 0
-514 -520 0
-514 -521 0
-514 -522 0
-515 -516 0
-515 -517 0
-515 -518 0
-515 -519 0
-515 -520 0
-515 -521 0
-515 -522 0
-516 -517 0
-516 -518 0
-516 -519 0
-516 -520 0
-516 -521 0
-516 -522 0
-517 -518 0
-517 -519 0
-517 -520 0
-517 -521 0
-517 -522 0
-518 -519 0
-518 -520 0
-518 -521 0
-518 -522 0
-519 -520 0
-519 -521 0
-519 -522 0
-520 -521 0
-520 -522 0
-521 -522 0
-1 511 0
-2 511 512 0
-3 511 512 513 0
-4 511 512 513 514 0
-5 512 513 514 515 0
-6 513 514 515 516 0
-7 514 515 516 517 0
-8 515 516 517 518 0
-9 516 517 518 519 0
-10 517 518 519 520 0
-11 518 519 520 521 0
-12 519 520 521 522 0
-13 520 521 522 0
-14 521 522 0
-15 522 0
-16 511 0
-17 511 512 0
-18 511 512 513 0
-19 511 512 513 514 0
-20 512 513 514 515 0
-21 513 514 515 516 0
-22 514 515 516 517 0
-23 515 516 517 518 0
-24 516 517 518 519 0
-25 517 518 519 520 0
-26 518 519 520 521 0
-27 519 520 521 522 0
-28 520 521 522 0
-29 521 522 0
-30 522 0
-31 511 0
-32 511 512 0
-33 511 512 513 0
-34 511 512 513 514 0
-35 512 513 514 515 0
-36 513 514 515 516 0
-37 514 515 516 517 0
-38 515 516 517 518 0
-39 516 517 518 519 0
-40 517 518 519 520 0
-41 518 519 520 521 0
-42 519 520 521 522 0
-43 520 521 522 0
-44 521 522 0
-45 522 0
-46 511 0
-47 511 512 0
-48 511 512 513 0
-49 511 512 513 514 0
-50 512 513 514 515 0
-51 513 514 515 516 0
-52 514 515 516 517 0
-53 515 516 517 518 0
-54 516 517 518 519 0
-55 517 518 519 520 0
-56 518 519 520 521 0
-57 519 520 521 522 0
-58 520 521 522 0
-59 521 522 0
-60 522 0
-511 -5 0
-511 -6 0
-511 -7 0
-511 -8 0
-511 -9 0
-511 -10 0
-511 -11 0
-511 -12 0
-511 -13 0
-511 -14 0
-511 -15 0
-511 -20 0
-511 -21 0
-511 -22 0
-511 -23 0
-511 -24 0
-511 -25 0
-511 -26 0
-511 -27 0
-511 -28 0
-511 -29 0
-511 -30 0
-511 -35 0
-511 -36 0
-511 -37 0
-511 -38 0
-511 -39 0
-511 -40 0
-511 -41 0
-511 -42 0
-511 -43 0
-511 -44 0
-511 -45 0
-511 -50 0
-511 -51 0
-511 -52 0
-511 -53 0
-511 -54 0
-511 -55 0
-511 -56 0
-511 -57 0
-511 -58 0
-511 -59 0
-511 -60 0
-512 -1 0
-512 -6 0
-512 -7 0
-512 -8 0
-512 -9 0
-512 -10 0
-512 -11 0
-512 -12 0
-512 -13 0
-512 -14 0
-512 -15 0
-512 -16 0
-512 -21 0
-512 -22 0
-512 -23 0
-512 -24 0
-512 -25 0
-512 -26 0
-512 -27 0
-512 -28 0
-512 -29 0
-512 -30 0
-512 -31 0
-512 -36 0
-512 -37 0
-512 -38 0
-512 -39 0
-512 -40 0
-512 -41 0
-512 -42 0
-512 -43 0
-512 -44 0
-512 -45 0
-512 -46 0
-512 -51 0
-512 -52 0
-512 -53 0
-512 -54 0
-512 -55 0
-512 -56 0
-512 -57 0
-512 -58 0
-512 -59 0
-512 -60 0
-513 -1 0
-513 -2 0
-513 -7 0
-513 -8 0
-513 -9 0
-513 -10 0
-513 -11 0
-513 -12 0
-513 -13 0
-513 -14 0
-513 -15 0
-513 -16 0
-513 -17 0
-513 -22 0
-513 -23 0
-513 -24 0
-513 -25 0
-513 -26 0
-513 -27 0
-513 -28 0
-513 -29 0
-513 -30 0
-513 -31 0
-513 -32 0
-513 -37 0
-513 -38 0
-513 -39 0
-513 -40 0
-513 -41 0
-513 -42 0
-513 -43 0
-513 -44 0
-513 -45 0
-513 -46 0
-513 -47 0
-513 -52 0
-513 -53 0
-513 -54 0
-513 -55 0
-513 -56 0
-513 -57 0
-513 -58 0
-513 -59 0
-513 -60 0
-514 -1 0
-514 -2 0
-514 -3 0
-514 -8 0
-514 -9 0
-514 -10 0
-514 -11 0
-514 -12 0
-514 -13 0
-514 -14 0
-514 -15 0
-514 -16 0
-514 -17 0
-514 -18 0
-514 -23 0
-514 -24 0
-514 -25 0
-514 -26 0
-514 -27 0
-514 -28 0
-514 -29 0
-514 -30 0
-514 -31 0
-514 -32 0
-514 -33 0
-514 -38 0
-514 -39 0
-514 -40 0
-514 -41 0
-514 -42 0
-514 -43 0
-514 -44 0
-514 -45 0
-514 -46 0
-514 -47 0
-514 -48 0
-514 -53 0
-514 -54 0
-514 -55 0
-514 -56 0
-514 -57 0
-514 -58 0
-514 -59 0
-514 -60 0
-515 -1 0
-515 -2 0
-515 -3 0
-515 -4 0
-515 -9 0
-515 -10 0
-515 -11 0
-515 -12 0
-515 -13 0
-515 -14 0
-515 -15 0
-515 -16 0
-515 -17 0
-515 -18 0
-515 -19 0
-515 -24 0
-515 -25 0
-515 -26 0
-515 -27 0
-515 -28 0
-515 -29 0
-515 -30 0
-515 -31 0
-515 -32 0
-515 -33 0
-515 -34 0
-515 -39 0
-515 -40 0
-515 -41 0
-515 -42 0
-515 -43 0
-515 -44 0
-515 -45 0
-515 -46 0
-515 -47 0
-515 -48 0
-515 -49 0
-515 -54 0
-515 -55 0
-515 -56 0
-515 -57 0
-515 -58 0
-515 -59 0
-515 -60 0
-516 -1 0
-516 -2 0
-516 -3 0
-516 -4 0
-516 -5 0
-516 -10 0
-516 -11 0
-516 -12 0
-516 -13 0
-516 -14 0
-516 -15 0
-516 -16 0
-516 -17 0
-516 -18 0
-516 -19 0
-516 -20 0
-516 -25 0
-516 -26 0
-516 -27 0
-516 -28 0
-516 -29 0
-516 -30 0
-516 -31 0
-516 -32 0
-516 -33 0
-516 -34 0
-516 -35 0
-516 -40 0
-516 -41 0
-516 -42 0
-516 -43 0
-516 -44 0
-516 -45 0
-516 -46 0
-516 -47 0
-516 -48 0
-516 -49 0
-516 -50 0
-516 -55 0
-516 -56 0
-516 -57 0
-516 -58 0
-516 -59 0
-516 -60 0
-517 -1 0
-517 -2 0
-517 -3 0
-517 -4 0
-517 -5 0
-517 -6 0
-517 -11 0
-517 -12 0
-517 -13 0
-517 -14 0
-517 -15 0
-517 -16 0
-517 -17 0
-517 -18 0
-517 -19 0
-517 -20 0
-517 -21 0
-517 -26 0
-517 -27 0
-517 -28 0
-517 -29 0
-517 -30 0
-517 -31 0
-517 -32 0
-517 -33 0
-517 -34 0
-517 -35 0
-517 -36 0
-517 -41 0
-517 -42 0
-517 -43 0
-517 -44 0
-517 -45 0
-517 -46 0
-517 -47 0
-517 -48 0
-517 -49 0
-517 -50 0
-517 -51 0
-517 -56 0
-517 -57 0
-517 -58 0
-517 -59 0
-517 -60 0
-518 -1 0
-518 -2 0
-518 -3 0
-518 -4 0
-518 -5 0
-518 -6 0
-518 -7 0
-518 -12 0
-518 -13 0
-518 -14 0
-518 -15 0
-518 -16 0
-518 -17 0
-518 -18 0
-518 -19 0
-518 -20 0
-518 -21 0
-518 -22 0
-518 -27 0
-518 -28 0
-518 -29 0
-518 -30 0
-518 -31 0
-518 -32 0
-518 -33 0
-518 -34 0
-518 -35 0
-518 -36 0
-518 -37 0
-518 -42 0
-518 -43 0
-518 -44 0
-518 -45 0
-518 -46 0
-518 -47 0
-518 -48 0
-518 -49 0
-518 -50 0
-518 -51 0
-518 -52 0
-518 -57 0
-518 -58 0
-518 -59 0
-518 -60 0
-519 -1 0
-519 -2 0
-519 -3 0
-519 -4 0
-519 -5 0
-519 -6 0
-519 -7 0
-519 -8 0
-519 -13 0
-519 -14 0
-519 -15 0
-519 -16 0
-519 -17 0
-519 -18 0
-519 -19 0
-519 -20 0
-519 -21 0
-519 -22 0
-519 -23 0
-519 -28 0
-519 -29 0
-519 -30 0
-519 -31 0
-519 -32 0
-519 -33 0
-519 -34 0
-519 -35 0
-519 -36 0
-519 -37 0
-519 -38 0
-519 -43 0
-519 -44 0
-519 -45 0
-519 -46 0
-519 -47 0
-519 -48 0
-519 -49 0
-519 -50 0
-519 -51 0
-519 -52 0
-519 -53 0
-519 -58 0
-519 -59 0
-519 -60 0
-520 -1 0
-520 -2 0
-520 -3 0
-520 -4 0
-520 -5 0
-520 -6 0
-520 -7 0
-520 -8 0
-520 -9 0
-520 -14 0
-520 -15 0
-520 -16 0
-520 -17 0
-520 -18 0
-520 -19 0
-520 -20 0
-520 -21 0
-520 -22 0
-520 -23 0
-520 -24 0
-520 -29 0
-520 -30 0
-520 -31 0
-520 -32 0
-520 -33 0
-520 -34 0
-520 -35 0
-520 -36 0
-520 -37 0
-520 -38 0
-520 -39 0
-520 -44 0
-520 -45 0
-520 -46 0
-520 -47 0
-520 -48 0
-520 -49 0
-520 -50 0
-520 -51 0
-520 -52 0
-520 -53 0
-520 -54 0
-520 -59 0
-520 -60 0
-521 -1 0
-521 -2 0
-521 -3 0
-521 -4 0
-521 -5 0
-521 -6 0
-521 -7 0
-521 -8 0
-521 -9 0
-521 -10 0
-521 -15 0
-521 -16 0
-521 -17 0
-521 -18 0
-521 -19 0
-521 -20 0
-521 -21 0
-521 -22 0
-521 -23 0
-521 -24 0
-521 -25 0
-521 -30 0
-521 -31 0
-521 -32 0
-521 -33 0
-521 -34 0
-521 -35 0
-521 -36 0
-521 -37 0
-521 -38 0
-521 -39 0
-521 -40 0
-521 -45 0
-521 -46 0
-521 -47 0
-521 -48 0
-521 -49 0
-521 -50 0
-521 -51 0
-521 -52 0
-521 -53 0
-521 -54 0
-521 -55 0
-521 -60 0
-522 -1 0
-522 -2 0
-522 -3 0
-522 -4 0
-522 -5 0
-522 -6 0
-522 -7 0
-522 -8 0
-522 -9 0
-522 -10 0
-522 -11 0
-522 -16 0
-522 -17 0
-522 -18 0
-522 -19 0
-522 -20 0
-522 -21 0
-522 -22 0
-522 -23 0
-522 -24 0
-522 -25 0
-522 -26 0
-522 -31 0
-522 -32 0
-522 -33 0
-522 -34 0
-522 -35 0
-522 -36 0
-522 -37 0
-522 -38 0
-522 -39 0
-522 -40 0
-522 -41 0
-522 -46 0
-522 -47 0
-522 -48 0
-522 -49 0
-522 -50 0
-522 -51 0
-522 -52 0
-522 -53 0
-522 -54 0
-522 -55 0
-522 -56 0
-61 -76 0
-61 -91 0
-76 -91 0
-62 -77 0
-62 -92 0
-77 -92 0
-63 -78 0
-63 -93 0
-78 -93 0
-64 -79 0
-64 -94 0
-79 -94 0
-65 -80 0
-65 -95 0
-80 -95 0
-66 -81 0
-66 -96 0
-81 -96 0
-67 -82 0
-67 -97 0
-82 -97 0
-68 -83 0
-68 -98 0
-83 -98 0
-69 -84 0
-69 -99 0
-84 -99 0
-70 -85 0
-70 -100 0
-85 -100 0
-71 -86 0
-71 -101 0
-86 -101 0
-72 -87 0
-72 -102 0
-87 -102 0
-73 -88 0
-73 -103 0
-88 -103 0
-74 -89 0
-74 -104 0
-89 -104 0
-75 -90 0
-75 -105 0
-90 -105 0
523 524 525 526 527 528 529 530 531 532 533 534 535 0
-523 -524 0
-523 -525 0
-523 -526 0
-523 -527 0
-523 -528 0
-523 -529 0
-523 -530 0
-523 -531 0
-523 -532 0
-523 -533 0
-523 -534 0
-523 -535 0
-524 -525 0
-524 -526 0
-524 -527 0
-524 -528 0
-524 -529 0
-524 -530 0
-524 -531 0
-524 -532 0
-524 -533 0
-524 -534 0
-524 -535 0
-525 -526 0
-525 -527 0
-525 -528 0
-525 -529 0
-525 -530 0
-525 -531 0
-525 -532 0
-525 -533 0
-525 -534 0
-525 -535 0
-526 -527 0
-526 -528 0
-526 -529 0
-526 -530 0
-526 -531 0
-526 -532 0
-526 -533 0
-526 -534 0
-526 -535 0
-527 -528 0
-527 -529 0
-527 -530 0
-527 -531 0
-527 -532 0
-527 -533 0
-527 -534 0
-527 -535 0
-528 -529 0
-528 -530 0
-528 -531 0
-528 -532 0
-528 -533 0
-528 -534 0
-528 -535 0
-529 -530 0
-529 -531 0
-529 -532 0
-529 -533 0
-529 -534 0
-529 -535 0
-530 -531 0
-530 -532 0
-530 -533 0
-530 -534 0
-530 -535 0
-531 -532 0
-531 -533 0
-531 -534 0
-531 -535 0
-532 -533 0
-532 -534 0
-532 -535 0
-533 -534 0
-533 -535 0
-534 -535 0
-61 523 0
-62 523 524 0
-63 523 524 525 0
-64 524 525 526 0
-65 525 526 527 0
-66 526 527 528 0
-67 527 528 529 0
-68 528 529 530 0
-69 529 530 531 0
-70 530 531 532 0
-71 531 532 533 0
-72 532 533 534 0
-73 533 534 535 0
-74 534 535 0
-75 535 0
-76 523 0
-77 523 524 0
-78 523 524 525 0
-79 524 525 526 0
-80 525 526 527 0
-81 526 527 528 0
-82 527 528 529 0
-83 528 529 530 0
-84 529 530 531 0
-85 530 531 532 0
-86 531 532 533 0
-87 532 533 534 0
-88 533 534 535 0
-89 534 535 0
-90 535 0
-91 523 0
-92 523 524 0
-93 523 524 525 0
-94 524 525 526 0
-95 525 526 527 0
-96 526 527 528 0
-97 527 528 529 0
-98 528 529 530 0
-99 529 530 531 0
-100 530 531 532 0
-101 531 532 533 0
-102 532 533 534 0
-103 533 534 535 0
-104 534 535 0
-105 535 0
-523 -64 0
-523 -65 0
-523 -66 0
-523 -67 0
-523 -68 0
-523 -69 0
-523 -70 0
-523 -71 0
-523 -72 0
-523 -73 0
-523 -74 0
-523 -75 0
-523 -79 0
-523 -80 0
-523 -81 0
-523 -82 0
-523 -83 0
-523 -84 0
-523 -85 0
-523 -86 0
-523 -87 0
-523 -88 0
-523 -89 0
-523 -90 0
-523 -94 0
-523 -95 0
-523 -96 0
-523 -97 0
-523 -98 0
-523 -99 0
-523 -100 0
-523 -101 0
-523 -102 0
-523 -103 0
-523 -104 0
-523 -105 0
-524 -61 0
-524 -65 0
-524 -66 0
-524 -67 0
-524 -68 0
-524 -69 0
-524 -70 0
-524 -71 0
-524 -72 0
-524 -73 0
-524 -74 0
-524 -75 0
-524 -76 0
-524 -80 0
-524 -81 0
-524 -82 0
-524 -83 0
-524 -84 0
-524 -85 0
-524 -86 0
-524 -87 0
-524 -88 0
-524 -89 0
-524 -90 0
-524 -91 0
-524 -95 0
-524 -96 0
-524 -97 0
-524 -98 0
-524 -99 0
-524 -100 0
-524 -101 0
-524 -102 0
-524 -103 0
-524 -104 0
-524 -105 0
-525 -61 0
-525 -62 0
-525 -66 0
-525 -67 0
-525 -68 0
-525 -69 0
-525 -70 0
-525 -71 0
-525 -72 0
-525 -73 0
-525 -74 0
-525 -75 0
-525 -76 0
-525 -77 0
-525 -81 0
-525 -82 0
-525 -83 0
-525 -84 0
-525 -85 0
-525 -86 0
-525 -87 0
-525 -88 0
-525 -89 0
-525 -90 0
-525 -91 0
-525 -92 0
-525 -96 0
-525 -97 0
-525 -98 0
-525 -99 0
-525 -100 0
-525 -101 0
-525 -102 0
-525 -103 0
-525 -104 0
-525 -105 0
-526 -61 0
-526 -62 0
-526 -63 0
-526 -67 0
-526 -68 0
-526 -69 0
-526 -70 0
-526 -71 0
-526 -72 0
-526 -73 0
-526 -74 0
-526 -75 0
-526 -76 0
-526 -77 0
-526 -78 0
-526 -82 0
-526 -83 0
-526 -84 0
-526 -85 0
-526 -86 0
-526 -87 0
-526 -88 0
-526 -89 0
-526 -90 0
-526 -91 0
-526 -92 0
-526 -93 0
-526 -97 0
-526 -98 0
-526 -99 0
-526 -100 0
-526 -101 0
-526 -102 0
-526 -103 0
-526 -104 0
-526 -105 0
-527 -61 0
-527 -62 0
-527 -63 0
-527 -64 0
-527 -68 0
-527 -69 0
-527 -70 0
-527 -71 0
-527 -72 0
-527 -73 0
-527 -74 0
-527 -75 0
-527 -76 0
-527 -77 0
-527 -78 0
-527 -79 0
-527 -83 0
-527 -84 0
-527 -85 0
-527 -86 0
-527 -87 0
-527 -88 0
-527 -89 0
-527 -90 0
-527 -91 0
-527 -92 0
-527 -93 0
-527 -94 0
-527 -98 0
-527 -99 0
-527 -100 0
-527 -101 0
-527 -102 0
-527 -103 0
-527 -104 0
-527 -105 0
-528 -61 0
-528 -62 0
-528 -63 0
-528 -64 0
-528 -65 0
-528 -69 0
-528 -70 0
-528 -71 0
-528 -72 0
-528 -73 0
-528 -74 0
-528 -75 0
-528 -76 0
-528 -77 0
-528 -78 0
-528 -79 0
-528 -80 0
-528 -84 0
-528 -85 0
-528 -86 0
-528 -87 0
-528 -88 0
-528 -89 0
-528 -90 0
-528 -91 0
-528 -92 0
-528 -93 0
-528 -94 0
-528 -95 0
-528 -99 0
-528 -100 0
-528 -101 0
-528 -102 0
-528 -103 0
-528 -104 0
-528 -105 0
-529 -61 0
-529 -62 0
-529 -63 0
-529 -64 0
-529 -65 0
-529 -66 0
-529 -70 0
-529 -71 0
-529 -72 0
-529 -73 0
-529 -74 0
-529 -75 0
-529 -76 0
-529 -77 0
-529 -78 0
-529 -79 0
-529 -80 0
-529 -81 0
-529 -85 0
-529 -86 0
-529 -87 0
-529 -88 0
-529 -89 0
-529 -90 0
-529 -91 0
-529 -92 0
-529 -93 0
-529 -94 0
-529 -95 0
-529 -96 0
-529 -100 0
-529 -101 0
-529 -102 0
-529 -103 0
-529 -104 0
-529 -105 0
-530 -61 0
-530 -62 0
-530 -63 0
-530 -64 0
-530 -65 0
-530 -66 0
-530 -67 0
-530 -71 0
-530 -72 0
-530 -73 0
-530 -74 0
-530 -75 0
-530 -76 0
-530 -77 0
-530 -78 0
-530 -79 0
-530 -80 0
-530 -81 0
-530 -82 0
-530 -86 0
-530 -87 0
-530 -88 0
-530 -89 0
-530 -90 0
-530 -91 0
-530 -92 0
-530 -93 0
-530 -94 0
-530 -95 0
-530 -96 0
-530 -97 0
-530 -101 0
-530 -102 0
-530 -103 0
-530 -104 0
-530 -105 0
-531 -61 0
-531 -62 0
-531 -63 0
-531 -64 0
-531 -65 0
-531 -66 0
-531 -67 0
-531 -68 0
-531 -72 0
-531 -73 0
-531 -74 0
-531 -75 0
-531 -76 0
-531 -77 0
-531 -78 0
-531 -79 0
-531 -80 0
-531 -81 0
-531 -82 0
-531 -83 0
-531 -87 0
-531 -88 0
-531 -89 0
-531 -90 0
-531 -91 0
-531 -92 0
-531 -93 0
-531 -94 0
-531 -95 0
-531 -96 0
-531 -97 0
-531 -98 0
-531 -102 0
-531 -103 0
-531 -104 0
-531 -105 0
-532 -61 0
-532 -62 0
-532 -63 0
-532 -64 0
-532 -65 0
-532 -66 0
-532 -67 0
-532 -68 0
-532 -69 0
-532 -73 0
-532 -74 0
-532 -75 0
-532 -76 0
-532 -77 0
-532 -78 0
-532 -79 0
-532 -80 0
-532 -81 0
-532 -82 0
-532 -83 0
-532 -84 0
-532 -88 0
-532 -89 0
-532 -90 0
-532 -91 0
-532 -92 0
-532 -93 0
-532 -94 0
-532 -95 0
-532 -96 0
-532 -97 0
-532 -98 0
-532 -99 0
-532 -103 0
-532 -104 0
-532 -105 0
-533 -61 0
-533 -62 0
-533 -63 0
-533 -64 0
-533 -65 0
-533 -66 0
-533 -67 0
-533 -68 0
-533 -69 0
-533 -70 0
-533 -74 0
-533 -75 0
-533 -76 0
-533 -77 0
-533 -78 0
-533 -79 0
-533 -80 0
-533 -81 0
-533 -82 0
-533 -83 0
-533 -84 0
-533 -85 0
-533 -89 0
-533 -90 0
-533 -91 0
-533 -92 0
-533 -93 0
-533 -94 0
-533 -95 0
-533 -96 0
-533 -97 0
-533 -98 0
-533 -99 0
-533 -100 0
-533 -104 0
-533 -105 0
-534 -61 0
-534 -62 0
-534 -63 0
-534 -64 0
-534 -65 0
-534 -66 0
-534 -67 0
-534 -68 0
-534 -69 0
-534 -70 0
-534 -71 0
-534 -75 0
-534 -76 0
-534 -77 0
-534 -78 0
-534 -79 0
-534 -80 0
-534 -81 0
-534 -82 0
-534 -83 0
-534 -84 0
-534 -85 0
-534 -86 0
-534 -90 0
-534 -91 0
-534 -92 0
-534 -93 0
-534 -94 0
-534 -95 0
-534 -96 0
-534 -97 0
-534 -98 0
-534 -99 0
-534 -100 0
-534 -101 0
-534 -105 0
-535 -61 0
-535 -62 0
-535 -63 0
-535 -64 0
-535 -65 0
-535 -66 0
-535 -67 0
-535 -68 0
-535 -69 0
-535 -70 0
-535 -71 0
-535 -72 0
-535 -76 0
-535 -77 0
-535 -78 0
-535 -79 0
-535 -80 0
-535 -81 0
-535 -82 0
-535 -83 0
-535 -84 0
-535 -85 0
-535 -86 0
-535 -87 0
-535 -91 0
-535 -92 0
-535 -93 0
-535 -94 0
-535 -95 0
-535 -96 0
-535 -97 0
-535 -98 0
-535 -99 0
-535 -100 0
-535 -101 0
-535 -102 0
-106 -121 0
-106 -136 0
-121 -136 0
-107 -122 0
-107 -137 0
-122 -137 0
-108 -123 0
-108 -138 0
-123 -138 0
-109 -124 0
-109 -139 0
-124 -139 0
-110 -125 0
-110 -140 0
-125 -140 0
-111 -126 0
-111 -141 0
-126 -141 0
-112 -127 0
-112 -142 0
-127 -142 0
-113 -128 0
-113 -143 0
-128 -143 0
-114 -129 0
-114 -144 0
-129 -144 0
-115 -130 0
-115 -145 0
-130 -145 0
-116 -131 0
-116 -146 0
-131 -146 0
-117 -132 0
-117 -147 0
-132 -147 0
-118 -133 0
-118 -148 0
-133 -148 0
-119 -134 0
-119 -149 0
-134 -149 0
-120 -135 0
-120 -150 0
-135 -150 0
536 537 538 539 540 541 542 543 544 545 546 547 548 0
-536 -537 0
-536 -538 0
-536 -539 0
-536 -540 0
-536 -541 0
-536 -542 0
-536 -543 0
-536 -544 0
-536 -545 0
-536 -546 0
-536 -547 0
-536 -548 0
-537 -538 0
-537 -539 0
-537 -540 0
-537 -541 0
-537 -542 0
-537 -543 0
-537 -544 0
-537 -545 0
-537 -546 0
-537 -547 0
-537 -548 0
-538 -539 0
-538 -540 0
-538 -541 0
-538 -542 0
-538 -543 0
-538 -544 0
-538 -545 0
-538 -546 0
-538 -547 0
-538 -548 0
-539 -540 0
-539 -541 0
-539 -542 0
-539 -543 0
-539 -544 0
-539 -545 0
-539 -546 0
-539 -547 0
-539 -548 0
-540 -541 0
-540 -542 0
-540 -543 0
-540 -544 0
-540 -545 0
-540 -546 0
-540 -547 0
-540 -548 0
-541 -542 0
-541 -543 0
-541 -544 0
-541 -545 0
-541 -546 0
-541 -547 0
-541 -548 0
-542 -543 0
-542 -544 0
-542 -545 0
-542 -546 0
-542 -547 0
-542 -548 0
-543 -544 0
-543 -545 0
-543 -546 0
-543 -547 0
-543 -548 0
-544 -545 0
-544 -546 0
-544 -547 0
-544 -548 0
-545 -546 0
-545 -547 0
-545 -548 0
-546 -547 0
-546 -548 0
-547 -548 0
-106 536 0
-107 536 537 0
-108 536 537 538 0
-109 537 538 539 0
-110 538 539 540 0
-111 539 540 541 0
-112 540 541 542 0
-113 541 542 543 0
-114 542 543 544 0
-115 543 544 545 0
-116 544 545 546 0
-117 545 546 547 0
-118 546 547 548 0
-119 547 548 0
-120 548 0
-121 536 0
-122 536 537 0
-123 536 537 538 0
-124 537 538 539 0
-125 538 539 540 0
-126 539 540 541 0
-127 540 541 542 0
-128 541 542 543 0
-129 542 543 544 0
-130 543 544 545 0
-131 544 545 546 0
-132 545 546 547 0
-133 546 547 548 0
-134 547 548 0
-135 548 0
-136 536 0
-137 536 537 0
-138 536 537 538 0
-139 537 538 539 0
-140 538 539 540 0
-141 539 540 541 0
-142 540 541 542 0
-143 541 542 543 0
-144 542 543 544 0
-145 543 544 545 0
-146 544 545 546 0
-147 545 546 547 0
-148 546 547 548 0
-149 547 548 0
-150 548 0
-536 -109 0
-536 -110 0
-536 -111 0
-536 -112 0
-536 -113 0
-536 -114 0
-536 -115 0
-536 -116 0
-536 -117 0
-536 -118 0
-536 -119 0
-536 -120 0
-536 -124 0
-536 -125 0
-536 -126 0
-536 -127 0
-536 -128 0
-536 -129 0
-536 -130 0
-536 -131 0
-536 -132 0
-536 -133 0
-536 -134 0
-536 -135 0
-536 -139 0
-536 -140 0
-536 -141 0
-536 -142 0
-536 -143 0
-536 -144 0
-536 -145 0
-536 -146 0
-536 -147 0
-536 -148 0
-536 -149 0
-536 -150 0
-537 -106 0
-537 -110 0
-537 -111 0
-537 -112 0
-537 -113 0
-537 -114 0
-537 -115 0
-537 -116 0
-537 -117 0
-537 -118 0
-537 -119 0
-537 -120 0
-537 -121 0
-537 -125 0
-537 -126 0
-537 -127 0
-537 -128 0
-537 -129 0
-537 -130 0
-537 -131 0
-537 -132 0
-537 -133 0
-537 -134 0
-537 -135 0
-537 -136 0
-537 -140 0
-537 -141 0
-537 -142 0
-537 -143 0
-537 -144 0
-537 -145 0
-537 -146 0
-537 -147 0
-537 -148 0
-537 -149 0
-537 -150 0
-538 -106 0
-538 -107 0
-538 -111 0
-538 -112 0
-538 -113 0
-538 -114 0
-538 -115 0
-538 -116 0
-538 -117 0
-538 -118 0
-538 -119 0
-538 -120 0
-538 -121 0
-538 -122 0
-538 -126 0
-538 -127 0
-538 -128 0
-538 -129 0
-538 -130 0
-538 -131 0
-538 -132 0
-538 -133 0
-538 -134 0
-538 -135 0
-538 -136 0
-538 -137 0
-538 -141 0
-538 -142 0
-538 -143 0
-538 -144 0
-538 -145 0
-538 -146 0
-538 -147 0
-538 -148 0
-538 -149 0
-538 -150 0
-539 -106 0
-539 -107 0
-539 -108 0
-539 -112 0
-539 -113 0
-539 -114 0
-539 -115 0
-539 -116 0
-539 -117 0
-539 -118 0
-539 -119 0
-539 -120 0
-539 -121 0
-539 -122 0
-539 -123 0
-539 -127 0
-539 -128 0
-539 -129 0
-539 -130 0
-539 -131 0
-539 -132 0
-539 -133 0
-539 -134 0
-539 -135 0
-539 -136 0
-539 -137 0
-539 -138 0
-539 -142 0
-539 -143 0
-539 -144 0
-539 -145 0
-539 -146 0
-539 -147 0
-539 -148 0
-539 -149 0
-539 -150 0
-540 -106 0
-540 -107 0
-540 -108 0
-540 -109 0
-540 -113 0
-540 -114 0
-540 -115 0
-540 -116 0
-540 -117 0
-540 -118 0
-540 -119 0
-540 -120 0
-540 -121 0
-540 -122 0
-540 -123 0
-540 -124 0
-540 -128 0
-540 -129 0
-540 -130 0
-540 -131 0
-540 -132 0
-540 -133 0
-540 -134 0
-540 -135 0
-540 -136 0
-540 -137 0
-540 -138 0
-540 -139 0
-540 -143 0
-540 -144 0
-540 -145 0
-540 -146 0
-540 -147 0
-540 -148 0
-540 -149 0
-540 -150 0
-541 -106 0
-541 -107 0
-541 -108 0
-541 -109 0
-541 -110 0
-541 -114 0
-541 -115 0
-541 -116 0
-541 -117 0
-541 -118 0
-541 -119 0
-541 -120 0
-541 -121 0
-541 -122 0
-541 -123 0
-541 -124 0
-541 -125 0
-541 -129 0
-541 -130 0
-541 -131 0
-541 -132 0
-541 -133 0
-541 -134 0
-541 -135 0
-541 -136 0
-541 -137 0
-541 -138 0
-541 -139 0
-541 -140 0
-541 -144 0
-541 -145 0
-541 -146 0
-541 -147 0
-541 -148 0
-541 -149 0
-541 -150 0
-542 -106 0
-542 -107 0
-542 -108 0
-542 -109 0
-542 -110 0
-542 -111 0
-542 -115 0
-542 -116 0
-542 -117 0
-542 -118 0
-542 -119 0
-542 -120 0
-542 -121 0
-542 -122 0
-542 -123 0
-542 -124 0
-542 -125 0
-542 -126 0
-542 -130 0
-542 -131 0
-542 -132 0
-542 -133 0
-542 -134 0
-542 -135 0
-542 -136 0
-542 -137 0
-542 -138 0
-542 -139 0
-542 -140 0
-542 -141 0
-542 -145 0
-542 -146 0
-542 -147 0
-542 -148 0
-542 -149 0
-542 -150 0
-543 -106 0
-543 -107 0
-543 -108 0
-543 -109 0
-543 -110 0
-543 -111 0
-543 -112 0
-543 -116 0
-543 -117 0
-543 -118 0
-543 -119 0
-543 -120 0
-543 -121 0
-543 -122 0
-543 -123 0
-543 -124 0
-543 -125 0
-543 -126 0
-543 -127 0
-543 -131 0
-543 -132 0
-543 -133 0
-543 -134 0
-543 -135 0
-543 -136 0
-543 -137 0
-543 -138 0
-543 -139 0
-543 -140 0
-543 -141 0
-543 -142 0
-543 -146 0
-543 -147 0
-543 -148 0
-543 -149 0
-543 -150 0
-544 -106 0
-544 -107 0
-544 -108 0
-544 -109 0
-544 -110 0
-544 -111 0
-544 -112 0
-544 -113 0
-544 -117 0
-544 -118 0
-544 -119 0
-544 -120 0
-544 -121 0
-544 -122 0
-544 -123 0
-544 -124 0
-544 -125 0
-544 -126 0
-544 -127 0
-544 -128 0
-544 -132 0
-544 -133 0
-544 -134 0
-544 -135 0
-544 -136 0
-544 -137 0
-544 -138 0
-544 -139 0
-544 -140 0
-544 -141 0
-544 -142 0
-544 -143 0
-544 -147 0
-544 -148 0
-544 -149 0
-544 -150 0
-545 -106 0
-545 -107 0
-545 -108 0
-545 -109 0
-545 -110 0
-545 -111 0
-545 -112 0
-545 -113 0
-545 -114 0
-545 -118 0
-545 -119 0
-545 -120 0
-545 -121 0
-545 -122 0
-545 -123 0
-545 -124 0
-545 -125 0
-545 -126 0
-545 -127 0
-545 -128 0
-545 -129 0
-545 -133 0
-545 -134 0
-545 -135 0
-545 -136 0
-545 -137 0
-545 -138 0
-545 -139 0
-545 -140 0
-545 -141 0
-545 -142 0
-545 -143 0
-545 -144 0
-545 -148 0
-545 -149 0
-545 -150 0
-546 -106 0
-546 -107 0
-546 -108 0
-546 -109 0
-546 -110 0
-546 -111 0
-546 -112 0
-546 -113 0
-546 -114 0
-546 -115 0
-546 -119 0
-546 -120 0
-546 -121 0
-546 -122 0
-546 -123 0
-546 -124 0
-546 -125 0
-546 -126 0
-546 -127 0
-546 -128 0
-546 -129 0
-546 -130 0
-546 -134 0
-546 -135 0
-546 -136 0
-546 -137 0
-546 -138 0
-546 -139 0
-546 -140 0
-546 -141 0
-546 -142 0
-546 -143 0
-546 -144 0
-546 -145 0
-546 -149 0
-546 -150 0
-547 -106 0
-547 -107 0
-547 -108 0
-547 -109 0
-547 -110 0
-547 -111 0
-547 -112 0
-547 -113 0
-547 -114 0
-547 -115 0
-547 -116 0
-547 -120 0
-547 -121 0
-547 -122 0
-547 -123 0
-547 -124 0
-547 -125 0
-547 -126 0
-547 -127 0
-547 -128 0
-547 -129 0
-547 -130 0
-547 -131 0
-547 -135 0
-547 -136 0
-547 -137 0
-547 -138 0
-547 -139 0
-547 -140 0
-547 -141 0
-547 -142 0
-547 -143 0
-547 -144 0
-547 -145 0
-547 -146 0
-547 -150 0
-548 -106 0
-548 -107 0
-548 -108 0
-548 -109 0
-548 -110 0
-548 -111 0
-548 -112 0
-548 -113 0
-548 -114 0
-548 -115 0
-548 -116 0
-548 -117 0
-548 -121 0
-548 -122 0
-548 -123 0
-548 -124 0
-548 -125 0
-548 -126 0
-548 -127 0
-548 -128 0
-548 -129 0
-548 -130 0
-548 -131 0
-548 -132 0
-548 -136 0
-548 -137 0
-548 -138 0
-548 -139 0
-548 -140 0
-548 -141 0
-548 -142 0
-548 -143 0
-548 -144 0
-548 -145 0
-548 -146 0
-548 -147 0
-151 -166 0
-151 -181 0
-166 -181 0
-152 -167 0
-152 -182 0
-167 -182 0
-153 -168 0
-153 -183 0
-168 -183 0
-154 -169 0
-154 -184 0
-169 -184 0
-155 -170 0
-155 -185 0
-170 -185 0
-156 -171 0
-156 -186 0
-171 -186 0
-157 -172 0
-157 -187 0
-172 -187 0
-158 -173 0
-158 -188 0
-173 -188 0
-159 -174 0
-159 -189 0
-174 -189 0
-160 -175 0
-160 -190 0
-175 -190 0
-161 -176 0
-161 -191 0
-176 -191 0
-162 -177 0
-162 -192 0
-177 -192 0
-163 -178 0
-163 -193 0
-178 -193 0
-164 -179 0
-164 -194 0
-179 -194 0
-165 -180 0
-165 -195 0
-180 -195 0
549 550 551 552 553 554 555 556 557 558 559 560 561 0
-549 -550 0
-549 -551 0
-549 -552 0
-549 -553 0
-549 -554 0
-549 -555 0
-549 -556 0
-549 -557 0
-549 -558 0
-549 -559 0
-549 -560 0
-549 -561 0
-550 -551 0
-550 -552 0
-550 -553 0
-550 -554 0
-550 -555 0
-550 -556 0
-550 -557 0
-550 -558 0
-550 -559 0
-550 -560 0
-550 -561 0
-551 -552 0
-551 -553 0
-551 -554 0
-551 -555 0
-551 -556 0
-551 -557 0
-551 -558 0
-551 -559 0
-551 -560 0
-551 -561 0
-552 -553 0
-552 -554 0
-552 -555 0
-552 -556 0
-552 -557 0
-552 -558 0
-552 -559 0
-552 -560 0
-552 -561 0
-553 -554 0
-553 -555 0
-553 -556 0
-553 -557 0
-553 -558 0
-553 -559 0
-553 -560 0
-553 -561 0
-554 -555 0
-554 -556 0
-554 -557 0
-554 -558 0
-554 -559 0
-554 -560 0
-554 -561 0
-555 -556 0
-555 -557 0
-555 -558 0
-555 -559 0
-555 -560 0
-555 -561 0
-556 -557 0
-556 -558 0
-556 -559 0
-556 -560 0
-556 -561 0
-557 -558 0
-557 -559 0
-557 -560 0
-557 -561 0
-558 -559 0
-558 -560 0
-558 -561 0
-559 -560 0
-559 -561 0
-560 -561 0
-151 549 0
-152 549 550 0
-153 549 550 551 0
-154 550 551 552 0
-155 551 552 553 0
-156 552 553 554 0
-157 553 554 555 0
-158 554 555 556 0
-159 555 556 557 0
-160 556 557 558 0
-161 557 558 559 0
-162 558 559 560 0
-163 559 560 561 0
-164 560 561 0
-165 561 0
-166 549 0
-167 549 550 0
-168 549 550 551 0
-169 550 551 552 0
-170 551 552 553 0
-171 552 553 554 0
-172 553 554 555 0
-173 554 555 556 0
-174 555 556 557 0
-175 556 557 558 0
-176 557 558 559 0
-177 558 559 560 0
-178 559 560 561 0
-179 560 561 0
-180 561 0
-181 549 0
-182 549 550 0
-183 549 550 551 0
-184 550 551 552 0
-185 551 552 553 0
-186 552 553 554 0
-187 553 554 555 0
-188 554 555 556 0
-189 555 556 557 0
-190 556 557 558 0
-191 557 558 559 0
-192 558 559 560 0
-193 559 560 561 0
-194 560 561 0
-195 561 0
-549 -154 0
-549 -155 0
-549 -156 0
-549 -157 0
-549 -158 0
-549 -159 0
-549 -160 0
-549 -161 0
-549 -162 0
-549 -163 0
-549 -164 0
-549 -165 0
-549 -169 0
-549 -170 0
-549 -171 0
-549 -172 0
-549 -173 0
-549 -174 0
-549 -175 0
-549 -176 0
-549 -177 0
-549 -178 0
-549 -179 0
-549 -180 0
-549 -184 0
-549 -185 0
-549 -186 0
-549 -187 0
-549 -188 0
-549 -189 0
-549 -190 0
-549 -191 0
-549 -192 0
-549 -193 0
-549 -194 0
-549 -195 0
-550 -151 0
-550 -155 0
-550 -156 0
-550 -157 0
-550 -158 0
-550 -159 0
-550 -160 0
-550 -161 0
-550 -162 0
-550 -163 0
-550 -164 0
-550 -165 0
-550 -166 0
-550 -170 0
-550 -171 0
-550 -172 0
-550 -173 0
-550 -174 0
-550 -175 0
-550 -176 0
-550 -177 0
-550 -178 0
-550 -179 0
-550 -180 0
-550 -181 0
-550 -185 0
-550 -186 0
-550 -187 0
-550 -188 0
-550 -189 0
-550 -190 0
-550 -191 0
-550 -192 0
-550 -193 0
-550 -194 0
-550 -195 0
-551 -151 0
-551 -152 0
-551 -156 0
-551 -157 0
-551 -158 0
-551 -159 0
-551 -160 0
-551 -161 0
-551 -162 0
-551 -163 0
-551 -164 0
-551 -165 0
-551 -166 0
-551 -167 0
-551 -171 0
-551 -172 0
-551 -173 0
-551 -174 0
-551 -175 0
-551 -176 0
-551 -177 0
-551 -178 0
-551 -179 0
-551 -180 0
-551 -181 0
-551 -182 0
-551 -186 0
-551 -187 0
-551 -188 0
-551 -189 0
-551 -190 0
-551 -191 0
-551 -192 0
-551 -193 0
-551 -194 0
-551 -195 0
-552 -151 0
-552 -152 0
-552 -153 0
-552 -157 0
-552 -158 0
-552 -159 0
-552 -160 0
-552 -161 0
-552 -162 0
-552 -163 0
-552 -164 0
-552 -165 0
-552 -166 0
-552 -167 0
-552 -168 0
-552 -172 0
-552 -173 0
-552 -174 0
-552 -175 0
-552 -176 0
-552 -177 0
-552 -178 0
-552 -179 0
-552 -180 0
-552 -181 0
-552 -182 0
-552 -183 0
-552 -187 0
-552 -188 0
-552 -189 0
-552 -190 0
-552 -191 0
-552 -192 0
-552 -193 0
-552 -194 0
-552 -195 0
-553 -151 0
-553 -152 0
-553 -153 0
-553 -154 0
-553 -158 0
-553 -159 0
-553 -160 0
-553 -161 0
-553 -162 0
-553 -163 0
-553 -164 0
-553 -165 0
-553 -166 0
-553 -167 0
-553 -168 0
-553 -169 0
-553 -173 0
-553 -174 0
-553 -175 0
-553 -176 0
-553 -177 0
-553 -178 0
-553 -179 0
-553 -180 0
-553 -181 0
-553 -182 0
-553 -183 0
-553 -184 0
-553 -188 0
-553 -189 0
-553 -190 0
-553 -191 0
-553 -192 0
-553 -193 0
-553 -194 0
-553 -195 0
-554 -151 0
-554 -152 0
-554 -153 0
-554 -154 0
-554 -155 0
-554 -159 0
-554 -160 0
-554 -161 0
-554 -162 0
-554 -163 0
-554 -164 0
-554 -165 0
-554 -166 0
-554 -167 0
-554 -168 0
-554 -169 0
-554 -170 0
-554 -174 0
-554 -175 0
-554 -176 0
-554 -177 0
-554 -178 0
-554 -179 0
-554 -180 0
-554 -181 0
-554 -182 0
-554 -183 0
-554 -184 0
-554 -185 0
-554 -189 0
-554 -190 0
-554 -191 0
-554 -192 0
-554 -193 0
-554 -194 0
-554 -195 0
-555 -151 0
-555 -152 0
-555 -153 0
-555 -154 0
-555 -155 0
-555 -156 0
-555 -160 0
-555 -161 0
-555 -162 0
-555 -163 0
-555 -164 0
-555 -165 0
-555 -166 0
-555 -167 0
-555 -168 0
-555 -169 0
-555 -170 0
-555 -171 0
-555 -175 0
-555 -176 0
-555 -177 0
-555 -178 0
-555 -179 0
-555 -180 0
-555 -181 0
-555 -182 0
-555 -183 0
-555 -184 0
-555 -185 0
-555 -186 0
-555 -190 0
-555 -191 0
-555 -192 0
-555 -193 0
-555 -194 0
-555 -195 0
-556 -151 0
-556 -152 0
-556 -153 0
-556 -154 0
-556 -155 0
-556 -156 0
-556 -157 0
-556 -161 0
-556 -162 0
-556 -163 0
-556 -164 0
-556 -165 0
-556 -166 0
-556 -167 0
-556 -168 0
-556 -169 0
-556 -170 0
-556 -171 0
-556 -172 0
-556 -176 0
-556 -177 0
-556 -178 0
-556 -179 0
-556 -180 0
-556 -181 0
-556 -182 0
-556 -183 0
-556 -184 0
-556 -185 0
-556 -186 0
-556 -187 0
-556 -191 0
-556 -192 0
-556 -193 0
-556 -194 0
-556 -195 0
-557 -151 0
-557 -152 0
-557 -153 0
-557 -154 0
-557 -155 0
-557 -156 0
-557 -157 0
-557 -158 0
-557 -162 0
-557 -163 0
-557 -164 0
-557 -165 0
-557 -166 0
-557 -167 0
-557 -168 0
-557 -169 0
-557 -170 0
-557 -171 0
-557 -172 0
-557 -173 0
-557 -177 0
-557 -178 0
-557 -179 0
-557 -180 0
-557 -181 0
-557 -182 0
-557 -183 0
-557 -184 0
-557 -185 0
-557 -186 0
-557 -187 0
-557 -188 0
-557 -192 0
-557 -193 0
-557 -194 0
-557 -195 0
-558 -151 0
-558 -152 0
-558 -153 0
-558 -154 0
-558 -155 0
-558 -156 0
-558 -157 0
-558 -158 0
-558 -159 0
-558 -163 0
-558 -164 0
-558 -165 0
-558 -166 0
-558 -167 0
-558 -168 0
-558 -169 0
-558 -170 0
-558 -171 0
-558 -172 0
-558 -173 0
-558 -174 0
-558 -178 0
-558 -179 0
-558 -180 0
-558 -181 0
-558 -182 0
-558 -183 0
-558 -184 0
-558 -185 0
-558 -186 0
-558 -187 0
-558 -188 0
-558 -189 0
-558 -193 0
-558 -194 0
-558 -195 0
-559 -151 0
-559 -152 0
-559 -153 0
-559 -154 0
-559 -155 0
-559 -156 0
-559 -157 0
-559 -158 0
-559 -159 0
-559 -160 0
-559 -164 0
-559 -165 0
-559 -166 0
-559 -167 0
-559 -168 0
-559 -169 0
-559 -170 0
-559 -171 0
-559 -172 0
-559 -173 0
-559 -174 0
-559 -175 0
-559 -179 0
-559 -180 0
-559 -181 0
-559 -182 0
-559 -183 0
-559 -184 0
-559 -185 0
-559 -186 0
-559 -187 0
-559 -188 0
-559 -189 0
-559 -190 0
-559 -194 0
-559 -195 0
-560 -151 0
-560 -152 0
-560 -153 0
-560 -154 0
-560 -155 0
-560 -156 0
-560 -157 0
-560 -158 0
-560 -159 0
-560 -160 0
-560 -161 0
-560 -165 0
-560 -166 0
-560 -167 0
-560 -168 0
-560 -169 0
-560 -170 0
-560 -171 0
-560 -172 0
-560 -173 0
-560 -174 0
-560 -175 0
-560 -176 0
-560 -180 0
-560 -181 0
-560 -182 0
-560 -183 0
-560 -184 0
-560 -185 0
-560 -186 0
-560 -187 0
-560 -188 0
-560 -189 0
-560 -190 0
-560 -191 0
-560 -195 0
-561 -151 0
-561 -152 0
-561 -153 0
-561 -154 0
-561 -155 0
-561 -156 0
-561 -157 0
-561 -158 0
-561 -159 0
-561 -160 0
-561 -161 0
-561 -162 0
-561 -166 0
-561 -167 0
-561 -168 0
-561 -169 0
-561 -170 0
-561 -171 0
-561 -172 0
-561 -173 0
-561 -174 0
-561 -175 0
-561 -176 0
-561 -177 0
-561 -181 0
-561 -182 0
-561 -183 0
-561 -184 0
-561 -185 0
-561 -186 0
-561 -187 0
-561 -188 0
-561 -189 0
-561 -190 0
-561 -191 0
-561 -192 0
-196 -211 0
-196 -226 0
-211 -226 0
-197 -212 0
-197 -227 0
-212 -227 0
-198 -213 0
-198 -228 0
-213 -228 0
-199 -214 0
-199 -229 0
-214 -229 0
-200 -215 0
-200 -230 0
-215 -230 0
-201 -216 0
-201 -231 0
-216 -231 0
-202 -217 0
-202 -232 0
-217 -232 0
-203 -218 0
-203 -233 0
-218 -233 0
-204 -219 0
-204 -234 0
-219 -234 0
-205 -220 0
-205 -235 0
-220 -235 0
-206 -221 0
-206 -236 0
-221 -236 0
-207 -222 0
-207 -237 0
-222 -237 0
-208 -223 0
-208 -238 0
-223 -238 0
-209 -224 0
-209 -239 0
-224 -239 0
-210 -225 0
-210 -240 0
-225 -240 0
562 563 564 565 566 567 568 569 570 571 572 573 574 0
-562 -563 0
-562 -564 0
-562 -565 0
-562 -566 0
-562 -567 0
-562 -568 0
-562 -569 0
-562 -570 0
-562 -571 0
-562 -572 0
-562 -573 0
-562 -574 0
-563 -564 0
-563 -565 0
-563 -566 0
-563 -567 0
-563 -568 0
-563 -569 0
-563 -570 0
-563 -571 0
-563 -572 0
-563 -573 0
-563 -574 0
-564 -565 0
-564 -566 0
-564 -567 0
-564 -568 0
-564 -569 0
-564 -570 0
-564 -571 0
-564 -572 0
-564 -573 0
-564 -574 0
-565 -566 0
-565 -567 0
-565 -568 0
-565 -569 0
-565 -570 0
-565 -571 0
-565 -572 0
-565 -573 0
-565 -574 0
-566 -567 0
-566 -568 0
-566 -569 0
-566 -570 0
-566 -571 0
-566 -572 0
-566 -573 0
-566 -574 0
-567 -568 0
-567 -569 0
-567 -570 0
-567 -571 0
-567 -572 0
-567 -573 0
-567 -574 0
-568 -569 0
-568 -570 0
-568 -571 0
-568 -572 0
-568 -573 0
-568 -574 0
-569 -570 0
-569 -571 0
-569 -572 0
-569 -573 0
-569 -574 0
-570 -571 0
-570 -572 0
-570 -573 0
-570 -574 0
-571 -572 0
-571 -573 0
-571 -574 0
-572 -573 0
-572 -574 0
-573 -574 0
-196 562 0
-197 562 563 0
-198 562 563 564 0
-199 563 564 565 0
-200 564 565 566 0
-201 565 566 567 0
-202 566 567 568 0
-203 567 568 569 0
-204 568 569 570 0
-205 569 570 571 0
-206 570 571 572 0
-207 571 572 573 0
-208 572 573 574 0
-209 573 574 0
-210 574 0
-211 562 0
-212 562 563 0
-213 562 563 564 0
-214 563 564 565 0
-215 564 565 566 0
-216 565 566 567 0
-217 566 567 568 0
-218 567 568 569 0
-219 568 569 570 0
-220 569 570 571 0
-221 570 571 572 0
-222 571 572 573 0
-223 572 573 574 0
-224 573 574 0
-225 574 0
-226 562 0
-227 562 563 0
-228 562 563 564 0
-229 563 564 565 0
-230 564 565 566 0
-231 565 566 567 0
-232 566 567 568 0
-233 567 568 569 0
-234 568 569 570 0
-235 569 570 571 0
-236 570 571 572 0
-237 571 572 573 0
-238 572 573 574 0
-239 573 574 0
-240 574 0
-562 -199 0
-562 -200 0
-562 -201 0
-562 -202 0
-562 -203 0
-562 -204 0
-562 -205 0
-562 -206 0
-562 -207 0
-562 -208 0
-562 -209 0
-562 -210 0
-562 -214 0
-562 -215 0
-562 -216 0
-562 -217 0
-562 -218 0
-562 -219 0
-562 -220 0
-562 -221 0
-562 -222 0
-562 -223 0
-562 -224 0
-562 -225 0
-562 -229 0
-562 -230 0
-562 -231 0
-562 -232 0
-562 -233 0
-562 -234 0
-562 -235 0
-562 -236 0
-562 -237 0
-562 -238 0
-562 -239 0
-562 -240 0
-563 -196 0
-563 -200 0
-563 -201 0
-563 -202 0
-563 -203 0
-563 -204 0
-563 -205 0
-563 -206 0
-563 -207 0
-563 -208 0
-563 -209 0
-563 -210 0
-563 -211 0
-563 -215 0
-563 -216 0
-563 -217 0
-563 -218 0
-563 -219 0
-563 -220 0
-563 -221 0
-563 -222 0
-563 -223 0
-563 -224 0
-563 -225 0
-563 -226 0
-563 -230 0
-563 -231 0
-563 -232 0
-563 -233 0
-563 -234 0
-563 -235 0
-563 -236 0
-563 -237 0
-563 -238 0
-563 -239 0
-563 -240 0
-564 -196 0
-564 -197 0
-564 -201 0
-564 -202 0
-564 -203 0
-564 -204 0
-564 -205 0
-564 -206 0
-564 -207 0
-564 -208 0
-564 -209 0
-564 -210 0
-564 -211 0
-564 -212 0
-564 -216 0
-564 -217 0
-564 -218 0
-564 -219 0
-564 -220 0
-564 -221 0
-564 -222 0
-564 -223 0
-564 -224 0
-564 -225 0
-564 -226 0
-564 -227 0
-564 -231 0
-564 -232 0
-564 -233 0
-564 -234 0
-564 -235 0
-564 -236 0
-564 -237 0
-564 -238 0
-564 -239 0
-564 -240 0
-565 -196 0
-565 -197 0
-565 -198 0
-565 -202 0
-565 -203 0
-565 -204 0
-565 -205 0
-565 -206 0
-565 -207 0
-565 -208 0
-565 -209 0
-565 -210 0
-565 -211 0
-565 -212 0
-565 -213 0
-565 -217 0
-565 -218 0
-565 -219 0
-565 -220 0
-565 -221 0
-565 -222 0
-565 -223 0
-565 -224 0
-565 -225 0
-565 -226 0
-565 -227 0
-565 -228 0
-565 -232 0
-565 -233 0
-565 -234 0
-565 -235 0
-565 -236 0
-565 -237 0
-565 -238 0
-565 -239 0
-565 -240 0
-566 -196 0
-566 -197 0
-566 -198 0
-566 -199 0
-566 -203 0
-566 -204 0
-566 -205 0
-566 -206 0
-566 -207 0
-566 -208 0
-566 -209 0
-566 -210 0
-566 -211 0
-566 -212 0
-566 -213 0
-566 -214 0
-566 -218 0
-566 -219 0
-566 -220 0
-566 -221 0
-566 -222 0
-566 -223 0
-566 -224 0
-566 -225 0
-566 -226 0
-566 -227 0
-566 -228 0
-566 -229 0
-566 -233 0
-566 -234 0
-566 -235 0
-566 -236 0
-566 -237 0
-566 -238 0
-566 -239 0
-566 -240 0
-567 -196 0
-567 -197 0
-567 -198 0
-567 -199 0
-567 -200 0
-567 -204 0
-567 -205 0
-567 -206 0
-567 -207 0
-567 -208 0
-567 -209 0
-567 -210 0
-567 -211 0
-567 -212 0
-567 -213 0
-567 -214 0
-567 -215 0
-567 -219 0
-567 -220 0
-567 -221 0
-567 -222 0
-567 -223 0
-567 -224 0
-567 -225 0
-567 -226 0
-567 -227 0
-567 -228 0
-567 -229 0
-567 -230 0
-567 -234 0
-567 -235 0
-567 -236 0
-567 -237 0
-567 -238 0
-567 -239 0
-567 -240 0
-568 -196 0
-568 -197 0
-568 -198 0
-568 -199 0
-568 -200 0
-568 -201 0
-568 -205 0
-568 -206 0
-568 -207 0
-568 -208 0
-568 -209 0
-568 -210 0
-568 -211 0
-568 -212 0
-568 -213 0
-568 -214 0
-568 -215 0
-568 -216 0
-568 -220 0
-568 -221 0
-568 -222 0
-568 -223 0
-568 -224 0
-568 -225 0
-568 -226 0
-568 -227 0
-568 -228 0
-568 -229 0
-568 -230 0
-568 -231 0
-568 -235 0
-568 -236 0
-568 -237 0
-568 -238 0
-568 -239 0
-568 -240 0
-569 -196 0
-569 -197 0
-569 -198 0
-569 -199 0
-569 -200 0
-569 -201 0
-569 -202 0
-569 -206 0
-569 -207 0
-569 -208 0
-569 -209 0
-569 -210 0
-569 -211 0
-569 -212 0
-569 -213 0
-569 -214 0
-569 -215 0
-569 -216 0
-569 -217 0
-569 -221 0
-569 -222 0
-569 -223 0
-569 -224 0
-569 -225 0
-569 -226 0
-569 -227 0
-569 -228 0
-569 -229 0
-569 -230 0
-569 -231 0
-569 -232 0
-569 -236 0
-569 -237 0
-569 -238 0
-569 -239 0
-569 -240 0
-570 -196 0
-570 -197 0
-570 -198 0
-570 -199 0
-570 -200 0
-570 -201 0
-570 -202 0
-570 -203 0
-570 -207 0
-570 -208 0
-570 -209 0
-570 -210 0
-570 -211 0
-570 -212 0
-570 -213 0
-570 -214 0
-570 -215 0
-570 -216 0
-570 -217 0
-570 -218 0
-570 -222 0
-570 -223 0
-570 -224 0
-570 -225 0
-570 -226 0
-570 -227 0
-570 -228 0
-570 -229 0
-570 -230 0
-570 -231 0
-570 -232 0
-570 -233 0
-570 -237 0
-570 -238 0
-570 -239 0
-570 -240 0
-571 -196 0
-571 -197 0
-571 -198 0
-571 -199 0
-571 -200 0
-571 -201 0
-571 -202 0
-571 -203 0
-571 -204 0
-571 -208 0
-571 -209 0
-571 -210 0
-571 -211 0
-571 -212 0
-571 -213 0
-571 -214 0
-571 -215 0
-571 -216 0
-571 -217 0
-571 -218 0
-571 -219 0
-571 -223 0
-571 -224 0
-571 -225 0
-571 -226 0
-571 -227 0
-571 -228 0
-571 -229 0
-571 -230 0
-571 -231 0
-571 -232 0
-571 -233 0
-571 -234 0
-571 -238 0
-571 -239 0
-571 -240 0
-572 -196 0
-572 -197 0
-572 -198 0
-572 -199 0
-572 -200 0
-572 -201 0
-572 -202 0
-572 -203 0
-572 -204 0
-572 -205 0
-572 -209 0
-572 -210 0
-572 -211 0
-572 -212 0
-572 -213 0
-572 -214 0
-572 -215 0
-572 -216 0
-572 -217 0
-572 -218 0
-572 -219 0
-572 -220 0
-572 -224 0
-572 -225 0
-572 -226 0
-572 -227 0
-572 -228 0
-572 -229 0
-572 -230 0
-572 -231 0
-572 -232 0
-572 -233 0
-572 -234 0
-572 -235 0
-572 -239 0
-572 -240 0
-573 -196 0
-573 -197 0
-573 -198 0
-573 -199 0
-573 -200 0
-573 -201 0
-573 -202 0
-573 -203 0
-573 -204 0
-573 -205 0
-573 -206 0
-573 -210 0
-573 -211 0
-573 -212 0
-573 -213 0
-573 -214 0
-573 -215 0
-573 -216 0
-573 -217 0
-573 -218 0
-573 -219 0
-573 -220 0
-573 -221 0
-573 -225 0
-573 -226 0
-573 -227 0
-573 -228 0
-573 -229 0
-573 -230 0
-573 -231 0
-573 -232 0
-573 -233 0
-573 -234 0
-573 -235 0
-573 -236 0
-573 -240 0
-574 -196 0
-574 -197 0
-574 -198 0
-574 -199 0
-574 -200 0
-574 -201 0
-574 -202 0
-574 -203 0
-574 -204 0
-574 -205 0
-574 -206 0
-574 -207 0
-574 -211 0
-574 -212 0
-574 -213 0
-574 -214 0
-574 -215 0
-574 -216 0
-574 -217 0
-574 -218 0
-574 -219 0
-574 -220 0
-574 -221 0
-574 -222 0
-574 -226 0
-574 -227 0
-574 -228 0
-574 -229 0
-574 -230 0
-574 -231 0
-574 -232 0
-574 -233 0
-574 -234 0
-574 -235 0
-574 -236 0
-574 -237 0
-241 -256 0
-241 -271 0
-256 -271 0
-242 -257 0
-242 -272 0
-257 -272 0
-243 -258 0
-243 -273 0
-258 -273 0
-244 -259 0
-244 -274 0
-259 -274 0
-245 -260 0
-245 -275 0
-260 -275 0
-246 -261 0
-246 -276 0
-261 -276 0
-247 -262 0
-247 -277 0
-262 -277 0
-248 -263 0
-248 -278 0
-263 -278 0
-249 -264 0
-249 -279 0
-264 -279 0
-250 -265 0
-250 -280 0
-265 -280 0
-251 -266 0
-251 -281 0
-266 -281 0
-252 -267 0
-252 -282 0
-267 -282 0
-253 -268 0
-253 -283 0
-268 -283 0
-254 -269 0
-254 -284 0
-269 -284 0
-255 -270 0
-255 -285 0
-270 -285 0
575 576 577 578 579 580 581 582 583 584 585 586 587 0
-575 -576 0
-575 -577 0
-575 -578 0
-575 -579 0
-575 -580 0
-575 -581 0
-575 -582 0
-575 -583 0
-575 -584 0
-575 -585 0
-575 -586 0
-575 -587 0
-576 -577 0
-576 -578 0
-576 -579 0
-576 -580 0
-576 -581 0
-576 -582 0
-576 -583 0
-576 -584 0
-576 -585 0
-576 -586 0
-576 -587 0
-577 -578 0
-577 -579 0
-577 -580 0
-577 -581 0
-577 -582 0
-577 -583 0
-577 -584 0
-577 -585 0
-577 -586 0
-577 -587 0
-578 -579 0
-578 -580 0
-578 -581 0
-578 -582 0
-578 -583 0
-578 -584 0
-578 -585 0
-578 -586 0
-578 -587 0
-579 -580 0
-579 -581 0
-579 -582 0
-579 -583 0
-579 -584 0
-579 -585 0
-579 -586 0
-579 -587 0
-580 -581 0
-580 -582 0
-580 -583 0
-580 -584 0
-580 -585 0
-580 -586 0
-580 -587 0
-581 -582 0
-581 -583 0
-581 -584 0
-581 -585 0
-581 -586 0
-581 -587 0
-582 -583 0
-582 -584 0
-582 -585 0
-582 -586 0
-582 -587 0
-583 -584 0
-583 -585 0
-583 -586 0
-583 -587 0
-584 -585 0
-584 -586 0
-584 -587 0
-585 -586 0
-585 -587 0
-586 -587 0
-241 575 0
-242 575 576 0
-243 575 576 577 0
-244 576 577 578 0
-245 577 578 579 0
-246 578 579 580 0
-247 579 580 581 0
-248 580 581 582 0
-249 581 582 583 0
-250 582 583 584 0
-251 583 584 585 0
-252 584 585 586 0
-253 585 586 587 0
-254 586 587 0
-255 587 0
-256 575 0
-257 575 576 0
-258 575 576 577 0
-259 576 577 578 0
-260 577 578 579 0
-261 578 579 580 0
-262 579 580 581 0
-263 580 581 582 0
-264 581 582 583 0
-265 582 583 584 0
-266 583 584 585 0
-267 584 585 586 0
-268 585 586 587 0
-269 586 587 0
-270 587 0
-271 575 0
-272 575 576 0
-273 575 576 577 0
-274 576 577 578 0
-275 577 578 579 0
-276 578 579 580 0
-277 579 580 581 0
-278 580 581 582 0
-279 581 582 583 0
-280 582 583 584 0
-281 583 584 585 0
-282 584 585 586 0
-283 585 586 587 0
-284 586 587 0
-285 587 0
-575 -244 0
-575 -245 0
-575 -246 0
-575 -247 0
-575 -248 0
-575 -249 0
-575 -250 0
-575 -251 0
-575 -252 0
-575 -253 0
-575 -254 0
-575 -255 0
-575 -259 0
-575 -260 0
-575 -261 0
-575 -262 0
-575 -263 0
-575 -264 0
-575 -265 0
-575 -266 0
-575 -267 0
-575 -268 0
-575 -269 0
-575 -270 0
-575 -274 0
-575 -275 0
-575 -276 0
-575 -277 0
-575 -278 0
-575 -279 0
-575 -280 0
-575 -281 0
-575 -282 0
-575 -283 0
-575 -284 0
-575 -285 0
-576 -241 0
-576 -245 0
-576 -246 0
-576 -247 0
-576 -248 0
-576 -249 0
-576 -250 0
-576 -251 0
-576 -252 0
-576 -253 0
-576 -254 0
-576 -255 0
-576 -256 0
-576 -260 0
-576 -261 0
-576 -262 0
-576 -263 0
-576 -264 0
-576 -265 0
-576 -266 0
-576 -267 0
-576 -268 0
-576 -269 0
-576 -270 0
-576 -271 0
-576 -275 0
-576 -276 0
-576 -277 0
-576 -278 0
-576 -279 0
-576 -280 0
-576 -281 0
-576 -282 0
-576 -283 0
-576 -284 0
-576 -285 0
-577 -241 0
-577 -242 0
-577 -246 0
-577 -247 0
-577 -248 0
-577 -249 0
-577 -250 0
-577 -251 0
-577 -252 0
-577 -253 0
-577 -254 0
-577 -255 0
-577 -256 0
-577 -257 0
-577 -261 0
-577 -262 0
-577 -263 0
-577 -264 0
-577 -265 0
-577 -266 0
-577 -267 0
-577 -268 0
-577 -269 0
-577 -270 0
-577 -271 0
-577 -272 0
-577 -276 0
-577 -277 0
-577 -278 0
-577 -279 0
-577 -280 0
-577 -281 0
-577 -282 0
-577 -283 0
-577 -284 0
-577 -285 0
-578 -241 0
-578 -242 0
-578 -243 0
-578 -247 0
-578 -248 0
-578 -249 0
-578 -250 0
-578 -251 0
-578 -252 0
-578 -253 0
-578 -254 0
-578 -255 0
-578 -256 0
-578 -257 0
-578 -258 0
-578 -262 0
-578 -263 0
-578 -264 0
-578 -265 0
-578 -266 0
-578 -267 0
-578 -268 0
-578 -269 0
-578 -270 0
-578 -271 0
-578 -272 0
-578 -273 0
-578 -277 0
-578 -278 0
-578 -279 0
-578 -280 0
-578 -281 0
-578 -282 0
-578 -283 0
-578 -284 0
-578 -285 0
-579 -241 0
-579 -242 0
-579 -243 0
-579 -244 0
-579 -248 0
-579 -249 0
-579 -250 0
-579 -251 0
-579 -252 0
-579 -253 0
-579 -254 0
-579 -255 0
-579 -256 0
-579 -257 0
-579 -258 0
-579 -259 0
-579 -263 0
-579 -264 0
-579 -265 0
-579 -266 0
-579 -267 0
-579 -268 0
-579 -269 0
-579 -270 0
-579 -271 0
-579 -272 0
-579 -273 0
-579 -274 0
-579 -278 0
-579 -279 0
-579 -280 0
-579 -281 0
-579 -282 0
-579 -283 0
-579 -284 0
-579 -285 0
-580 -241 0
-580 -242 0
-580 -243 0
-580 -244 0
-580 -245 0
-580 -249 0
-580 -250 0
-580 -251 0
-580 -252 0
-580 -253 0
-580 -254 0
-580 -255 0
-580 -256 0
-580 -257 0
-580 -258 0
-580 -259 0
-580 -260 0
-580 -264 0
-580 -265 0
-580 -266 0
-580 -267 0
-580 -268 0
-580 -269 0
-580 -270 0
-580 -271 0
-580 -272 0
-580 -273 0
-580 -274 0
-580 -275 0
-580 -279 0
-580 -280 0
-580 -281 0
-580 -282 0
-580 -283 0
-580 -284 0
-580 -285 0
-581 -241 0
-581 -242 0
-581 -243 0
-581 -244 0
-581 -245 0
-581 -246 0
-581 -250 0
-581 -251 0
-581 -252 0
-581 -253 0
-581 -254 0
-581 -255 0
-581 -256 0
-581 -257 0
-581 -258 0
-581 -259 0
-581 -260 0
-581 -261 0
-581 -265 0
-581 -266 0
-581 -267 0
-581 -268 0
-581 -269 0
-581 -270 0
-581 -271 0
-581 -272 0
-581 -273 0
-581 -274 0
-581 -275 0
-581 -276 0
-581 -280 0
-581 -281 0
-581 -282 0
-581 -283 0
-581 -284 0
-581 -285 0
-582 -241 0
-582 -242 0
-582 -243 0
-582 -244 0
-582 -245 0
-582 -246 0
-582 -247 0
-582 -251 0
-582 -252 0
-582 -253 0
-582 -254 0
-582 -255 0
-582 -256 0
-582 -257 0
-582 -258 0
-582 -259 0
-582 -260 0
-582 -261 0
-582 -262 0
-582 -266 0
-582 -267 0
-582 -268 0
-582 -269 0
-582 -270 0
-582 -271 0
-582 -272 0
-582 -273 0
-582 -274 0
-582 -275 0
-582 -276 0
-582 -277 0
-582 -281 0
-582 -282 0
-582 -283 0
-582 -284 0
-582 -285 0
-583 -241 0
-583 -242 0
-583 -243 0
-583 -244 0
-583 -245 0
-583 -246 0
-583 -247 0
-583 -248 0
-583 -252 0
-583 -253 0
-583 -254 0
-583 -255 0
-583 -256 0
-583 -257 0
-583 -258 0
-583 -259 0
-583 -260 0
-583 -261 0
-583 -262 0
-583 -263 0
-583 -267 0
-583 -268 0
-583 -269 0
-583 -270 0
-583 -271 0
-583 -272 0
-583 -273 0
-583 -274 0
-583 -275 0
-583 -276 0
-583 -277 0
-583 -278 0
-583 -282 0
-583 -283 0
-583 -284 0
-583 -285 0
-584 -241 0
-584 -242 0
-584 -243 0
-584 -244 0
-584 -245 0
-584 -246 0
-584 -247 0
-584 -248 0
-584 -249 0
-584 -253 0
-584 -254 0
-584 -255 0
-584 -256 0
-584 -257 0
-584 -258 0
-584 -259 0
-584 -260 0
-584 -261 0
-584 -262 0
-584 -263 0
-584 -264 0
-584 -268 0
-584 -269 0
-584 -270 0
-584 -271 0
-584 -272 0
-584 -273 0
-584 -274 0
-584 -275 0
-584 -276 0
-584 -277 0
-584 -278 0
-584 -279 0
-584 -283 0
-584 -284 0
-584 -285 0
-585 -241 0
-585 -242 0
-585 -243 0
-585 -244 0
-585 -245 0
-585 -246 0
-585 -247 0
-585 -248 0
-585 -249 0
-585 -250 0
-585 -254 0
-585 -255 0
-585 -256 0
-585 -257 0
-585 -258 0
-585 -259 0
-585 -260 0
-585 -261 0
-585 -262 0
-585 -263 0
-585 -264 0
-585 -265 0
-585 -269 0
-585 -270 0
-585 -271 0
-585 -272 0
-585 -273 0
-585 -274 0
-585 -275 0
-585 -276 0
-585 -277 0
-585 -278 0
-585 -279 0
-585 -280 0
-585 -284 0
-585 -285 0
-586 -241 0
-586 -242 0
-586 -243 0
-586 -244 0
-586 -245 0
-586 -246 0
-586 -247 0
-586 -248 0
-586 -249 0
-586 -250 0
-586 -251 0
-586 -255 0
-586 -256 0
-586 -257 0
-586 -258 0
-586 -259 0
-586 -260 0
-586 -261 0
-586 -262 0
-586 -263 0
-586 -264 0
-586 -265 0
-586 -266 0
-586 -270 0
-586 -271 0
-586 -272 0
-586 -273 0
-586 -274 0
-586 -275 0
-586 -276 0
-586 -277 0
-586 -278 0
-586 -279 0
-586 -280 0
-586 -281 0
-586 -285 0
-587 -241 0
-587 -242 0
-587 -243 0
-587 -244 0
-587 -245 0
-587 -246 0
-587 -247 0
-587 -248 0
-587 -249 0
-587 -250 0
-587 -251 0
-587 -252 0
-587 -256 0
-587 -257 0
-587 -258 0
-587 -259 0
-587 -260 0
-587 -261 0
-587 -262 0
-587 -263 0
-587 -264 0
-587 -265 0
-587 -266 0
-587 -267 0
-587 -271 0
-587 -272 0
-587 -273 0
-587 -274 0
-587 -275 0
-587 -276 0
-587 -277 0
-587 -278 0
-587 -279 0
-587 -280 0
-587 -281 0
-587 -282 0
-286 -301 0
-286 -316 0
-301 -316 0
-287 -302 0
-287 -317 0
-302 -317 0
-288 -303 0
-288 -318 0
-303 -318 0
-289 -304 0
-289 -319 0
-304 -319 0
-290 -305 0
-290 -320 0
-305 -320 0
-291 -306 0
-291 -321 0
-306 -321 0
-292 -307 0
-292 -322 0
-307 -322 0
-293 -308 0
-293 -323 0
-308 -323 0
-294 -309 0
-294 -324 0
-309 -324 0
-295 -310 0
-295 -325 0
-310 -325 0
-296 -311 0
-296 -326 0
-311 -326 0
-297 -312 0
-297 -327 0
-312 -327 0
-298 -313 0
-298 -328 0
-313 -328 0
-299 -314 0
-299 -329 0
-314 -329 0
-300 -315 0
-300 -330 0
-315 -330 0
588 589 590 591 592 593 594 595 596 597 598 599 600 0
-588 -589 0
-588 -590 0
-588 -591 0
-588 -592 0
-588 -593 0
-588 -594 0
-588 -595 0
-588 -596 0
-588 -597 0
-588 -598 0
-588 -599 0
-588 -600 0
-589 -590 0
-589 -591 0
-589 -592 0
-589 -593 0
-589 -594 0
-589 -595 0
-589 -596 0
-589 -597 0
-589 -598 0
-589 -599 0
-589 -600 0
-590 -591 0
-590 -592 0
-590 -593 0
-590 -594 0
-590 -595 0
-590 -596 0
-590 -597 0
-590 -598 0
-590 -599 0
-590 -600 0
-591 -592 0
-591 -593 0
-591 -594 0
-591 -595 0
-591 -596 0
-591 -597 0
-591 -598 0
-591 -599 0
-591 -600 0
-592 -593 0
-592 -594 0
-592 -595 0
-592 -596 0
-592 -597 0
-592 -598 0
-592 -599 0
-592 -600 0
-593 -594 0
-593 -595 0
-593 -596 0
-593 -597 0
-593 -598 0
-593 -599 0
-593 -600 0
-594 -595 0
-594 -596 0
-594 -597 0
-594 -598 0
-594 -599 0
-594 -600 0
-595 -596 0
-595 -597 0
-595 -598 0
-595 -599 0
-595 -600 0
-596 -597 0
-596 -598 0
-596 -599 0
-596 -600 0
-597 -598 0
-597 -599 0
-597 -600 0
-598 -599 0
-598 -600 0
-599 -600 0
-286 588 0
-287 588 589 0
-288 588 589 590 0
-289 589 590 591 0
-290 590 591 592 0
-291 591 592 593 0
-292 592 593 594 0
-293 593 594 595 0
-294 594 595 596 0
-295 595 596 597 0
-296 596 597 598 0
-297 597 598 599 0
-298 598 599 600 0
-299 599 600 0
-300 600 0
-301 588 0
-302 588 589 0
-303 588 589 590 0
-304 589 590 591 0
-305 590 591 592 0
-306 591 592 593 0
-307 592 593 594 0
-308 593 594 595 0
-309 594 595 596 0
-310 595 596 597 0
-311 596 597 598 0
-312 597 598 599 0
-313 598 599 600 0
-314 599 600 0
-315 600 0
-316 588 0
-317 588 589 0
-318 588 589 590 0
-319 589 590 591 0
-320 590 591 592 0
-321 591 592 593 0
-322 592 593 594 0
-323 593 594 595 0
-324 594 595 596 0
-325 595 596 597 0
-326 596 597 598 0
-327 597 598 599 0
-328 598 599 600 0
-329 599 600 0
-330 600 0
-588 -289 0
-588 -290 0
-588 -291 0
-588 -292 0
-588 -293 0
-588 -294 0
-588 -295 0
-588 -296 0
-588 -297 0
-588 -298 0
-588 -299 0
-588 -300 0
-588 -304 0
-588 -305 0
-588 -306 0
-588 -307 0
-588 -308 0
-588 -309 0
-588 -310 0
-588 -311 0
-588 -312 0
-588 -313 0
-588 -314 0
-588 -315 0
-588 -319 0
-588 -320 0
-588 -321 0
-588 -322 0
-588 -323 0
-588 -324 0
-588 -325 0
-588 -326 0
-588 -327 0
-588 -328 0
-588 -329 0
-588 -330 0
-589 -286 0
-589 -290 0
-589 -291 0
-589 -292 0
-589 -293 0
-589 -294 0
-589 -295 0
-589 -296 0
-589 -297 0
-589 -298 0
-589 -299 0
-589 -300 0
-589 -301 0
-589 -305 0
-589 -306 0
-589 -307 0
-589 -308 0
-589 -309 0
-589 -310 0
-589 -311 0
-589 -312 0
-589 -313 0
-589 -314 0
-589 -315 0
-589 -316 0
-589 -320 0
-589 -321 0
-589 -322 0
-589 -323 0
-589 -324 0
-589 -325 0
-589 -326 0
-589 -327 0
-589 -328 0
-589 -329 0
-589 -330 0
-590 -286 0
-590 -287 0
-590 -291 0
-590 -292 0
-590 -293 0
-590 -294 0
-590 -295 0
-590 -296 0
-590 -297 0
-590 -298 0
-590 -299 0
-590 -300 0
-590 -301 0
-590 -302 0
-590 -306 0
-590 -307 0
-590 -308 0
-590 -309 0
-590 -310 0
-590 -311 0
-590 -312 0
-590 -313 0
-590 -314 0
-590 -315 0
-590 -316 0
-590 -317 0
-590 -321 0
-590 -322 0
-590 -323 0
-590 -324 0
-590 -325 0
-590 -326 0
-590 -327 0
-590 -328 0
-590 -329 0
-590 -330 0
-591 -286 0
-591 -287 0
-591 -288 0
-591 -292 0
-591 -293 0
-591 -294 0
-591 -295 0
-591 -296 0
-591 -297 0
-591 -298 0
-591 -299 0
-591 -300 0
-591 -301 0
-591 -302 0
-591 -303 0
-591 -307 0
-591 -308 0
-591 -309 0
-591 -310 0
-591 -311 0
-591 -312 0
-591 -313 0
-591 -314 0
-591 -315 0
-591 -316 0
-591 -317 0
-591 -318 0
-591 -322 0
-591 -323 0
-591 -324 0
-591 -325 0
-591 -326 0
-591 -327 0
-591 -328 0
-591 -329 0
-591 -330 0
-592 -286 0
-592 -287 0
-592 -288 0
-592 -289 0
-592 -293 0
-592 -294 0
-592 -295 0
-592 -296 0
-592 -297 0
-592 -298 0
-592 -299 0
-592 -300 0
-592 -301 0
-592 -302 0
-592 -303 0
-592 -304 0
-592 -308 0
-592 -309 0
-592 -310 0
-592 -311 0
-592 -312 0
-592 -313 0
-592 -314 0
-592 -315 0
-592 -316 0
-592 -317 0
-592 -318 0
-592 -319 0
-592 -323 0
-592 -324 0
-592 -325 0
-592 -326 0
-592 -327 0
-592 -328 0
-592 -329 0
-592 -330 0
-593 -286 0
-593 -287 0
-593 -288 0
-593 -289 0
-593 -290 0
-593 -294 0
-593 -295 0
-593 -296 0
-593 -297 0
-593 -298 0
-593 -299 0
-593 -300 0
-593 -301 0
-593 -302 0
-593 -303 0
-593 -304 0
-593 -305 0
-593 -309 0
-593 -310 0
-593 -311 0
-593 -312 0
-593 -313 0
-593 -314 0
-593 -315 0
-593 -316 0
-593 -317 0
-593 -318 0
-593 -319 0
-593 -320 0
-593 -324 0
-593 -325 0
-593 -326 0
-593 -327 0
-593 -328 0
-593 -329 0
-593 -330 0
-594 -286 0
-594 -287 0
-594 -288 0
-594 -289 0
-594 -290 0
-594 -291 0
-594 -295 0
-594 -296 0
-594 -297 0
-594 -298 0
-594 -299 0
-594 -300 0
-594 -301 0
-594 -302 0
-594 -303 0
-594 -304 0
-594 -305 0
-594 -306 0
-594 -310 0
-594 -311 0
-594 -312 0
-594 -313 0
-594 -314 0
-594 -315 0
-594 -316 0
-594 -317 0
-594 -318 0
-594 -319 0
-594 -320 0
-594 -321 0
-594 -325 0
-594 -326 0
-594 -327 0
-594 -328 0
-594 -329 0
-594 -330 0
-595 -286 0
-595 -287 0
-595 -288 0
-595 -289 0
-595 -290 0
-595 -291 0
-595 -292 0
-595 -296 0
-595 -297 0
-595 -298 0
-595 -299 0
-595 -300 0
-595 -301 0
-595 -302 0
-595 -303 0
-595 -304 0
-595 -305 0
-595 -306 0
-595 -307 0
-595 -311 0
-595 -312 0
-595 -313 0
-595 -314 0
-595 -315 0
-595 -316 0
-595 -317 0
-595 -318 0
-595 -319 0
-595 -320 0
-595 -321 0
-595 -322 0
-595 -326 0
-595 -327 0
-595 -328 0
-595 -329 0
-595 -330 0
-596 -286 0
-596 -287 0
-596 -288 0
-596 -289 0
-596 -290 0
-596 -291 0
-596 -292 0
-596 -293 0
-596 -297 0
-596 -298 0
-596 -299 0
-596 -300 0
-596 -301 0
-596 -302 0
-596 -303 0
-596 -304 0
-596 -305 0
-596 -306 0
-596 -307 0
-596 -308 0
-596 -312 0
-596 -313 0
-596 -314 0
-596 -315 0
-596 -316 0
-596 -317 0
-596 -318 0
-596 -319 0
-596 -320 0
-596 -321 0
-596 -322 0
-596 -323 0
-596 -327 0
-596 -328 0
-596 -329 0
-596 -330 0
-597 -286 0
-597 -287 0
-597 -288 0
-597 -289 0
-597 -290 0
-597 -291 0
-597 -292 0
-597 -293 0
-597 -294 0
-597 -298 0
-597 -299 0
-597 -300 0
-597 -301 0
-597 -302 0
-597 -303 0
-597 -304 0
-597 -305 0
-597 -306 0
-597 -307 0
-597 -308 0
-597 -309 0
-597 -313 0
-597 -314 0
-597 -315 0
-597 -316 0
-597 -317 0
-597 -318 0
-597 -319 0
-597 -320 0
-597 -321 0
-597 -322 0
-597 -323 0
-597 -324 0
-597 -328 0
-597 -329 0
-597 -330 0
-598 -286 0
-598 -287 0
-598 -288 0
-598 -289 0
-598 -290 0
-598 -291 0
-598 -292 0
-598 -293 0
-598 -294 0
-598 -295 0
-598 -299 0
-598 -300 0
-598 -301 0
-598 -302 0
-598 -303 0
-598 -304 0
-598 -305 0
-598 -306 0
-598 -307 0
-598 -308 0
-598 -309 0
-598 -310 0
-598 -314 0
-598 -315 0
-598 -316 0
-598 -317 0
-598 -318 0
-598 -319 0
-598 -320 0
-598 -321 0
-598 -322 0
-598 -323 0
-598 -324 0
-598 -325 0
-598 -329 0
-598 -330 0
-599 -286 0
-599 -287 0
-599 -288 0
-599 -289 0
-599 -290 0
-599 -291 0
-599 -292 0
-599 -293 0
-599 -294 0
-599 -295 0
-599 -296 0
-599 -300 0
-599 -301 0
-599 -302 0
-599 -303 0
-599 -304 0
-599 -305 0
-599 -306 0
-599 -307 0
-599 -308 0
-599 -309 0
-599 -310 0
-599 -311 0
-599 -315 0
-599 -316 0
-599 -317 0
-599 -318 0
-599 -319 0
-599 -320 0
-599 -321 0
-599 -322 0
-599 -323 0
-599 -324 0
-599 -325 0
-599 -326 0
-599 -330 0
-600 -286 0
-600 -287 0
-600 -288 0
-600 -289 0
-600 -290 0
-600 -291 0
-600 -292 0
-600 -293 0
-600 -294 0
-600 -295 0
-600 -296 0
-600 -297 0
-600 -301 0
-600 -302 0
-600 -303 0
-600 -304 0
-600 -305 0
-600 -306 0
-600 -307 0
-600 -308 0
-600 -309 0
-600 -310 0
-600 -311 0
-600 -312 0
-600 -316 0
-600 -317 0
-600 -318 0
-600 -319 0
-600 -320 0
-600 -321 0
-600 -322 0
-600 -323 0
-600 -324 0
-600 -325 0
-600 -326 0
-600 -327 0
-331 -346 0
-331 -361 0
-346 -361 0
-332 -347 0
-332 -362 0
-347 -362 0
-333 -348 0
-333 -363 0
-348 -363 0
-334 -349 0
-334 -364 0
-349 -364 0
-335 -350 0
-335 -365 0
-350 -365 0
-336 -351 0
-336 -366 0
-351 -366 0
-337 -352 0
-337 -367 0
-352 -367 0
-338 -353 0
-338 -368 0
-353 -368 0
-339 -354 0
-339 -369 0
-354 -369 0
-340 -355 0
-340 -370 0
-355 -370 0
-341 -356 0
-341 -371 0
-356 -371 0
-342 -357 0
-342 -372 0
-357 -372 0
-343 -358 0
-343 -373 0
-358 -373 0
-344 -359 0
-344 -374 0
-359 -374 0
-345 -360 0
-345 -375 0
-360 -375 0
601 602 603 604 605 606 607 608 609 610 611 612 613 0
-601 -602 0
-601 -603 0
-601 -604 0
-601 -605 0
-601 -606 0
-601 -607 0
-601 -608 0
-601 -609 0
-601 -610 0
-601 -611 0
-601 -612 0
-601 -613 0
-602 -603 0
-602 -604 0
-602 -605 0
-602 -606 0
-602 -607 0
-602 -608 0
-602 -609 0
-602 -610 0
-602 -611 0
-602 -612 0
-602 -613 0
-603 -604 0
-603 -605 0
-603 -606 0
-603 -607 0
-603 -608 0
-603 -609 0
-603 -610 0
-603 -611 0
-603 -612 0
-603 -613 0
-604 -605 0
-604 -606 0
-604 -607 0
-604 -608 0
-604 -609 0
-604 -610 0
-604 -611 0
-604 -612 0
-604 -613 0
-605 -606 0
-605 -607 0
-605 -608 0
-605 -609 0
-605 -610 0
-605 -611 0
-605 -612 0
-605 -613 0
-606 -607 0
-606 -608 0
-606 -609 0
-606 -610 0
-606 -611 0
-606 -612 0
-606 -613 0
-607 -608 0
-607 -609 0
-607 -610 0
-607 -611 0
-607 -612 0
-607 -613 0
-608 -609 0
-608 -610 0
-608 -611 0
-608 -612 0
-608 -613 0
-609 -610 0
-609 -611 0
-609 -612 0
-609 -613 0
-610 -611 0
-610 -612 0
-610 -613 0
-611 -612 0
-611 -613 0
-612 -613 0
-331 601 0
-332 601 602 0
-333 601 602 603 0
-334 602 603 604 0
-335 603 604 605 0
-336 604 605 606 0
-337 605 606 607 0
-338 606 607 608 0
-339 607 608 609 0
-340 608 609 610 0
-341 609 610 611 0
-342 610 611 612 0
-343 611 612 613 0
-344 612 613 0
-345 613 0
-346 601 0
-347 601 602 0
-348 601 602 603 0
-349 602 603 604 0
-350 603 604 605 0
-351 604 605 606 0
-352 605 606 607 0
-353 606 607 608 0
-354 607 608 609 0
-355 608 609 610 0
-356 609 610 611 0
-357 610 611 612 0
-358 611 612 613 0
-359 612 613 0
-360 613 0
-361 601 0
-362 601 602 0
-363 601 602 603 0
-364 602 603 604 0
-365 603 604 605 0
-366 604 605 606 0
-367 605 606 607 0
-368 606 607 608 0
-369 607 608 609 0
-370 608 609 610 0
-371 609 610 611 0
-372 610 611 612 0
-373 611 612 613 0
-374 612 613 0
-375 613 0
-601 -334 0
-601 -335 0
-601 -336 0
-601 -337 0
-601 -338 0
-601 -339 0
-601 -340 0
-601 -341 0
-601 -342 0
-601 -343 0
-601 -344 0
-601 -345 0
-601 -349 0
-601 -350 0
-601 -351 0
-601 -352 0
-601 -353 0
-601 -354 0
-601 -355 0
-601 -356 0
-601 -357 0
-601 -358 0
-601 -359 0
-601 -360 0
-601 -364 0
-601 -365 0
-601 -366 0
-601 -367 0
-601 -368 0
-601 -369 0
-601 -370 0
-601 -371 0
-601 -372 0
-601 -373 0
-601 -374 0
-601 -375 0
-602 -331 0
-602 -335 0
-602 -336 0
-602 -337 0
-602 -338 0
-602 -339 0
-602 -340 0
-602 -341 0
-602 -342 0
-602 -343 0
-602 -344 0
-602 -345 0
-602 -346 0
-602 -350 0
-602 -351 0
-602 -352 0
-602 -353 0
-602 -354 0
-602 -355 0
-602 -356 0
-602 -357 0
-602 -358 0
-602 -359 0
-602 -360 0
-602 -361 0
-602 -365 0
-602 -366 0
-602 -367 0
-602 -368 0
-602 -369 0
-602 -370 0
-602 -371 0
-602 -372 0
-602 -373 0
-602 -374 0
-602 -375 0
-603 -331 0
-603 -332 0
-603 -336 0
-603 -337 0
-603 -338 0
-603 -339 0
-603 -340 0
-603 -341 0
-603 -342 0
-603 -343 0
-603 -344 0
-603 -345 0
-603 -346 0
-603 -347 0
-603 -351 0
-603 -352 0
-603 -353 0
-603 -354 0
-603 -355 0
-603 -356 0
-603 -357 0
-603 -358 0
-603 -359 0
-603 -360 0
-603 -361 0
-603 -362 0
-603 -366 0
-603 -367 0
-603 -368 0
-603 -369 0
-603 -370 0
-603 -371 0
-603 -372 0
-603 -373 0
-603 -374 0
-603 -375 0
-604 -331 0
-604 -332 0
-604 -333 0
-604 -337 0
-604 -338 0
-604 -339 0
-604 -340 0
-604 -341 0
-604 -342 0
-604 -343 0
-604 -344 0
-604 -345 0
-604 -346 0
-604 -347 0
-604 -348 0
-604 -352 0
-604 -353 0
-604 -354 0
-604 -355 0
-604 -356 0
-604 -357 0
-604 -358 0
-604 -359 0
-604 -360 0
-604 -361 0
-604 -362 0
-604 -363 0
-604 -367 0
-604 -368 0
-604 -369 0
-604 -370 0
-604 -371 0
-604 -372 0
-604 -373 0
-604 -374 0
-604 -375 0
-605 -331 0
-605 -332 0
-605 -333 0
-605 -334 0
-605 -338 0
-605 -339 0
-605 -340 0
-605 -341 0
-605 -342 0
-605 -343 0
-605 -344 0
-605 -345 0
-605 -346 0
-605 -347 0
-605 -348 0
-605 -349 0
-605 -353 0
-605 -354 0
-605 -355 0
-605 -356 0
-605 -357 0
-605 -358 0
-605 -359 0
-605 -360 0
-605 -361 0
-605 -362 0
-605 -363 0
-605 -364 0
-605 -368 0
-605 -369 0
-605 -370 0
-605 -371 0
-605 -372 0
-605 -373 0
-605 -374 0
-605 -375 0
-606 -331 0
-606 -332 0
-606 -333 0
-606 -334 0
-606 -335 0
-606 -339 0
-606 -340 0
-606 -341 0
-606 -342 0
-606 -343 0
-606 -344 0
-606 -345 0
-606 -346 0
-606 -347 0
-606 -348 0
-606 -349 0
-606 -350 0
-606 -354 0
-606 -355 0
-606 -356 0
-606 -357 0
-606 -358 0
-606 -359 0
-606 -360 0
-606 -361 0
-606 -362 0
-606 -363 0
-606 -364 0
-606 -365 0
-606 -369 0
-606 -370 0
-606 -371 0
-606 -372 0
-606 -373 0
-606 -374 0
-606 -375 0
-607 -331 0
-607 -332 0
-607 -333 0
-607 -334 0
-607 -335 0
-607 -336 0
-607 -340 0
-607 -341 0
-607 -342 0
-607 -343 0
-607 -344 0
-607 -345 0
-607 -346 0
-607 -347 0
-607 -348 0
-607 -349 0
-607 -350 0
-607 -351 0
-607 -355 0
-607 -356 0
-607 -357 0
-607 -358 0
-607 -359 0
-607 -360 0
-607 -361 0
-607 -362 0
-607 -363 0
-607 -364 0
-607 -365 0
-607 -366 0
-607 -370 0
-607 -371 0
-607 -372 0
-607 -373 0
-607 -374 0
-607 -375 0
-608 -331 0
-608 -332 0
-608 -333 0
-608 -334 0
-608 -335 0
-608 -336 0
-608 -337 0
-608 -341 0
-608 -342 0
-608 -343 0
-608 -344 0
-608 -345 0
-608 -346 0
-608 -347 0
-608 -348 0
-608 -349 0
-608 -350 0
-608 -351 0
-608 -352 0
-608 -356 0
-608 -357 0
-608 -358 0
-608 -359 0
-608 -360 0
-608 -361 0
-608 -362 0
-608 -363 0
-608 -364 0
-608 -365 0
-608 -366 0
-608 -367 0
-608 -371 0
-608 -372 0
-608 -373 0
-608 -374 0
-608 -375 0
-609 -331 0
-609 -332 0
-609 -333 0
-609 -334 0
-609 -335 0
-609 -336 0
-609 -337 0
-609 -338 0
-609 -342 0
-609 -343 0
-609 -344 0
-609 -345 0
-609 -346 0
-609 -347 0
-609 -348 0
-609 -349 0
-609 -350 0
-609 -351 0
-609 -352 0
-609 -353 0
-609 -357 0
-609 -358 0
-609 -359 0
-609 -360 0
-609 -361 0
-609 -362 0
-609 -363 0
-609 -364 0
-609 -365 0
-609 -366 0
-609 -367 0
-609 -368 0
-609 -372 0
-609 -373 0
-609 -374 0
-609 -375 0
-610 -331 0
-610 -332 0
-610 -333 0
-610 -334 0
-610 -335 0
-610 -336 0
-610 -337 0
-610 -338 0
-610 -339 0
-610 -343 0
-610 -344 0
-610 -345 0
-610 -346 0
-610 -347 0
-610 -348 0
-610 -349 0
-610 -350 0
-610 -351 0
-610 -352 0
-610 -353 0
-610 -354 0
-610 -358 0
-610 -359 0
-610 -360 0
-610 -361 0
-610 -362 0
-610 -363 0
-610 -364 0
-610 -365 0
-610 -366 0
-610 -367 0
-610 -368 0
-610 -369 0
-610 -373 0
-610 -374 0
-610 -375 0
-611 -331 0
-611 -332 0
-611 -333 0
-611 -334 0
-611 -335 0
-611 -336 0
-611 -337 0
-611 -338 0
-611 -339 0
-611 -340 0
-611 -344 0
-611 -345 0
-611 -346 0
-611 -347 0
-611 -348 0
-611 -349 0
-611 -350 0
-611 -351 0
-611 -352 0
-611 -353 0
-611 -354 0
-611 -355 0
-611 -359 0
-611 -360 0
-611 -361 0
-611 -362 0
-611 -363 0
-611 -364 0
-611 -365 0
-611 -366 0
-611 -367 0
-611 -368 0
-611 -369 0
-611 -370 0
-611 -374 0
-611 -375 0
-612 -331 0
-612 -332 0
-612 -333 0
-612 -334 0
-612 -335 0
-612 -336 0
-612 -337 0
-612 -338 0
-612 -339 0
-612 -340 0
-612 -341 0
-612 -345 0
-612 -346 0
-612 -347 0
-612 -348 0
-612 -349 0
-612 -350 0
-612 -351 0
-612 -352 0
-612 -353 0
-612 -354 0
-612 -355 0
-612 -356 0
-612 -360 0
-612 -361 0
-612 -362 0
-612 -363 0
-612 -364 0
-612 -365 0
-612 -366 0
-612 -367 0
-612 -368 0
-612 -369 0
-612 -370 0
-612 -371 0
-612 -375 0
-613 -331 0
-613 -332 0
-613 -333 0
-613 -334 0
-613 -335 0
-613 -336 0
-613 -337 0
-613 -338 0
-613 -339 0
-613 -340 0
-613 -341 0
-613 -342 0
-613 -346 0
-613 -347 0
-613 -348 0
-613 -349 0
-613 -350 0
-613 -351 0
-613 -352 0
-613 -353 0
-613 -354 0
-613 -355 0
-613 -356 0
-613 -357 0
-613 -361 0
-613 -362 0
-613 -363 0
-613 -364 0
-613 -365 0
-613 -366 0
-613 -367 0
-613 -368 0
-613 -369 0
-613 -370 0
-613 -371 0
-613 -372 0
-376 -391 0
-376 -406 0
-391 -406 0
-377 -392 0
-377 -407 0
-392 -407 0
-378 -393 0
-378 -408 0
-393 -408 0
-379 -394 0
-379 -409 0
-394 -409 0
-380 -395 0
-380 -410 0
-395 -410 0
-381 -396 0
-381 -411 0
-396 -411 0
-382 -397 0
-382 -412 0
-397 -412 0
-383 -398 0
-383 -413 0
-398 -413 0
-384 -399 0
-384 -414 0
-399 -414 0
-385 -400 0
-385 -415 0
-400 -415 0
-386 -401 0
-386 -416 0
-401 -416 0
-387 -402 0
-387 -417 0
-402 -417 0
-388 -403 0
-388 -418 0
-403 -418 0
-389 -404 0
-389 -419 0
-404 -419 0
-390 -405 0
-390 -420 0
-405 -420 0
614 615 616 617 618 619 620 621 622 623 624 625 626 0
-614 -615 0
-614 -616 0
-614 -617 0
-614 -618 0
-614 -619 0
-614 -620 0
-614 -621 0
-614 -622 0
-614 -623 0
-614 -624 0
-614 -625 0
-614 -626 0
-615 -616 0
-615 -617 0
-615 -618 0
-615 -619 0
-615 -620 0
-615 -621 0
-615 -622 0
-615 -623 0
-615 -624 0
-615 -625 0
-615 -626 0
-616 -617 0
-616 -618 0
-616 -619 0
-616 -620 0
-616 -621 0
-616 -622 0
-616 -623 0
-616 -624 0
-616 -625 0
-616 -626 0
-617 -618 0
-617 -619 0
-617 -620 0
-617 -621 0
-617 -622 0
-617 -623 0
-617 -624 0
-617 -625 0
-617 -626 0
-618 -619 0
-618 -620 0
-618 -621 0
-618 -622 0
-618 -623 0
-618 -624 0
-618 -625 0
-618 -626 0
-619 -620 0
-619 -621 0
-619 -622 0
-619 -623 0
-619 -624 0
-619 -625 0
-619 -626 0
-620 -621 0
-620 -622 0
-620 -623 0
-620 -624 0
-620 -625 0
-620 -626 0
-621 -622 0
-621 -623 0
-621 -624 0
-621 -625 0
-621 -626 0
-622 -623 0
-622 -624 0
-622 -625 0
-622 -626 0
-623 -624 0
-623 -625 0
-623 -626 0
-624 -625 0
-624 -626 0
-625 -626 0
-376 614 0
-377 614 615 0
-378 614 615 616 0
-379 615 616 617 0
-380 616 617 618 0
-381 617 618 619 0
-382 618 619 620 0
-383 619 620 621 0
-384 620 621 622 0
-385 621 622 623 0
-386 622 623 624 0
-387 623 624 625 0
-388 624 625 626 0
-389 625 626 0
-390 626 0
-391 614 0
-392 614 615 0
-393 614 615 616 0
-394 615 616 617 0
-395 616 617 618 0
-396 617 618 619 0
-397 618 619 620 0
-398 619 620 621 0
-399 620 621 622 0
-400 621 622 623 0
-401 622 623 624 0
-402 623 624 625 0
-403 624 625 626 0
-404 625 626 0
-405 626 0
-406 614 0
-407 614 615 0
-408 614 615 616 0
-409 615 616 617 0
-410 616 617 618 0
-411 617 618 619 0
-412 618 619 620 0
-413 619 620 621 0
-414 620 621 622 0
-415 621 622 623 0
-416 622 623 624 0
-417 623 624 625 0
-418 624 625 626 0
-419 625 626 0
-420 626 0
-614 -379 0
-614 -380 0
-614 -381 0
-614 -382 0
-614 -383 0
-614 -384 0
-614 -385 0
-614 -386 0
-614 -387 0
-614 -388 0
-614 -389 0
-614 -390 0
-614 -394 0
-614 -395 0
-614 -396 0
-614 -397 0
-614 -398 0
-614 -399 0
-614 -400 0
-614 -401 0
-614 -402 0
-614 -403 0
-614 -404 0
-614 -405 0
-614 -409 0
-614 -410 0
-614 -411 0
-614 -412 0
-614 -413 0
-614 -414 0
-614 -415 0
-614 -416 0
-614 -417 0
-614 -418 0
-614 -419 0
-614 -420 0
-615 -376 0
-615 -380 0
-615 -381 0
-615 -382 0
-615 -383 0
-615 -384 0
-615 -385 0
-615 -386 0
-615 -387 0
-615 -388 0
-615 -389 0
-615 -390 0
-615 -391 0
-615 -395 0
-615 -396 0
-615 -397 0
-615 -398 0
-615 -399 0
-615 -400 0
-615 -401 0
-615 -402 0
-615 -403 0
-615 -404 0
-615 -405 0
-615 -406 0
-615 -410 0
-615 -411 0
-615 -412 0
-615 -413 0
-615 -414 0
-615 -415 0
-615 -416 0
-615 -417 0
-615 -418 0
-615 -419 0
-615 -420 0
-616 -376 0
-616 -377 0
-616 -381 0
-616 -382 0
-616 -383 0
-616 -384 0
-616 -385 0
-616 -386 0
-616 -387 0
-616 -388 0
-616 -389 0
-616 -390 0
-616 -391 0
-616 -392 0
-616 -396 0
-616 -397 0
-616 -398 0
-616 -399 0
-616 -400 0
-616 -401 0
-616 -402 0
-616 -403 0
-616 -404 0
-616 -405 0
-616 -406 0
-616 -407 0
-616 -411 0
-616 -412 0
-616 -413 0
-616 -414 0
-616 -415 0
-616 -416 0
-616 -417 0
-616 -418 0
-616 -419 0
-616 -420 0
-617 -376 0
-617 -377 0
-617 -378 0
-617 -382 0
-617 -383 0
-617 -384 0
-617 -385 0
-617 -386 0
-617 -387 0
-617 -388 0
-617 -389 0
-617 -390 0
-617 -391 0
-617 -392 0
-617 -393 0
-617 -397 0
-617 -398 0
-617 -399 0
-617 -400 0
-617 -401 0
-617 -402 0
-617 -403 0
-617 -404 0
-617 -405 0
-617 -406 0
-617 -407 0
-617 -408 0
-617 -412 0
-617 -413 0
-617 -414 0
-617 -415 0
-617 -416 0
-617 -417 0
-617 -418 0
-617 -419 0
-617 -420 0
-618 -376 0
-618 -377 0
-618 -378 0
-618 -379 0
-618 -383 0
-618 -384 0
-618 -385 0
-618 -386 0
-618 -387 0
-618 -388 0
-618 -389 0
-618 -390 0
-618 -391 0
-618 -392 0
-618 -393 0
-618 -394 0
-618 -398 0
-618 -399 0
-618 -400 0
-618 -401 0
-618 -402 0
-618 -403 0
-618 -404 0
-618 -405 0
-618 -406 0
-618 -407 0
-618 -408 0
-618 -409 0
-618 -413 0
-618 -414 0
-618 -415 0
-618 -416 0
-618 -417 0
-618 -418 0
-618 -419 0
-618 -420 0
-619 -376 0
-619 -377 0
-619 -378 0
-619 -379 0
-619 -380 0
-619 -384 0
-619 -385 0
-619 -386 0
-619 -387 0
-619 -388 0
-619 -389 0
-619 -390 0
-619 -391 0
-619 -392 0
-619 -393 0
-619 -394 0
-619 -395 0
-619 -399 0
-619 -400 0
-619 -401 0
-619 -402 0
-619 -403 0
-619 -404 0
-619 -405 0
-619 -406 0
-619 -407 0
-619 -408 0
-619 -409 0
-619 -410 0
-619 -414 0
-619 -415 0
-619 -416 0
-619 -417 0
-619 -418 0
-619 -419 0
-619 -420 0
-620 -376 0
-620 -377 0
-620 -378 0
-620 -379 0
-620 -380 0
-620 -381 0
-620 -385 0
-620 -386 0
-620 -387 0
-620 -388 0
-620 -389 0
-620 -390 0
-620 -391 0
-620 -392 0
-620 -393 0
-620 -394 0
-620 -395 0
-620 -396 0
-620 -400 0
-620 -401 0
-620 -402 0
-620 -403 0
-620 -404 0
-620 -405 0
-620 -406 0
-620 -407 0
-620 -408 0
-620 -409 0
-620 -410 0
-620 -411 0
-620 -415 0
-620 -416 0
-620 -417 0
-620 -418 0
-620 -419 0
-620 -420 0
-621 -376 0
-621 -377 0
-621 -378 0
-621 -379 0
-621 -380 0
-621 -381 0
-621 -382 0
-621 -386 0
-621 -387 0
-621 -388 0
-621 -389 0
-621 -390 0
-621 -391 0
-621 -392 0
-621 -393 0
-621 -394 0
-621 -395 0
-621 -396 0
-621 -397 0
-621 -401 0
-621 -402 0
-621 -403 0
-621 -404 0
-621 -405 0
-621 -406 0
-621 -407 0
-621 -408 0
-621 -409 0
-621 -410 0
-621 -411 0
-621 -412 0
-621 -416 0
-621 -417 0
-621 -418 0
-621 -419 0
-621 -420 0
-622 -376 0
-622 -377 0
-622 -378 0
-622 -379 0
-622 -380 0
-622 -381 0
-622 -382 0
-622 -383 0
-622 -387 0
-622 -388 0
-622 -389 0
-622 -390 0
-622 -391 0
-622 -392 0
-622 -393 0
-622 -394 0
-622 -395 0
-622 -396 0
-622 -397 0
-622 -398 0
-622 -402 0
-622 -403 0
-622 -404 0
-622 -405 0
-622 -406 0
-622 -407 0
-622 -408 0
-622 -409 0
-622 -410 0
-622 -411 0
-622 -412 0
-622 -413 0
-622 -417 0
-622 -418 0
-622 -419 0
-622 -420 0
-623 -376 0
-623 -377 0
-623 -378 0
-623 -379 0
-623 -380 0
-623 -381 0
-623 -382 0
-623 -383 0
-623 -384 0
-623 -388 0
-623 -389 0
-623 -390 0
-623 -391 0
-623 -392 0
-623 -393 0
-623 -394 0
-623 -395 0
-623 -396 0
-623 -397 0
-623 -398 0
-623 -399 0
-623 -403 0
-623 -404 0
-623 -405 0
-623 -406 0
-623 -407 0
-623 -408 0
-623 -409 0
-623 -410 0
-623 -411 0
-623 -412 0
-623 -413 0
-623 -414 0
-623 -418 0
-623 -419 0
-623 -420 0
-624 -376 0
-624 -377 0
-624 -378 0
-624 -379 0
-624 -380 0
-624 -381 0
-624 -382 0
-624 -383 0
-624 -384 0
-624 -385 0
-624 -389 0
-624 -390 0
-624 -391 0
-624 -392 0
-624 -393 0
-624 -394 0
-624 -395 0
-624 -396 0
-624 -397 0
-624 -398 0
-624 -399 0
-624 -400 0
-624 -404 0
-624 -405 0
-624 -406 0
-624 -407 0
-624 -408 0
-624 -409 0
-624 -410 0
-624 -411 0
-624 -412 0
-624 -413 0
-624 -414 0
-624 -415 0
-624 -419 0
-624 -420 0
-625 -376 0
-625 -377 0
-625 -378 0
-625 -379 0
-625 -380 0
-625 -381 0
-625 -382 0
-625 -383 0
-625 -384 0
-625 -385 0
-625 -386 0
-625 -390 0
-625 -391 0
-625 -392 0
-625 -393 0
-625 -394 0
-625 -395 0
-625 -396 0
-625 -397 0
-625 -398 0
-625 -399 0
-625 -400 0
-625 -401 0
-625 -405 0
-625 -406 0
-625 -407 0
-625 -408 0
-625 -409 0
-625 -410 0
-625 -411 0
-625 -412 0
-625 -413 0
-625 -414 0
-625 -415 0
-625 -416 0
-625 -420 0
-626 -376 0
-626 -377 0
-626 -378 0
-626 -379 0
-626 -380 0
-626 -381 0
-626 -382 0
-626 -383 0
-626 -384 0
-626 -385 0
-626 -386 0
-626 -387 0
-626 -391 0
-626 -392 0
-626 -393 0
-626 -394 0
-626 -395 0
-626 -396 0
-626 -397 0
-626 -398 0
-626 -399 0
-626 -400 0
-626 -401 0
-626 -402 0
-626 -406 0
-626 -407 0
-626 -408 0
-626 -409 0
-626 -410 0
-626 -411 0
-626 -412 0
-626 -413 0
-626 -414 0
-626 -415 0
-626 -416 0
-626 -417 0
-421 -436 0
-421 -451 0
-436 -451 0
-422 -437 0
-422 -452 0
-437 -452 0
-423 -438 0
-423 -453 0
-438 -453 0
-424 -439 0
-424 -454 0
-439 -454 0
-425 -440 0
-425 -455 0
-440 -455 0
-426 -441 0
-426 -456 0
-441 -456 0
-427 -442 0
-427 -457 0
-442 -457 0
-428 -443 0
-428 -458 0
-443 -458 0
-429 -444 0
-429 -459 0
-444 -459 0
-430 -445 0
-430 -460 0
-445 -460 0
-431 -446 0
-431 -461 0
-446 -461 0
-432 -447 0
-432 -462 0
-447 -462 0
-433 -448 0
-433 -463 0
-448 -463 0
-434 -449 0
-434 -464 0
-449 -464 0
-435 -450 0
-435 -465 0
-450 -465 0
627 628 629 630 631 632 633 634 635 636 637 638 639 0
-627 -628 0
-627 -629 0
-627 -630 0
-627 -631 0
-627 -632 0
-627 -633 0
-627 -634 0
-627 -635 0
-627 -636 0
-627 -637 0
-627 -638 0
-627 -639 0
-628 -629 0
-628 -630 0
-628 -631 0
-628 -632 0
-628 -633 0
-628 -634 0
-628 -635 0
-628 -636 0
-628 -637 0
-628 -638 0
-628 -639 0
-629 -630 0
-629 -631 0
-629 -632 0
-629 -633 0
-629 -634 0
-629 -635 0
-629 -636 0
-629 -637 0
-629 -638 0
-629 -639 0
-630 -631 0
-630 -632 0
-630 -633 0
-630 -634 0
-630 -635 0
-630 -636 0
-630 -637 0
-630 -638 0
-630 -639 0
-631 -632 0
-631 -633 0
-631 -634 0
-631 -635 0
-631 -636 0
-631 -637 0
-631 -638 0
-631 -639 0
-632 -633 0
-632 -634 0
-632 -635 0
-632 -636 0
-632 -637 0
-632 -638 0
-632 -639 0
-633 -634 0
-633 -635 0
-633 -636 0
-633 -637 0
-633 -638 0
-633 -639 0
-634 -635 0
-634 -636 0
-634 -637 0
-634 -638 0
-634 -639 0
-635 -636 0
-635 -637 0
-635 -638 0
-635 -639 0
-636 -637 0
-636 -638 0
-636 -639 0
-637 -638 0
-637 -639 0
-638 -639 0
-421 627 0
-422 627 628 0
-423 627 628 629 0
-424 628 629 630 0
-425 629 630 631 0
-426 630 631 632 0
-427 631 632 633 0
-428 632 633 634 0
-429 633 634 635 0
-430 634 635 636 0
-431 635 636 637 0
-432 636 637 638 0
-433 637 638 639 0
-434 638 639 0
-435 639 0
-436 627 0
-437 627 628 0
-438 627 628 629 0
-439 628 629 630 0
-440 629 630 631 0
-441 630 631 632 0
-442 631 632 633 0
-443 632 633 634 0
-444 633 634 635 0
-445 634 635 636 0
-446 635 636 637 0
-447 636 637 638 0
-448 637 638 639 0
-449 638 639 0
-450 639 0
-451 627 0
-452 627 628 0
-453 627 628 629 0
-454 628 629 630 0
-455 629 630 631 0
-456 630 631 632 0
-457 631 632 633 0
-458 632 633 634 0
-459 633 634 635 0
-460 634 635 636 0
-461 635 636 637 0
-462 636 637 638 0
-463 637 638 639 0
-464 638 639 0
-465 639 0
-627 -424 0
-627 -425 0
-627 -426 0
-627 -427 0
-627 -428 0
-627 -429 0
-627 -430 0
-627 -431 0
-627 -432 0
-627 -433 0
-627 -434 0
-627 -435 0
-627 -439 0
-627 -440 0
-627 -441 0
-627 -442 0
-627 -443 0
-627 -444 0
-627 -445 0
-627 -446 0
-627 -447 0
-627 -448 0
-627 -449 0
-627 -450 0
-627 -454 0
-627 -455 0
-627 -456 0
-627 -457 0
-627 -458 0
-627 -459 0
-627 -460 0
-627 -461 0
-627 -462 0
-627 -463 0
-627 -464 0
-627 -465 0
-628 -421 0
-628 -425 0
-628 -426 0
-628 -427 0
-628 -428 0
-628 -429 0
-628 -430 0
-628 -431 0
-628 -432 0
-628 -433 0
-628 -434 0
-628 -435 0
-628 -436 0
-628 -440 0
-628 -441 0
-628 -442 0
-628 -443 0
-628 -444 0
-628 -445 0
-628 -446 0
-628 -447 0
-628 -448 0
-628 -449 0
-628 -450 0
-628 -451 0
-628 -455 0
-628 -456 0
-628 -457 0
-628 -458 0
-628 -459 0
-628 -460 0
-628 -461 0
-628 -462 0
-628 -463 0
-628 -464 0
-628 -465 0
-629 -421 0
-629 -422 0
-629 -426 0
-629 -427 0
-629 -428 0
-629 -429 0
-629 -430 0
-629 -431 0
-629 -432 0
-629 -433 0
-629 -434 0
-629 -435 0
-629 -436 0
-629 -437 0
-629 -441 0
-629 -442 0
-629 -443 0
-629 -444 0
-629 -445 0
-629 -446 0
-629 -447 0
-629 -448 0
-629 -449 0
-629 -450 0
-629 -451 0
-629 -452 0
-629 -456 0
-629 -457 0
-629 -458 0
-629 -459 0
-629 -460 0
-629 -461 0
-629 -462 0
-629 -463 0
-629 -464 0
-629 -465 0
-630 -421 0
-630 -422 0
-630 -423 0
-630 -427 0
-630 -428 0
-630 -429 0
-630 -430 0
-630 -431 0
-630 -432 0
-630 -433 0
-630 -434 0
-630 -435 0
-630 -436 0
-630 -437 0
-630 -438 0
-630 -442 0
-630 -443 0
-630 -444 0
-630 -445 0
-630 -446 0
-630 -447 0
-630 -448 0
-630 -449 0
-630 -450 0
-630 -451 0
-630 -452 0
-630 -453 0
-630 -457 0
-630 -458 0
-630 -459 0
-630 -460 0
-630 -461 0
-630 -462 0
-630 -463 0
-630 -464 0
-630 -465 0
-631 -421 0
-631 -422 0
-631 -423 0
-631 -424 0
-631 -428 0
-631 -429 0
-631 -430 0
-631 -431 0
-631 -432 0
-631 -433 0
-631 -434 0
-631 -435 0
-631 -436 0
-631 -437 0
-631 -438 0
-631 -439 0
-631 -443 0
-631 -444 0
-631 -445 0
-631 -446 0
-631 -447 0
-631 -448 0
-631 -449 0
-631 -450 0
-631 -451 0
-631 -452 0
-631 -453 0
-631 -454 0
-631 -458 0
-631 -459 0
-631 -460 0
-631 -461 0
-631 -462 0
-631 -463 0
-631 -464 0
-631 -465 0
-632 -421 0
-632 -422 0
-632 -423 0
-632 -424 0
-632 -425 0
-632 -429 0
-632 -430 0
-632 -431 0
-632 -432 0
-632 -433 0
-632 -434 0
-632 -435 0
-632 -436 0
-632 -437 0
-632 -438 0
-632 -439 0
-632 -440 0
-632 -444 0
-632 -445 0
-632 -446 0
-632 -447 0
-632 -448 0
-632 -449 0
-632 -450 0
-632 -451 0
-632 -452 0
-632 -453 0
-632 -454 0
-632 -455 0
-632 -459 0
-632 -460 0
-632 -461 0
-632 -462 0
-632 -463 0
-632 -464 0
-632 -465 0
-633 -421 0
-633 -422 0
-633 -423 0
-633 -424 0
-633 -425 0
-633 -426 0
-633 -430 0
-633 -431 0
-633 -432 0
-633 -433 0
-633 -434 0
-633 -435 0
-633 -436 0
-633 -437 0
-633 -438 0
-633 -439 0
-633 -440 0
-633 -441 0
-633 -445 0
-633 -446 0
-633 -447 0
-633 -448 0
-633 -449 0
-633 -450 0
-633 -451 0
-633 -452 0
-633 -453 0
-633 -454 0
-633 -455 0
-633 -456 0
-633 -460 0
-633 -461 0
-633 -462 0
-633 -463 0
-633 -464 0
-633 -465 0
-634 -421 0
-634 -422 0
-634 -423 0
-634 -424 0
-634 -425 0
-634 -426 0
-634 -427 0
-634 -431 0
-634 -432 0
-634 -433 0
-634 -434 0
-634 -435 0
-634 -436 0
-634 -437 0
-634 -438 0
-634 -439 0
-634 -440 0
-634 -441 0
-634 -442 0
-634 -446 0
-634 -447 0
-634 -448 0
-634 -449 0
-634 -450 0
-634 -451 0
-634 -452 0
-634 -453 0
-634 -454 0
-634 -455 0
-634 -456 0
-634 -457 0
-634 -461 0
-634 -462 0
-634 -463 0
-634 -464 0
-634 -465 0
-635 -421 0
-635 -422 0
-635 -423 0
-635 -424 0
-635 -425 0
-635 -426 0
-635 -427 0
-635 -428 0
-635 -432 0
-635 -433 0
-635 -434 0
-635 -435 0
-635 -436 0
-635 -437 0
-635 -438 0
-635 -439 0
-635 -440 0
-635 -441 0
-635 -442 0
-635 -443 0
-635 -447 0
-635 -448 0
-635 -449 0
-635 -450 0
-635 -451 0
-635 -452 0
-635 -453 0
-635 -454 0
-635 -455 0
-635 -456 0
-635 -457 0
-635 -458 0
-635 -462 0
-635 -463 0
-635 -464 0
-635 -465 0
-636 -421 0
-636 -422 0
-636 -423 0
-636 -424 0
-636 -425 0
-636 -426 0
-636 -427 0
-636 -428 0
-636 -429 0
-636 -433 0
-636 -434 0
-636 -435 0
-636 -436 0
-636 -437 0
-636 -438 0
-636 -439 0
-636 -440 0
-636 -441 0
-636 -442 0
-636 -443 0
-636 -444 0
-636 -448 0
-636 -449 0
-636 -450 0
-636 -451 0
-636 -452 0
-636 -453 0
-636 -454 0
-636 -455 0
-636 -456 0
-636 -457 0
-636 -458 0
-636 -459 0
-636 -463 0
-636 -464 0
-636 -465 0
-637 -421 0
-637 -422 0
-637 -423 0
-637 -424 0
-637 -425 0
-637 -426 0
-637 -427 0
-637 -428 0
-637 -429 0
-637 -430 0
-637 -434 0
-637 -435 0
-637 -436 0
-637 -437 0
-637 -438 0
-637 -439 0
-637 -440 0
-637 -441 0
-637 -442 0
-637 -443 0
-637 -444 0
-637 -445 0
-637 -449 0
-637 -450 0
-637 -451 0
-637 -452 0
-637 -453 0
-637 -454 0
-637 -455 0
-637 -456 0
-637 -457 0
-637 -458 0
-637 -459 0
-637 -460 0
-637 -464 0
-637 -465 0
-638 -421 0
-638 -422 0
-638 -423 0
-638 -424 0
-638 -425 0
-638 -426 0
-638 -427 0
-638 -428 0
-638 -429 0
-638 -430 0
-638 -431 0
-638 -435 0
-638 -436 0
-638 -437 0
-638 -438 0
-638 -439 0
-638 -440 0
-638 -441 0
-638 -442 0
-638 -443 0
-638 -444 0
-638 -445 0
-638 -446 0
-638 -450 0
-638 -451 0
-638 -452 0
-638 -453 0
-638 -454 0
-638 -455 0
-638 -456 0
-638 -457 0
-638 -458 0
-638 -459 0
-638 -460 0
-638 -461 0
-638 -465 0
-639 -421 0
-639 -422 0
-639 -423 0
-639 -424 0
-639 -425 0
-639 -426 0
-639 -427 0
-639 -428 0
-639 -429 0
-639 -430 0
-639 -431 0
-639 -432 0
-639 -436 0
-639 -437 0
-639 -438 0
-639 -439 0
-639 -440 0
-639 -441 0
-639 -442 0
-639 -443 0
-639 -444 0
-639 -445 0
-639 -446 0
-639 -447 0
-639 -451 0
-639 -452 0
-639 -453 0
-639 -454 0
-639 -455 0
-639 -456 0
-639 -457 0
-639 -458 0
-639 -459 0
-639 -460 0
-639 -461 0
-639 -462 0
-466 -481 0
-466 -496 0
-481 -496 0
-467 -482 0
-467 -497 0
-482 -497 0
-468 -483 0
-468 -498 0
-483 -498 0
-469 -484 0
-469 -499 0
-484 -499 0
-470 -485 0
-470 -500 0
-485 -500 0
-471 -486 0
-471 -501 0
-486 -501 0
-472 -487 0
-472 -502 0
-487 -502 0
-473 -488 0
-473 -503 0
-488 -503 0
-474 -489 0
-474 -504 0
-489 -504 0
-475 -490 0
-475 -505 0
-490 -505 0
-476 -491 0
-476 -506 0
-491 -506 0
-477 -492 0
-477 -507 0
-492 -507 0
-478 -493 0
-478 -508 0
-493 -508 0
-479 -494 0
-479 -509 0
-494 -509 0
-480 -495 0
-480 -510 0
-495 -510 0
640 641 642 643 644 645 646 647 648 649 650 651 652 0
-640 -641 0
-640 -642 0
-640 -643 0
-640 -644 0
-640 -645 0
-640 -646 0
-640 -647 0
-640 -648 0
-640 -649 0
-640 -650 0
-640 -651 0
-640 -652 0
-641 -642 0
-641 -643 0
-641 -644 0
-641 -645 0
-641 -646 0
-641 -647 0
-641 -648 0
-641 -649 0
-641 -650 0
-641 -651 0
-641 -652 0
-642 -643 0
-642 -644 0
-642 -645 0
-642 -646 0
-642 -647 0
-642 -648 0
-642 -649 0
-642 -650 0
-642 -651 0
-642 -652 0
-643 -644 0
-643 -645 0
-643 -646 0
-643 -647 0
-643 -648 0
-643 -649 0
-643 -650 0
-643 -651 0
-643 -652 0
-644 -645 0
-644 -646 0
-644 -647 0
-644 -648 0
-644 -649 0
-644 -650 0
-644 -651 0
-644 -652 0
-645 -646 0
-645 -647 0
-645 -648 0
-645 -649 0
-645 -650 0
-645 -651 0
-645 -652 0
-646 -647 0
-646 -648 0
-646 -649 0
-646 -650 0
-646 -651 0
-646 -652 0
-647 -648 0
-647 -649 0
-647 -650 0
-647 -651 0
-647 -652 0
-648 -649 0
-648 -650 0
-648 -651 0
-648 -652 0
-649 -650 0
-649 -651 0
-649 -652 0
-650 -651 0
-650 -652 0
-651 -652 0
-466 640 0
-467 640 641 0
-468 640 641 642 0
-469 641 642 643 0
-470 642 643 644 0
-471 643 644 645 0
-472 644 645 646 0
-473 645 646 647 0
-474 646 647 648 0
-475 647 648 649 0
-476 648 649 650 0
-477 649 650 651 0
-478 650 651 652 0
-479 651 652 0
-480 652 0
-481 640 0
-482 640 641 0
-483 640 641 642 0
-484 641 642 643 0
-485 642 643 644 0
-486 643 644 645 0
-487 644 645 646 0
-488 645 646 647 0
-489 646 647 648 0
-490 647 648 649 0
-491 648 649 650 0
-492 649 650 651 0
-493 650 651 652 0
-494 651 652 0
-495 652 0
-496 640 0
-497 640 641 0
-498 640 641 642 0
-499 641 642 643 0
-500 642 643 644 0
-501 643 644 645 0
-502 644 645 646 0
-503 645 646 647 0
-504 646 647 648 0
-505 647 648 649 0
-506 648 649 650 0
-507 649 650 651 0
-508 650 651 652 0
-509 651 652 0
-510 652 0
-640 -469 0
-640 -470 0
-640 -471 0
-640 -472 0
-640 -473 0
-640 -474 0
-640 -475 0
-640 -476 0
-640 -477 0
-640 -478 0
-640 -479 0
-640 -480 0
-640 -484 0
-640 -485 0
-640 -486 0
-640 -487 0
-640 -488 0
-640 -489 0
-640 -490 0
-640 -491 0
-640 -492 0
-640 -493 0
-640 -494 0
-640 -495 0
-640 -499 0
-640 -500 0
-640 -501 0
-640 -502 0
-640 -503 0
-640 -504 0
-640 -505 0
-640 -506 0
-640 -507 0
-640 -508 0
-640 -509 0
-640 -510 0
-641 -466 0
-641 -470 0
-641 -471 0
-641 -472 0
-641 -473 0
-641 -474 0
-641 -475 0
-641 -476 0
-641 -477 0
-641 -478 0
-641 -479 0
-641 -480 0
-641 -481 0
-641 -485 0
-641 -486 0
-641 -487 0
-641 -488 0
-641 -489 0
-641 -490 0
-641 -491 0
-641 -492 0
-641 -493 0
-641 -494 0
-641 -495 0
-641 -496 0
-641 -500 0
-641 -501 0
-641 -502 0
-641 -503 0
-641 -504 0
-641 -505 0
-641 -506 0
-641 -507 0
-641 -508 0
-641 -509 0
-641 -510 0
-642 -466 0
-642 -467 0
-642 -471 0
-642 -472 0
-642 -473 0
-642 -474 0
-642 -475 0
-642 -476 0
-642 -477 0
-642 -478 0
-642 -479 0
-642 -480 0
-642 -481 0
-642 -482 0
-642 -486 0
-642 -487 0
-642 -488 0
-642 -489 0
-642 -490 0
-642 -491 0
-642 -492 0
-642 -493 0
-642 -494 0
-642 -495 0
-642 -496 0
-642 -497 0
-642 -501 0
-642 -502 0
-642 -503 0
-642 -504 0
-642 -505 0
-642 -506 0
-642 -507 0
-642 -508 0
-642 -509 0
-642 -510 0
-643 -466 0
-643 -467 0
-643 -468 0
-643 -472 0
-643 -473 0
-643 -474 0
-643 -475 0
-643 -476 0
-643 -477 0
-643 -478 0
-643 -479 0
-643 -480 0
-643 -481 0
-643 -482 0
-643 -483 0
-643 -487 0
-643 -488 0
-643 -489 0
-643 -490 0
-643 -491 0
-643 -492 0
-643 -493 0
-643 -494 0
-643 -495 0
-643 -496 0
-643 -497 0
-643 -498 0
-643 -502 0
-643 -503 0
-643 -504 0
-643 -505 0
-643 -506 0
-643 -507 0
-643 -508 0
-643 -509 0
-643 -510 0
-644 -466 0
-644 -467 0
-644 -468 0
-644 -469 0
-644 -473 0
-644 -474 0
-644 -475 0
-644 -476 0
-644 -477 0
-644 -478 0
-644 -479 0
-644 -480 0
-644 -481 0
-644 -482 0
-644 -483 0
-644 -484 0
-644 -488 0
-644 -489 0
-644 -490 0
-644 -491 0
-644 -492 0
-644 -493 0
-644 -494 0
-644 -495 0
-644 -496 0
-644 -497 0
-644 -498 0
-644 -499 0
-644 -503 0
-644 -504 0
-644 -505 0
-644 -506 0
-644 -507 0
-644 -508 0
-644 -509 0
-644 -510 0
-645 -466 0
-645 -467 0
-645 -468 0
-645 -469 0
-645 -470 0
-645 -474 0
-645 -475 0
-645 -476 0
-645 -477 0
-645 -478 0
-645 -479 0
-645 -480 0
-645 -481 0
-645 -482 0
-645 -483 0
-645 -484 0
-645 -485 0
-645 -489 0
-645 -490 0
-645 -491 0
-645 -492 0
-645 -493 0
-645 -494 0
-645 -495 0
-645 -496 0
-645 -497 0
-645 -498 0
-645 -499 0
-645 -500 0
-645 -504 0
-645 -505 0
-645 -506 0
-645 -507 0
-645 -508 0
-645 -509 0
-645 -510 0
-646 -466 0
-646 -467 0
-646 -468 0
-646 -469 0
-646 -470 0
-646 -471 0
-646 -475 0
-646 -476 0
-646 -477 0
-646 -478 0
-646 -479 0
-646 -480 0
-646 -481 0
-646 -482 0
-646 -483 0
-646 -484 0
-646 -485 0
-646 -486 0
-646 -490 0
-646 -491 0
-646 -492 0
-646 -493 0
-646 -494 0
-646 -495 0
-646 -496 0
-646 -497 0
-646 -498 0
-646 -499 0
-646 -500 0
-646 -501 0
-646 -505 0
-646 -506 0
-646 -507 0
-646 -508 0
-646 -509 0
-646 -510 0
-647 -466 0
-647 -467 0
-647 -468 0
-647 -469 0
-647 -470 0
-647 -471 0
-647 -472 0
-647 -476 0
-647 -477 0
-647 -478 0
-647 -479 0
-647 -480 0
-647 -481 0
-647 -482 0
-647 -483 0
-647 -484 0
-647 -485 0
-647 -486 0
-647 -487 0
-647 -491 0
-647 -492 0
-647 -493 0
-647 -494 0
-647 -495 0
-647 -496 0
-647 -497 0
-647 -498 0
-647 -499 0
-647 -500 0
-647 -501 0
-647 -502 0
-647 -506 0
-647 -507 0
-647 -508 0
-647 -509 0
-647 -510 0
-648 -466 0
-648 -467 0
-648 -468 0
-648 -469 0
-648 -470 0
-648 -471 0
-648 -472 0
-648 -473 0
-648 -477 0
-648 -478 0
-648 -479 0
-648 -480 0
-648 -481 0
-648 -482 0
-648 -483 0
-648 -484 0
-648 -485 0
-648 -486 0
-648 -487 0
-648 -488 0
-648 -492 0
-648 -493 0
-648 -494 0
-648 -495 0
-648 -496 0
-648 -497 0
-648 -498 0
-648 -499 0
-648 -500 0
-648 -501 0
-648 -502 0
-648 -503 0
-648 -507 0
-648 -508 0
-648 -509 0
-648 -510 0
-649 -466 0
-649 -467 0
-649 -468 0
-649 -469 0
-649 -470 0
-649 -471 0
-649 -472 0
-649 -473 0
-649 -474 0
-649 -478 0
-649 -479 0
-649 -480 0
-649 -481 0
-649 -482 0
-649 -483 0
-649 -484 0
-649 -485 0
-649 -486 0
-649 -487 0
-649 -488 0
-649 -489 0
-649 -493 0
-649 -494 0
-649 -495 0
-649 -496 0
-649 -497 0
-649 -498 0
-649 -499 0
-649 -500 0
-649 -501 0
-649 -502 0
-649 -503 0
-649 -504 0
-649 -508 0
-649 -509 0
-649 -510 0
-650 -466 0
-650 -467 0
-650 -468 0
-650 -469 0
-650 -470 0
-650 -471 0
-650 -472 0
-650 -473 0
-650 -474 0
-650 -475 0
-650 -479 0
-650 -480 0
-650 -481 0
-650 -482 0
-650 -483 0
-650 -484 0
-650 -485 0
-650 -486 0
-650 -487 0
-650 -488 0
-650 -489 0
-650 -490 0
-650 -494 0
-650 -495 0
-650 -496 0
-650 -497 0
-650 -498 0
-650 -499 0
-650 -500 0
-650 -501 0
-650 -502 0
-650 -503 0
-650 -504 0
-650 -505 0
-650 -509 0
-650 -510 0
-651 -466 0
-651 -467 0
-651 -468 0
-651 -469 0
-651 -470 0
-651 -471 0
-651 -472 0
-651 -473 0
-651 -474 0
-651 -475 0
-651 -476 0
-651 -480 0
-651 -481 0
-651 -482 0
-651 -483 0
-651 -484 0
-651 -485 0
-651 -486 0
-651 -487 0
-651 -488 0
-651 -489 0
-651 -490 0
-651 -491 0
-651 -495 0
-651 -496 0
-651 -497 0
-651 -498 0
-651 -499 0
-651 -500 0
-651 -501 0
-651 -502 0
-651 -503 0
-651 -504 0
-651 -505 0
-651 -506 0
-651 -510 0
-652 -466 0
-652 -467 0
-652 -468 0
-652 -469 0
-652 -470 0
-652 -471 0
-652 -472 0
-652 -473 0
-652 -474 0
-652 -475 0
-652 -476 0
-652 -477 0
-652 -481 0
-652 -482 0
-652 -483 0
-652 -484 0
-652 -485 0
-652 -486 0
-652 -487 0
-652 -488 0
-652 -489 0
-652 -490 0
-652 -491 0
-652 -492 0
-652 -496 0
-652 -497 0
-652 -498 0
-652 -499 0
-652 -500 0
-652 -501 0
-652 -502 0
-652 -503 0
-652 -504 0
-652 -505 0
-652 -506 0
-652 -507 0
-46 -91 0
-46 -136 0
-46 -181 0
-46 -226 0
-46 -271 0
-46 -316 0
-46 -361 0
-46 -406 0
-46 -451 0
-46 -496 0
-91 -136 0
-91 -181 0
-91 -226 0
-91 -271 0
-91 -316 0
-91 -361 0
-91 -406 0
-91 -451 0
-91 -496 0
-136 -181 0
-136 -226 0
-136 -271 0
-136 -316 0
-136 -361 0
-136 -406 0
-136 -451 0
-136 -496 0
-181 -226 0
-181 -271 0
-181 -316 0
-181 -361 0
-181 -406 0
-181 -451 0
-181 -496 0
-226 -271 0
-226 -316 0
-226 -361 0
-226 -406 0
-226 -451 0
-226 -496 0
-271 -316 0
-271 -361 0
-271 -406 0
-271 -451 0
-271 -496 0
-316 -361 0
-316 -406 0
-316 -451 0
-316 -496 0
-361 -406 0
-361 -451 0
-361 -496 0
-406 -451 0
-406 -496 0
-451 -496 0
-47 -92 0
-47 -137 0
-47 -182 0
-47 -227 0
-47 -272 0
-47 -317 0
-47 -362 0
-47 -407 0
-47 -452 0
-47 -497 0
-92 -137 0
-92 -182 0
-92 -227 0
-92 -272 0
-92 -317 0
-92 -362 0
-92 -407 0
-92 -452 0
-92 -497 0
-137 -182 0
-137 -227 0
-137 -272 0
-137 -317 0
-137 -362 0
-137 -407 0
-137 -452 0
-137 -497 0
-182 -227 0
-182 -272 0
-182 -317 0
-182 -362 0
-182 -407 0
-182 -452 0
-182 -497 0
-227 -272 0
-227 -317 0
-227 -362 0
-227 -407 0
-227 -452 0
-227 -497 0
-272 -317 0
-272 -362 0
-272 -407 0
-272 -452 0
-272 -497 0
-317 -362 0
-317 -407 0
-317 -452 0
-317 -497 0
-362 -407 0
-362 -452 0
-362 -497 0
-407 -452 0
-407 -497 0
-452 -497 0
-48 -93 0
-48 -138 0
-48 -183 0
-48 -228 0
-48 -273 0
-48 -318 0
-48 -363 0
-48 -408 0
-48 -453 0
-48 -498 0
-93 -138 0
-93 -183 0
-93 -228 0
-93 -273 0
-93 -318 0
-93 -363 0
-93 -408 0
-93 -453 0
-93 -498 0
-138 -183 0
-138 -228 0
-138 -273 0
-138 -318 0
-138 -363 0
-138 -408 0
-138 -453 0
-138 -498 0
-183 -228 0
-183 -273 0
-183 -318 0
-183 -363 0
-183 -408 0
-183 -453 0
-183 -498 0
-228 -273 0
-228 -318 0
-228 -363 0
-228 -408 0
-228 -453 0
-228 -498 0
-273 -318 0
-273 -363 0
-273 -408 0
-273 -453 0
-273 -498 0
-318 -363 0
-318 -408 0
-318 -453 0
-318 -498 0
-363 -408 0
-363 -453 0
-363 -498 0
-408 -453 0
-408 -498 0
-453 -498 0
-49 -94 0
-49 -139 0
-49 -184 0
-49 -229 0
-49 -274 0
-49 -319 0
-49 -364 0
-49 -409 0
-49 -454 0
-49 -499 0
-94 -139 0
-94 -184 0
-94 -229 0
-94 -274 0
-94 -319 0
-94 -364 0
-94 -409 0
-94 -454 0
-94 -499 0
-139 -184 0
-139 -229 0
-139 -274 0
-139 -319 0
-139 -364 0
-139 -409 0
-139 -454 0
-139 -499 0
-184 -229 0
-184 -274 0
-184 -319 0
-184 -364 0
-184 -409 0
-184 -454 0
-184 -499 0
-229 -274 0
-229 -319 0
-229 -364 0
-229 -409 0
-229 -454 0
-229 -499 0
-274 -319 0
-274 -364 0
-274 -409 0
-274 -454 0
-274 -499 0
-319 -364 0
-319 -409 0
-319 -454 0
-319 -499 0
-364 -409 0
-364 -454 0
-364 -499 0
-409 -454 0
-409 -499 0
-454 -499 0
-50 -95 0
-50 -140 0
-50 -185 0
-50 -230 0
-50 -275 0
-50 -320 0
-50 -365 0
-50 -410 0
-50 -455 0
-50 -500 0
-95 -140 0
-95 -185 0
-95 -230 0
-95 -275 0
-95 -320 0
-95 -365 0
-95 -410 0
-95 -455 0
-95 -500 0
-140 -185 0
-140 -230 0
-140 -275 0
-140 -320 0
-140 -365 0
-140 -410 0
-140 -455 0
-140 -500 0
-185 -230 0
-185 -275 0
-185 -320 0
-185 -365 0
-185 -410 0
-185 -455 0
-185 -500 0
-230 -275 0
-230 -320 0
-230 -365 0
-230 -410 0
-230 -455 0
-230 -500 0
-275 -320 0
-275 -365 0
-275 -410 0
-275 -455 0
-275 -500 0
-320 -365 0
-320 -410 0
-320 -455 0
-320 -500 0
-365 -410 0
-365 -455 0
-365 -500 0
-410 -455 0
-410 -500 0
-455 -500 0
-51 -96 0
-51 -141 0
-51 -186 0
-51 -231 0
-51 -276 0
-51 -321 0
-51 -366 0
-51 -411 0
-51 -456 0
-51 -501 0
-96 -141 0
-96 -186 0
-96 -231 0
-96 -276 0
-96 -321 0
-96 -366 0
-96 -411 0
-96 -456 0
-96 -501 0
-141 -186 0
-141 -231 0
-141 -276 0
-141 -321 0
-141 -366 0
-141 -411 0
-141 -456 0
-141 -501 0
-186 -231 0
-186 -276 0
-186 -321 0
-186 -366 0
-186 -411 0
-186 -456 0
-186 -501 0
-231 -276 0
-231 -321 0
-231 -366 0
-231 -411 0
-231 -456 0
-231 -501 0
-276 -321 0
-276 -366 0
-276 -411 0
-276 -456 0
-276 -501 0
-321 -366 0
-321 -411 0
-321 -456 0
-321 -501 0
-366 -411 0
-366 -456 0
-366 -501 0
-411 -456 0
-411 -501 0
-456 -501 0
-52 -97 0
-52 -142 0
-52 -187 0
-52 -232 0
-52 -277 0
-52 -322 0
-52 -367 0
-52 -412 0
-52 -457 0
-52 -502 0
-97 -142 0
-97 -187 0
-97 -232 0
-97 -277 0
-97 -322 0
-97 -367 0
-97 -412 0
-97 -457 0
-97 -502 0
-142 -187 0
-142 -232 0
-142 -277 0
-142 -322 0
-142 -367 0
-142 -412 0
-142 -457 0
-142 -502 0
-187 -232 0
-187 -277 0
-187 -322 0
-187 -367 0
-187 -412 0
-187 -457 0
-187 -502 0
-232 -277 0
-232 -322 0
-232 -367 0
-232 -412 0
-232 -457 0
-232 -502 0
-277 -322 0
-277 -367 0
-277 -412 0
-277 -457 0
-277 -502 0
-322 -367 0
-322 -412 0
-322 -457 0
-322 -502 0
-367 -412 0
-367 -457 0
-367 -502 0
-412 -457 0
-412 -502 0
-457 -502 0
-53 -98 0
-53 -143 0
-53 -188 0
-53 -233 0
-53 -278 0
-53 -323 0
-53 -368 0
-53 -413 0
-53 -458 0
-53 -503 0
-98 -143 0
-98 -188 0
-98 -233 0
-98 -278 0
-98 -323 0
-98 -368 0
-98 -413 0
-98 -458 0
-98 -503 0
-143 -188 0
-143 -233 0
-143 -278 0
-143 -323 0
-143 -368 0
-143 -413 0
-143 -458 0
-143 -503 0
-188 -233 0
-188 -278 0
-188 -323 0
-188 -368 0
-188 -413 0
-188 -458 0
-188 -503 0
-233 -278 0
-233 -323 0
-233 -368 0
-233 -413 0
-233 -458 0
-233 -503 0
-278 -323 0
-278 -368 0
-278 -413 0
-278 -458 0
-278 -503 0
-323 -368 0
-323 -413 0
-323 -458 0
-323 -503 0
-368 -413 0
-368 -458 0
-368 -503 0
-413 -458 0
-413 -503 0
-458 -503 0
-54 -99 0
-54 -144 0
-54 -189 0
-54 -234 0
-54 -279 0
-54 -324 0
-54 -369 0
-54 -414 0
-54 -459 0
-54 -504 0
-99 -144 0
-99 -189 0
-99 -234 0
-99 -279 0
-99 -324 0
-99 -369 0
-99 -414 0
-99 -459 0
-99 -504 0
-144 -189 0
-144 -234 0
-144 -279 0
-144 -324 0
-144 -369 0
-144 -414 0
-144 -459 0
-144 -504 0
-189 -234 0
-189 -279 0
-189 -324 0
-189 -369 0
-189 -414 0
-189 -459 0
-189 -504 0
-234 -279 0
-234 -324 0
-234 -369 0
-234 -414 0
-234 -459 0
-234 -504 0
-279 -324 0
-279 -369 0
-279 -414 0
-279 -459 0
-279 -504 0
-324 -369 0
-324 -414 0
-324 -459 0
-324 -504 0
-369 -414 0
-369 -459 0
-369 -504 0
-414 -459 0
-414 -504 0
-459 -504 0
-55 -100 0
-55 -145 0
-55 -190 0
-55 -235 0
-55 -280 0
-55 -325 0
-55 -370 0
-55 -415 0
-55 -460 0
-55 -505 0
-100 -145 0
-100 -190 0
-100 -235 0
-100 -280 0
-100 -325 0
-100 -370 0
-100 -415 0
-100 -460 0
-100 -505 0
-145 -190 0
-145 -235 0
-145 -280 0
-145 -325 0
-145 -370 0
-145 -415 0
-145 -460 0
-145 -505 0
-190 -235 0
-190 -280 0
-190 -325 0
-190 -370 0
-190 -415 0
-190 -460 0
-190 -505 0
-235 -280 0
-235 -325 0
-235 -370 0
-235 -415 0
-235 -460 0
-235 -505 0
-280 -325 0
-280 -370 0
-280 -415 0
-280 -460 0
-280 -505 0
-325 -370 0
-325 -415 0
-325 -460 0
-325 -505 0
-370 -415 0
-370 -460 0
-370 -505 0
-415 -460 0
-415 -505 0
-460 -505 0
-56 -101 0
-56 -146 0
-56 -191 0
-56 -236 0
-56 -281 0
-56 -326 0
-56 -371 0
-56 -416 0
-56 -461 0
-56 -506 0
-101 -146 0
-101 -191 0
-101 -236 0
-101 -281 0
-101 -326 0
-101 -371 0
-101 -416 0
-101 -461 0
-101 -506 0
-146 -191 0
-146 -236 0
-146 -281 0
-146 -326 0
-146 -371 0
-146 -416 0
-146 -461 0
-146 -506 0
-191 -236 0
-191 -281 0
-191 -326 0
-191 -371 0
-191 -416 0
-191 -461 0
-191 -506 0
-236 -281 0
-236 -326 0
-236 -371 0
-236 -416 0
-236 -461 0
-236 -506 0
-281 -326 0
-281 -371 0
-281 -416 0
-281 -461 0
-281 -506 0
-326 -371 0
-326 -416 0
-326 -461 0
-326 -506 0
-371 -416 0
-371 -461 0
-371 -506 0
-416 -461 0
-416 -506 0
-461 -506 0
-57 -102 0
-57 -147 0
-57 -192 0
-57 -237 0
-57 -282 0
-57 -327 0
-57 -372 0
-57 -417 0
-57 -462 0
-57 -507 0
-102 -147 0
-102 -192 0
-102 -237 0
-102 -282 0
-102 -327 0
-102 -372 0
-102 -417 0
-102 -462 0
-102 -507 0
-147 -192 0
-147 -237 0
-147 -282 0
-147 -327 0
-147 -372 0
-147 -417 0
-147 -462 0
-147 -507 0
-192 -237 0
-192 -282 0
-192 -327 0
-192 -372 0
-192 -417 0
-192 -462 0
-192 -507 0
-237 -282 0
-237 -327 0
-237 -372 0
-237 -417 0
-237 -462 0
-237 -507 0
-282 -327 0
-282 -372 0
-282 -417 0
-282 -462 0
-282 -507 0
-327 -372 0
-327 -417 0
-327 -462 0
-327 -507 0
-372 -417 0
-372 -462 0
-372 -507 0
-417 -462 0
-417 -507 0
-462 -507 0
-58 -103 0
-58 -148 0
-58 -193 0
-58 -238 0
-58 -283 0
-58 -328 0
-58 -373 0
-58 -418 0
-58 -463 0
-58 -508 0
-103 -148 0
-103 -193 0
-103 -238 0
-103 -283 0
-103 -328 0
-103 -373 0
-103 -418 0
-103 -463 0
-103 -508 0
-148 -193 0
-148 -238 0
-148 -283 0
-148 -328 0
-148 -373 0
-148 -418 0
-148 -463 0
-148 -508 0
-193 -238 0
-193 -283 0
-193 -328 0
-193 -373 0
-193 -418 0
-193 -463 0
-193 -508 0
-238 -283 0
-238 -328 0
-238 -373 0
-238 -418 0
-238 -463 0
-238 -508 0
-283 -328 0
-283 -373 0
-283 -418 0
-283 -463 0
-283 -508 0
-328 -373 0
-328 -418 0
-328 -463 0
-328 -508 0
-373 -418 0
-373 -463 0
-373 -508 0
-418 -463 0
-418 -508 0
-463 -508 0
-59 -104 0
-59 -149 0
-59 -194 0
-59 -239 0
-59 -284 0
-59 -329 0
-59 -374 0
-59 -419 0
-59 -464 0
-59 -509 0
-104 -149 0
-104 -194 0
-104 -239 0
-104 -284 0
-104 -329 0
-104 -374 0
-104 -419 0
-104 -464 0
-104 -509 0
-149 -194 0
-149 -239 0
-149 -284 0
-149 -329 0
-149 -374 0
-149 -419 0
-149 -464 0
-149 -509 0
-194 -239 0
-194 -284 0
-194 -329 0
-194 -374 0
-194 -419 0
-194 -464 0
-194 -509 0
-239 -284 0
-239 -329 0
-239 -374 0
-239 -419 0
-239 -464 0
-239 -509 0
-284 -329 0
-284 -374 0
-284 -419 0
-284 -464 0
-284 -509 0
-329 -374 0
-329 -419 0
-329 -464 0
-329 -509 0
-374 -419 0
-374 -464 0
-374 -509 0
-419 -464 0
-419 -509 0
-464 -509 0
-60 -105 0
-60 -150 0
-60 -195 0
-60 -240 0
-60 -285 0
-60 -330 0
-60 -375 0
-60 -420 0
-60 -465 0
-60 -510 0
-105 -150 0
-105 -195 0
-105 -240 0
-105 -285 0
-105 -330 0
-105 -375 0
-105 -420 0
-105 -465 0
-105 -510 0
-150 -195 0
-150 -240 0
-150 -285 0
-150 -330 0
-150 -375 0
-150 -420 0
-150 -465 0
-150 -510 0
-195 -240 0
-195 -285 0
-195 -330 0
-195 -375 0
-195 -420 0
-195 -465 0
-195 -510 0
-240 -285 0
-240 -330 0
-240 -375 0
-240 -420 0
-240 -465 0
-240 -510 0
-285 -330 0
-285 -375 0
-285 -420 0
-285 -465 0
-285 -510 0
-330 -375 0
-330 -420 0
-330 -465 0
-330 -510 0
-375 -420 0
-375 -465 0
-375 -510 0
-420 -465 0
-420 -510 0
-465 -510 0
653 654 655 656 657 0
-653 -654 0
-653 -655 0
-653 -656 0
-653 -657 0
-654 -655 0
-654 -656 0
-654 -657 0
-655 -656 0
-655 -657 0
-656 -657 0
-46 653 0
-47 653 654 0
-48 653 654 655 0
-49 653 654 655 656 0
-50 653 654 655 656 657 0
-51 653 654 655 656 657 0
-52 653 654 655 656 657 0
-53 653 654 655 656 657 0
-54 653 654 655 656 657 0
-55 653 654 655 656 657 0
-56 653 654 655 656 657 0
-57 654 655 656 657 0
-58 655 656 657 0
-59 656 657 0
-60 657 0
-91 653 0
-92 653 654 0
-93 653 654 655 0
-94 653 654 655 656 0
-95 653 654 655 656 657 0
-96 653 654 655 656 657 0
-97 653 654 655 656 657 0
-98 653 654 655 656 657 0
-99 653 654 655 656 657 0
-100 653 654 655 656 657 0
-101 653 654 655 656 657 0
-102 654 655 656 657 0
-103 655 656 657 0
-104 656 657 0
-105 657 0
-136 653 0
-137 653 654 0
-138 653 654 655 0
-139 653 654 655 656 0
-140 653 654 655 656 657 0
-141 653 654 655 656 657 0
-142 653 654 655 656 657 0
-143 653 654 655 656 657 0
-144 653 654 655 656 657 0
-145 653 654 655 656 657 0
-146 653 654 655 656 657 0
-147 654 655 656 657 0
-148 655 656 657 0
-149 656 657 0
-150 657 0
-181 653 0
-182 653 654 0
-183 653 654 655 0
-184 653 654 655 656 0
-185 653 654 655 656 657 0
-186 653 654 655 656 657 0
-187 653 654 655 656 657 0
-188 653 654 655 656 657 0
-189 653 654 655 656 657 0
-190 653 654 655 656 657 0
-191 653 654 655 656 657 0
-192 654 655 656 657 0
-193 655 656 657 0
-194 656 657 0
-195 657 0
-226 653 0
-227 653 654 0
-228 653 654 655 0
-229 653 654 655 656 0
-230 653 654 655 656 657 0
-231 653 654 655 656 657 0
-232 653 654 655 656 657 0
-233 653 654 655 656 657 0
-234 653 654 655 656 657 0
-235 653 654 655 656 657 0
-236 653 654 655 656 657 0
-237 654 655 656 657 0
-238 655 656 657 0
-239 656 657 0
-240 657 0
-271 653 0
-272 653 654 0
-273 653 654 655 0
-274 653 654 655 656 0
-275 653 654 655 656 657 0
-276 653 654 655 656 657 0
-277 653 654 655 656 657 0
-278 653 654 655 656 657 0
-279 653 654 655 656 657 0
-280 653 654 655 656 657 0
-281 653 654 655 656 657 0
-282 654 655 656 657 0
-283 655 656 657 0
-284 656 657 0
-285 657 0
-316 653 0
-317 653 654 0
-318 653 654 655 0
-319 653 654 655 656 0
-320 653 654 655 656 657 0
-321 653 654 655 656 657 0
-322 653 654 655 656 657 0
-323 653 654 655 656 657 0
-324 653 654 655 656 657 0
-325 653 654 655 656 657 0
-326 653 654 655 656 657 0
-327 654 655 656 657 0
-328 655 656 657 0
-329 656 657 0
-330 657 0
-361 653 0
-362 653 654 0
-363 653 654 655 0
-364 653 654 655 656 0
-365 653 654 655 656 657 0
-366 653 654 655 656 657 0
-367 653 654 655 656 657 0
-368 653 654 655 656 657 0
-369 653 654 655 656 657 0
-370 653 654 655 656 657 0
-371 653 654 655 656 657 0
-372 654 655 656 657 0
-373 655 656 657 0
-374 656 657 0
-375 657 0
-406 653 0
-407 653 654 0
-408 653 654 655 0
-409 653 654 655 656 0
-410 653 654 655 656 657 0
-411 653 654 655 656 657 0
-412 653 654 655 656 657 0
-413 653 654 655 656 657 0
-414 653 654 655 656 657 0
-415 653 654 655 656 657 0
-416 653 654 655 656 657 0
-417 654 655 656 657 0
-418 655 656 657 0
-419 656 657 0
-420 657 0
-451 653 0
-452 653 654 0
-453 653 654 655 0
-454 653 654 655 656 0
-455 653 654 655 656 657 0
-456 653 654 655 656 657 0
-457 653 654 655 656 657 0
-458 653 654 655 656 657 0
-459 653 654 655 656 657 0
-460 653 654 655 656 657 0
-461 653 654 655 656 657 0
-462 654 655 656 657 0
-463 655 656 657 0
-464 656 657 0
-465 657 0
-496 653 0
-497 653 654 0
-498 653 654 655 0
-499 653 654 655 656 0
-500 653 654 655 656 657 0
-501 653 654 655 656 657 0
-502 653 654 655 656 657 0
-503 653 654 655 656 657 0
-504 653 654 655 656 657 0
-505 653 654 655 656 657 0
-506 653 654 655 656 657 0
-507 654 655 656 657 0
-508 655 656 657 0
-509 656 657 0
-510 657 0
-653 -57 0
-653 -58 0
-653 -59 0
-653 -60 0
-653 -102 0
-653 -103 0
-653 -104 0
-653 -105 0
-653 -147 0
-653 -148 0
-653 -149 0
-653 -150 0
-653 -192 0
-653 -193 0
-653 -194 0
-653 -195 0
-653 -237 0
-653 -238 0
-653 -239 0
-653 -240 0
-653 -282 0
-653 -283 0
-653 -284 0
-653 -285 0
-653 -327 0
-653 -328 0
-653 -329 0
-653 -330 0
-653 -372 0
-653 -373 0
-653 -374 0
-653 -375 0
-653 -417 0
-653 -418 0
-653 -419 0
-653 -420 0
-653 -462 0
-653 -463 0
-653 -464 0
-653 -465 0
-653 -507 0
-653 -508 0
-653 -509 0
-653 -510 0
-654 -46 0
-654 -58 0
-654 -59 0
-654 -60 0
-654 -91 0
-654 -103 0
-654 -104 0
-654 -105 0
-654 -136 0
-654 -148 0
-654 -149 0
-654 -150 0
-654 -181 0
-654 -193 0
-654 -194 0
-654 -195 0
-654 -226 0
-654 -238 0
-654 -239 0
-654 -240 0
-654 -271 0
-654 -283 0
-654 -284 0
-654 -285 0
-654 -316 0
-654 -328 0
-654 -329 0
-654 -330 0
-654 -361 0
-654 -373 0
-654 -374 0
-654 -375 0
-654 -406 0
-654 -418 0
-654 -419 0
-654 -420 0
-654 -451 0
-654 -463 0
-654 -464 0
-654 -465 0
-654 -496 0
-654 -508 0
-654 -509 0
-654 -510 0
-655 -46 0
-655 -47 0
-655 -59 0
-655 -60 0
-655 -91 0
-655 -92 0
-655 -104 0
-655 -105 0
-655 -136 0
-655 -137 0
-655 -149 0
-655 -150 0
-655 -181 0
-655 -182 0
-655 -194 0
-655 -195 0
-655 -226 0
-655 -227 0
-655 -239 0
-655 -240 0
-655 -271 0
-655 -272 0
-655 -284 0
-655 -285 0
-655 -316 0
-655 -317 0
-655 -329 0
-655 -330 0
-655 -361 0
-655 -362 0
-655 -374 0
-655 -375 0
-655 -406 0
-655 -407 0
-655 -419 0
-655 -420 0
-655 -451 0
-655 -452 0
-655 -464 0
-655 -465 0
-655 -496 0
-655 -497 0
-655 -509 0
-655 -510 0
-656 -46 0
-656 -47 0
-656 -48 0
-656 -60 0
-656 -91 0
-656 -92 0
-656 -93 0
-656 -105 0
-656 -136 0
-656 -137 0
-656 -138 0
-656 -150 0
-656 -181 0
-656 -182 0
-656 -183 0
-656 -195 0
-656 -226 0
-656 -227 0
-656 -228 0
-656 -240 0
-656 -271 0
-656 -272 0
-656 -273 0
-656 -285 0
-656 -316 0
-656 -317 0
-656 -318 0
-656 -330 0
-656 -361 0
-656 -362 0
-656 -363 0
-656 -375 0
-656 -406 0
-656 -407 0
-656 -408 0
-656 -420 0
-656 -451 0
-656 -452 0
-656 -453 0
-656 -465 0
-656 -496 0
-656 -497 0
-656 -498 0
-656 -510 0
-657 -46 0
-657 -47 0
-657 -48 0
-657 -49 0
-657 -91 0
-657 -92 0
-657 -93 0
-657 -94 0
-657 -136 0
-657 -137 0
-657 -138 0
-657 -139 0
-657 -181 0
-657 -182 0
-657 -183 0
-657 -184 0
-657 -226 0
-657 -227 0
-657 -228 0
-657 -229 0
-657 -271 0
-657 -272 0
-657 -273 0
-657 -274 0
-657 -316 0
-657 -317 0
-657 -318 0
-657 -319 0
-657 -361 0
-657 -362 0
-657 -363 0
-657 -364 0
-657 -406 0
-657 -407 0
-657 -408 0
-657 -409 0
-657 -451 0
-657 -452 0
-657 -453 0
-657 -454 0
-657 -496 0
-657 -497 0
-657 -498 0
-657 -499 0
-1 -151 0
-1 -196 0
-151 -196 0
-2 -152 0
-2 -197 0
-152 -197 0
-3 -153 0
-3 -198 0
-153 -198 0
-4 -154 0
-4 -199 0
-154 -199 0
-5 -155 0
-5 -200 0
-155 -200 0
-6 -156 0
-6 -201 0
-156 -201 0
-7 -157 0
-7 -202 0
-157 -202 0
-8 -158 0
-8 -203 0
-158 -203 0
-9 -159 0
-9 -204 0
-159 -204 0
-10 -160 0
-10 -205 0
-160 -205 0
-11 -161 0
-11 -206 0
-161 -206 0
-12 -162 0
-12 -207 0
-162 -207 0
-13 -163 0
-13 -208 0
-163 -208 0
-14 -164 0
-14 -209 0
-164 -209 0
-15 -165 0
-15 -210 0
-165 -210 0
658 659 660 661 662 663 664 665 666 667 668 669 670 0
-658 -659 0
-658 -660 0
-658 -661 0
-658 -662 0
-658 -663 0
-658 -664 0
-658 -665 0
-658 -666 0
-658 -667 0
-658 -668 0
-658 -669 0
-658 -670 0
-659 -660 0
-659 -661 0
-659 -662 0
-659 -663 0
-659 -664 0
-659 -665 0
-659 -666 0
-659 -667 0
-659 -668 0
-659 -669 0
-659 -670 0
-660 -661 0
-660 -662 0
-660 -663 0
-660 -664 0
-660 -665 0
-660 -666 0
-660 -667 0
-660 -668 0
-660 -669 0
-660 -670 0
-661 -662 0
-661 -663 0
-661 -664 0
-661 -665 0
-661 -666 0
-661 -667 0
-661 -668 0
-661 -669 0
-661 -670 0
-662 -663 0
-662 -664 0
-662 -665 0
-662 -666 0
-662 -667 0
-662 -668 0
-662 -669 0
-662 -670 0
-663 -664 0
-663 -665 0
-663 -666 0
-663 -667 0
-663 -668 0
-663 -669 0
-663 -670 0
-664 -665 0
-664 -666 0
-664 -667 0
-664 -668 0
-664 -669 0
-664 -670 0
-665 -666 0
-665 -667 0
-665 -668 0
-665 -669 0
-665 -670 0
-666 -667 0
-666 -668 0
-666 -669 0
-666 -670 0
-667 -668 0
-667 -669 0
-667 -670 0
-668 -669 0
-668 -670 0
-669 -670 0
-1 658 0
-2 658 659 0
-3 658 659 660 0
-4 659 660 661 0
-5 660 661 662 0
-6 661 662 663 0
-7 662 663 664 0
-8 663 664 665 0
-9 664 665 666 0
-10 665 666 667 0
-11 666 667 668 0
-12 667 668 669 0
-13 668 669 670 0
-14 669 670 0
-15 670 0
-151 658 0
-152 658 659 0
-153 658 659 660 0
-154 659 660 661 0
-155 660 661 662 0
-156 661 662 663 0
-157 662 663 664 0
-158 663 664 665 0
-159 664 665 666 0
-160 665 666 667 0
-161 666 667 668 0
-162 667 668 669 0
-163 668 669 670 0
-164 669 670 0
-165 670 0
-196 658 0
-197 658 659 0
-198 658 659 660 0
-199 659 660 661 0
-200 660 661 662 0
-201 661 662 663 0
-202 662 663 664 0
-203 663 664 665 0
-204 664 665 666 0
-205 665 666 667 0
-206 666 667 668 0
-207 667 668 669 0
-208 668 669 670 0
-209 669 670 0
-210 670 0
-658 -4 0
-658 -5 0
-658 -6 0
-658 -7 0
-658 -8 0
-658 -9 0
-658 -10 0
-658 -11 0
-658 -12 0
-658 -13 0
-658 -14 0
-658 -15 0
-658 -154 0
-658 -155 0
-658 -156 0
-658 -157 0
-658 -158 0
-658 -159 0
-658 -160 0
-658 -161 0
-658 -162 0
-658 -163 0
-658 -164 0
-658 -165 0
-658 -199 0
-658 -200 0
-658 -201 0
-658 -202 0
-658 -203 0
-658 -204 0
-658 -205 0
-658 -206 0
-658 -207 0
-658 -208 0
-658 -209 0
-658 -210 0
-659 -1 0
-659 -5 0
-659 -6 0
-659 -7 0
-659 -8 0
-659 -9 0
-659 -10 0
-659 -11 0
-659 -12 0
-659 -13 0
-659 -14 0
-659 -15 0
-659 -151 0
-659 -155 0
-659 -156 0
-659 -157 0
-659 -158 0
-659 -159 0
-659 -160 0
-659 -161 0
-659 -162 0
-659 -163 0
-659 -164 0
-659 -165 0
-659 -196 0
-659 -200 0
-659 -201 0
-659 -202 0
-659 -203 0
-659 -204 0
-659 -205 0
-659 -206 0
-659 -207 0
-659 -208 0
-659 -209 0
-659 -210 0
-660 -1 0
-660 -2 0
-660 -6 0
-660 -7 0
-660 -8 0
-660 -9 0
-660 -10 0
-660 -11 0
-660 -12 0
-660 -13 0
-660 -14 0
-660 -15 0
-660 -151 0
-660 -152 0
-660 -156 0
-660 -157 0
-660 -158 0
-660 -159 0
-660 -160 0
-660 -161 0
-660 -162 0
-660 -163 0
-660 -164 0
-660 -165 0
-660 -196 0
-660 -197 0
-660 -201 0
-660 -202 0
-660 -203 0
-660 -204 0
-660 -205 0
-660 -206 0
-660 -207 0
-660 -208 0
-660 -209 0
-660 -210 0
-661 -1 0
-661 -2 0
-661 -3 0
-661 -7 0
-661 -8 0
-661 -9 0
-661 -10 0
-661 -11 0
-661 -12 0
-661 -13 0
-661 -14 0
-661 -15 0
-661 -151 0
-661 -152 0
-661 -153 0
-661 -157 0
-661 -158 0
-661 -159 0
-661 -160 0
-661 -161 0
-661 -162 0
-661 -163 0
-661 -164 0
-661 -165 0
-661 -196 0
-661 -197 0
-661 -198 0
-661 -202 0
-661 -203 0
-661 -204 0
-661 -205 0
-661 -206 0
-661 -207 0
-661 -208 0
-661 -209 0
-661 -210 0
-662 -1 0
-662 -2 0
-662 -3 0
-662 -4 0
-662 -8 0
-662 -9 0
-662 -10 0
-662 -11 0
-662 -12 0
-662 -13 0
-662 -14 0
-662 -15 0
-662 -151 0
-662 -152 0
-662 -153 0
-662 -154 0
-662 -158 0
-662 -159 0
-662 -160 0
-662 -161 0
-662 -162 0
-662 -163 0
-662 -164 0
-662 -165 0
-662 -196 0
-662 -197 0
-662 -198 0
-662 -199 0
-662 -203 0
-662 -204 0
-662 -205 0
-662 -206 0
-662 -207 0
-662 -208 0
-662 -209 0
-662 -210 0
-663 -1 0
-663 -2 0
-663 -3 0
-663 -4 0
-663 -5 0
-663 -9 0
-663 -10 0
-663 -11 0
-663 -12 0
-663 -13 0
-663 -14 0
-663 -15 0
-663 -151 0
-663 -152 0
-663 -153 0
-663 -154 0
-663 -155 0
-663 -159 0
-663 -160 0
-663 -161 0
-663 -162 0
-663 -163 0
-663 -164 0
-663 -165 0
-663 -196 0
-663 -197 0
-663 -198 0
-663 -199 0
-663 -200 0
-663 -204 0
-663 -205 0
-663 -206 0
-663 -207 0
-663 -208 0
-663 -209 0
-663 -210 0
-664 -1 0
-664 -2 0
-664 -3 0
-664 -4 0
-664 -5 0
-664 -6 0
-664 -10 0
-664 -11 0
-664 -12 0
-664 -13 0
-664 -14 0
-664 -15 0
-664 -151 0
-664 -152 0
-664 -153 0
-664 -154 0
-664 -155 0
-664 -156 0
-664 -160 0
-664 -161 0
-664 -162 0
-664 -163 0
-664 -164 0
-664 -165 0
-664 -196 0
-664 -197 0
-664 -198 0
-664 -199 0
-664 -200 0
-664 -201 0
-664 -205 0
-664 -206 0
-664 -207 0
-664 -208 0
-664 -209 0
-664 -210 0
-665 -1 0
-665 -2 0
-665 -3 0
-665 -4 0
-665 -5 0
-665 -6 0
-665 -7 0
-665 -11 0
-665 -12 0
-665 -13 0
-665 -14 0
-665 -15 0
-665 -151 0
-665 -152 0
-665 -153 0
-665 -154 0
-665 -155 0
-665 -156 0
-665 -157 0
-665 -161 0
-665 -162 0
-665 -163 0
-665 -164 0
-665 -165 0
-665 -196 0
-665 -197 0
-665 -198 0
-665 -199 0
-665 -200 0
-665 -201 0
-665 -202 0
-665 -206 0
-665 -207 0
-665 -208 0
-665 -209 0
-665 -210 0
-666 -1 0
-666 -2 0
-666 -3 0
-666 -4 0
-666 -5 0
-666 -6 0
-666 -7 0
-666 -8 0
-666 -12 0
-666 -13 0
-666 -14 0
-666 -15 0
-666 -151 0
-666 -152 0
-666 -153 0
-666 -154 0
-666 -155 0
-666 -156 0
-666 -157 0
-666 -158 0
-666 -162 0
-666 -163 0
-666 -164 0
-666 -165 0
-666 -196 0
-666 -197 0
-666 -198 0
-666 -199 0
-666 -200 0
-666 -201 0
-666 -202 0
-666 -203 0
-666 -207 0
-666 -208 0
-666 -209 0
-666 -210 0
-667 -1 0
-667 -2 0
-667 -3 0
-667 -4 0
-667 -5 0
-667 -6 0
-667 -7 0
-667 -8 0
-667 -9 0
-667 -13 0
-667 -14 0
-667 -15 0
-667 -151 0
-667 -152 0
-667 -153 0
-667 -154 0
-667 -155 0
-667 -156 0
-667 -157 0
-667 -158 0
-667 -159 0
-667 -163 0
-667 -164 0
-667 -165 0
-667 -196 0
-667 -197 0
-667 -198 0
-667 -199 0
-667 -200 0
-667 -201 0
-667 -202 0
-667 -203 0
-667 -204 0
-667 -208 0
-667 -209 0
-667 -210 0
-668 -1 0
-668 -2 0
-668 -3 0
-668 -4 0
-668 -5 0
-668 -6 0
-668 -7 0
-668 -8 0
-668 -9 0
-668 -10 0
-668 -14 0
-668 -15 0
-668 -151 0
-668 -152 0
-668 -153 0
-668 -154 0
-668 -155 0
-668 -156 0
-668 -157 0
-668 -158 0
-668 -159 0
-668 -160 0
-668 -164 0
-668 -165 0
-668 -196 0
-668 -197 0
-668 -198 0
-668 -199 0
-668 -200 0
-668 -201 0
-668 -202 0
-668 -203 0
-668 -204 0
-668 -205 0
-668 -209 0
-668 -210 0
-669 -1 0
-669 -2 0
-669 -3 0
-669 -4 0
-669 -5 0
-669 -6 0
-669 -7 0
-669 -8 0
-669 -9 0
-669 -10 0
-669 -11 0
-669 -15 0
-669 -151 0
-669 -152 0
-669 -153 0
-669 -154 0
-669 -155 0
-669 -156 0
-669 -157 0
-669 -158 0
-669 -159 0
-669 -160 0
-669 -161 0
-669 -165 0
-669 -196 0
-669 -197 0
-669 -198 0
-669 -199 0
-669 -200 0
-669 -201 0
-669 -202 0
-669 -203 0
-669 -204 0
-669 -205 0
-669 -206 0
-669 -210 0
-670 -1 0
-670 -2 0
-670 -3 0
-670 -4 0
-670 -5 0
-670 -6 0
-670 -7 0
-670 -8 0
-670 -9 0
-670 -10 0
-670 -11 0
-670 -12 0
-670 -151 0
-670 -152 0
-670 -153 0
-670 -154 0
-670 -155 0
-670 -156 0
-670 -157 0
-670 -158 0
-670 -159 0
-670 -160 0
-670 -161 0
-670 -162 0
-670 -196 0
-670 -197 0
-670 -198 0
-670 -199 0
-670 -200 0
-670 -201 0
-670 -202 0
-670 -203 0
-670 -204 0
-670 -205 0
-670 -206 0
-670 -207 0
-241 -286 0
-241 -331 0
-241 -376 0
-286 -331 0
-286 -376 0
-331 -376 0
-242 -287 0
-242 -332 0
-242 -377 0
-287 -332 0
-287 -377 0
-332 -377 0
-243 -288 0
-243 -333 0
-243 -378 0
-288 -333 0
-288 -378 0
-333 -378 0
-244 -289 0
-244 -334 0
-244 -379 0
-289 -334 0
-289 -379 0
-334 -379 0
-245 -290 0
-245 -335 0
-245 -380 0
-290 -335 0
-290 -380 0
-335 -380 0
-246 -291 0
-246 -336 0
-246 -381 0
-291 -336 0
-291 -381 0
-336 -381 0
-247 -292 0
-247 -337 0
-247 -382 0
-292 -337 0
-292 -382 0
-337 -382 0
-248 -293 0
-248 -338 0
-248 -383 0
-293 -338 0
-293 -383 0
-338 -383 0
-249 -294 0
-249 -339 0
-249 -384 0
-294 -339 0
-294 -384 0
-339 -384 0
-250 -295 0
-250 -340 0
-250 -385 0
-295 -340 0
-295 -385 0
-340 -385 0
-251 -296 0
-251 -341 0
-251 -386 0
-296 -341 0
-296 -386 0
-341 -386 0
-252 -297 0
-252 -342 0
-252 -387 0
-297 -342 0
-297 -387 0
-342 -387 0
-253 -298 0
-253 -343 0
-253 -388 0
-298 -343 0
-298 -388 0
-343 -388 0
-254 -299 0
-254 -344 0
-254 -389 0
-299 -344 0
-299 -389 0
-344 -389 0
-255 -300 0
-255 -345 0
-255 -390 0
-300 -345 0
-300 -390 0
-345 -390 0
671 672 673 674 675 676 677 678 679 680 681 682 0
-671 -672 0
-671 -673 0
-671 -674 0
-671 -675 0
-671 -676 0
-671 -677 0
-671 -678 0
-671 -679 0
-671 -680 0
-671 -681 0
-671 -682 0
-672 -673 0
-672 -674 0
-672 -675 0
-672 -676 0
-672 -677 0
-672 -678 0
-672 -679 0
-672 -680 0
-672 -681 0
-672 -682 0
-673 -674 0
-673 -675 0
-673 -676 0
-673 -677 0
-673 -678 0
-673 -679 0
-673 -680 0
-673 -681 0
-673 -682 0
-674 -675 0
-674 -676 0
-674 -677 0
-674 -678 0
-674 -679 0
-674 -680 0
-674 -681 0
-674 -682 0
-675 -676 0
-675 -677 0
-675 -678 0
-675 -679 0
-675 -680 0
-675 -681 0
-675 -682 0
-676 -677 0
-676 -678 0
-676 -679 0
-676 -680 0
-676 -681 0
-676 -682 0
-677 -678 0
-677 -679 0
-677 -680 0
-677 -681 0
-677 -682 0
-678 -679 0
-678 -680 0
-678 -681 0
-678 -682 0
-679 -680 0
-679 -681 0
-679 -682 0
-680 -681 0
-680 -682 0
-681 -682 0
-241 671 0
-242 671 672 0
-243 671 672 673 0
-244 671 672 673 674 0
-245 672 673 674 675 0
-246 673 674 675 676 0
-247 674 675 676 677 0
-248 675 676 677 678 0
-249 676 677 678 679 0
-250 677 678 679 680 0
-251 678 679 680 681 0
-252 679 680 681 682 0
-253 680 681 682 0
-254 681 682 0
-255 682 0
-286 671 0
-287 671 672 0
-288 671 672 673 0
-289 671 672 673 674 0
-290 672 673 674 675 0
-291 673 674 675 676 0
-292 674 675 676 677 0
-293 675 676 677 678 0
-294 676 677 678 679 0
-295 677 678 679 680 0
-296 678 679 680 681 0
-297 679 680 681 682 0
-298 680 681 682 0
-299 681 682 0
-300 682 0
-331 671 0
-332 671 672 0
-333 671 672 673 0
-334 671 672 673 674 0
-335 672 673 674 675 0
-336 673 674 675 676 0
-337 674 675 676 677 0
-338 675 676 677 678 0
-339 676 677 678 679 0
-340 677 678 679 680 0
-341 678 679 680 681 0
-342 679 680 681 682 0
-343 680 681 682 0
-344 681 682 0
-345 682 0
-376 671 0
-377 671 672 0
-378 671 672 673 0
-379 671 672 673 674 0
-380 672 673 674 675 0
-381 673 674 675 676 0
-382 674 675 676 677 0
-383 675 676 677 678 0
-384 676 677 678 679 0
-385 677 678 679 680 0
-386 678 679 680 681 0
-387 679 680 681 682 0
-388 680 681 682 0
-389 681 682 0
-390 682 0
-671 -245 0
-671 -246 0
-671 -247 0
-671 -248 0
-671 -249 0
-671 -250 0
-671 -251 0
-671 -252 0
-671 -253 0
-671 -254 0
-671 -255 0
-671 -290 0
-671 -291 0
-671 -292 0
-671 -293 0
-671 -294 0
-671 -295 0
-671 -296 0
-671 -297 0
-671 -298 0
-671 -299 0
-671 -300 0
-671 -335 0
-671 -336 0
-671 -337 0
-671 -338 0
-671 -339 0
-671 -340 0
-671 -341 0
-671 -342 0
-671 -343 0
-671 -344 0
-671 -345 0
-671 -380 0
-671 -381 0
-671 -382 0
-671 -383 0
-671 -384 0
-671 -385 0
-671 -386 0
-671 -387 0
-671 -388 0
-671 -389 0
-671 -390 0
-672 -241 0
-672 -246 0
-672 -247 0
-672 -248 0
-672 -249 0
-672 -250 0
-672 -251 0
-672 -252 0
-672 -253 0
-672 -254 0
-672 -255 0
-672 -286 0
-672 -291 0
-672 -292 0
-672 -293 0
-672 -294 0
-672 -295 0
-672 -296 0
-672 -297 0
-672 -298 0
-672 -299 0
-672 -300 0
-672 -331 0
-672 -336 0
-672 -337 0
-672 -338 0
-672 -339 0
-672 -340 0
-672 -341 0
-672 -342 0
-672 -343 0
-672 -344 0
-672 -345 0
-672 -376 0
-672 -381 0
-672 -382 0
-672 -383 0
-672 -384 0
-672 -385 0
-672 -386 0
-672 -387 0
-672 -388 0
-672 -389 0
-672 -390 0
-673 -241 0
-673 -242 0
-673 -247 0
-673 -248 0
-673 -249 0
-673 -250 0
-673 -251 0
-673 -252 0
-673 -253 0
-673 -254 0
-673 -255 0
-673 -286 0
-673 -287 0
-673 -292 0
-673 -293 0
-673 -294 0
-673 -295 0
-673 -296 0
-673 -297 0
-673 -298 0
-673 -299 0
-673 -300 0
-673 -331 0
-673 -332 0
-673 -337 0
-673 -338 0
-673 -339 0
-673 -340 0
-673 -341 0
-673 -342 0
-673 -343 0
-673 -344 0
-673 -345 0
-673 -376 0
-673 -377 0
-673 -382 0
-673 -383 0
-673 -384 0
-673 -385 0
-673 -386 0
-673 -387 0
-673 -388 0
-673 -389 0
-673 -390 0
-674 -241 0
-674 -242 0
-674 -243 0
-674 -248 0
-674 -249 0
-674 -250 0
-674 -251 0
-674 -252 0
-674 -253 0
-674 -254 0
-674 -255 0
-674 -286 0
-674 -287 0
-674 -288 0
-674 -293 0
-674 -294 0
-674 -295 0
-674 -296 0
-674 -297 0
-674 -298 0
-674 -299 0
-674 -300 0
-674 -331 0
-674 -332 0
-674 -333 0
-674 -338 0
-674 -339 0
-674 -340 0
-674 -341 0
-674 -342 0
-674 -343 0
-674 -344 0
-674 -345 0
-674 -376 0
-674 -377 0
-674 -378 0
-674 -383 0
-674 -384 0
-674 -385 0
-674 -386 0
-674 -387 0
-674 -388 0
-674 -389 0
-674 -390 0
-675 -241 0
-675 -242 0
-675 -243 0
-675 -244 0
-675 -249 0
-675 -250 0
-675 -251 0
-675 -252 0
-675 -253 0
-675 -254 0
-675 -255 0
-675 -286 0
-675 -287 0
-675 -288 0
-675 -289 0
-675 -294 0
-675 -295 0
-675 -296 0
-675 -297 0
-675 -298 0
-675 -299 0
-675 -300 0
-675 -331 0
-675 -332 0
-675 -333 0
-675 -334 0
-675 -339 0
-675 -340 0
-675 -341 0
-675 -342 0
-675 -343 0
-675 -344 0
-675 -345 0
-675 -376 0
-675 -377 0
-675 -378 0
-675 -379 0
-675 -384 0
-675 -385 0
-675 -386 0
-675 -387 0
-675 -388 0
-675 -389 0
-675 -390 0
-676 -241 0
-676 -242 0
-676 -243 0
-676 -244 0
-676 -245 0
-676 -250 0
-676 -251 0
-676 -252 0
-676 -253 0
-676 -254 0
-676 -255 0
-676 -286 0
-676 -287 0
-676 -288 0
-676 -289 0
-676 -290 0
-676 -295 0
-676 -296 0
-676 -297 0
-676 -298 0
-676 -299 0
-676 -300 0
-676 -331 0
-676 -332 0
-676 -333 0
-676 -334 0
-676 -335 0
-676 -340 0
-676 -341 0
-676 -342 0
-676 -343 0
-676 -344 0
-676 -345 0
-676 -376 0
-676 -377 0
-676 -378 0
-676 -379 0
-676 -380 0
-676 -385 0
-676 -386 0
-676 -387 0
-676 -388 0
-676 -389 0
-676 -390 0
-677 -241 0
-677 -242 0
-677 -243 0
-677 -244 0
-677 -245 0
-677 -246 0
-677 -251 0
-677 -252 0
-677 -253 0
-677 -254 0
-677 -255 0
-677 -286 0
-677 -287 0
-677 -288 0
-677 -289 0
-677 -290 0
-677 -291 0
-677 -296 0
-677 -297 0
-677 -298 0
-677 -299 0
-677 -300 0
-677 -331 0
-677 -332 0
-677 -333 0
-677 -334 0
-677 -335 0
-677 -336 0
-677 -341 0
-677 -342 0
-677 -343 0
-677 -344 0
-677 -345 0
-677 -376 0
-677 -377 0
-677 -378 0
-677 -379 0
-677 -380 0
-677 -381 0
-677 -386 0
-677 -387 0
-677 -388 0
-677 -389 0
-677 -390 0
-678 -241 0
-678 -242 0
-678 -243 0
-678 -244 0
-678 -245 0
-678 -246 0
-678 -247 0
-678 -252 0
-678 -253 0
-678 -254 0
-678 -255 0
-678 -286 0
-678 -287 0
-678 -288 0
-678 -289 0
-678 -290 0
-678 -291 0
-678 -292 0
-678 -297 0
-678 -298 0
-678 -299 0
-678 -300 0
-678 -331 0
-678 -332 0
-678 -333 0
-678 -334 0
-678 -335 0
-678 -336 0
-678 -337 0
-678 -342 0
-678 -343 0
-678 -344 0
-678 -345 0
-678 -376 0
-678 -377 0
-678 -378 0
-678 -379 0
-678 -380 0
-678 -381 0
-678 -382 0
-678 -387 0
-678 -388 0
-678 -389 0
-678 -390 0
-679 -241 0
-679 -242 0
-679 -243 0
-679 -244 0
-679 -245 0
-679 -246 0
-679 -247 0
-679 -248 0
-679 -253 0
-679 -254 0
-679 -255 0
-679 -286 0
-679 -287 0
-679 -288 0
-679 -289 0
-679 -290 0
-679 -291 0
-679 -292 0
-679 -293 0
-679 -298 0
-679 -299 0
-679 -300 0
-679 -331 0
-679 -332 0
-679 -333 0
-679 -334 0
-679 -335 0
-679 -336 0
-679 -337 0
-679 -338 0
-679 -343 0
-679 -344 0
-679 -345 0
-679 -376 0
-679 -377 0
-679 -378 0
-679 -379 0
-679 -380 0
-679 -381 0
-679 -382 0
-679 -383 0
-679 -388 0
-679 -389 0
-679 -390 0
-680 -241 0
-680 -242 0
-680 -243 0
-680 -244 0
-680 -245 0
-680 -246 0
-680 -247 0
-680 -248 0
-680 -249 0
-680 -254 0
-680 -255 0
-680 -286 0
-680 -287 0
-680 -288 0
-680 -289 0
-680 -290 0
-680 -291 0
-680 -292 0
-680 -293 0
-680 -294 0
-680 -299 0
-680 -300 0
-680 -331 0
-680 -332 0
-680 -333 0
-680 -334 0
-680 -335 0
-680 -336 0
-680 -337 0
-680 -338 0
-680 -339 0
-680 -344 0
-680 -345 0
-680 -376 0
-680 -377 0
-680 -378 0
-680 -379 0
-680 -380 0
-680 -381 0
-680 -382 0
-680 -383 0
-680 -384 0
-680 -389 0
-680 -390 0
-681 -241 0
-681 -242 0
-681 -243 0
-681 -244 0
-681 -245 0
-681 -246 0
-681 -247 0
-681 -248 0
-681 -249 0
-681 -250 0
-681 -255 0
-681 -286 0
-681 -287 0
-681 -288 0
-681 -289 0
-681 -290 0
-681 -291 0
-681 -292 0
-681 -293 0
-681 -294 0
-681 -295 0
-681 -300 0
-681 -331 0
-681 -332 0
-681 -333 0
-681 -334 0
-681 -335 0
-681 -336 0
-681 -337 0
-681 -338 0
-681 -339 0
-681 -340 0
-681 -345 0
-681 -376 0
-681 -377 0
-681 -378 0
-681 -379 0
-681 -380 0
-681 -381 0
-681 -382 0
-681 -383 0
-681 -384 0
-681 -385 0
-681 -390 0
-682 -241 0
-682 -242 0
-682 -243 0
-682 -244 0
-682 -245 0
-682 -246 0
-682 -247 0
-682 -248 0
-682 -249 0
-682 -250 0
-682 -251 0
-682 -286 0
-682 -287 0
-682 -288 0
-682 -289 0
-682 -290 0
-682 -291 0
-682 -292 0
-682 -293 0
-682 -294 0
-682 -295 0
-682 -296 0
-682 -331 0
-682 -332 0
-682 -333 0
-682 -334 0
-682 -335 0
-682 -336 0
-682 -337 0
-682 -338 0
-682 -339 0
-682 -340 0
-682 -341 0
-682 -376 0
-682 -377 0
-682 -378 0
-682 -379 0
-682 -380 0
-682 -381 0
-682 -382 0
-682 -383 0
-682 -384 0
-682 -385 0
-682 -386 0
-61 -106 0
-61 -421 0
-61 -466 0
-106 -421 0
-106 -466 0
-421 -466 0
-62 -107 0
-62 -422 0
-62 -467 0
-107 -422 0
-107 -467 0
-422 -467 0
-63 -108 0
-63 -423 0
-63 -468 0
-108 -423 0
-108 -468 0
-423 -468 0
-64 -109 0
-64 -424 0
-64 -469 0
-109 -424 0
-109 -469 0
-424 -469 0
-65 -110 0
-65 -425 0
-65 -470 0
-110 -425 0
-110 -470 0
-425 -470 0
-66 -111 0
-66 -426 0
-66 -471 0
-111 -426 0
-111 -471 0
-426 -471 0
-67 -112 0
-67 -427 0
-67 -472 0
-112 -427 0
-112 -472 0
-427 -472 0
-68 -113 0
-68 -428 0
-68 -473 0
-113 -428 0
-113 -473 0
-428 -473 0
-69 -114 0
-69 -429 0
-69 -474 0
-114 -429 0
-114 -474 0
-429 -474 0
-70 -115 0
-70 -430 0
-70 -475 0
-115 -430 0
-115 -475 0
-430 -475 0
-71 -116 0
-71 -431 0
-71 -476 0
-116 -431 0
-116 -476 0
-431 -476 0
-72 -117 0
-72 -432 0
-72 -477 0
-117 -432 0
-117 -477 0
-432 -477 0
-73 -118 0
-73 -433 0
-73 -478 0
-118 -433 0
-118 -478 0
-433 -478 0
-74 -119 0
-74 -434 0
-74 -479 0
-119 -434 0
-119 -479 0
-434 -479 0
-75 -120 0
-75 -435 0
-75 -480 0
-120 -435 0
-120 -480 0
-435 -480 0
683 684 685 686 687 688 689 690 691 692 693 694 0
-683 -684 0
-683 -685 0
-683 -686 0
-683 -687 0
-683 -688 0
-683 -689 0
-683 -690 0
-683 -691 0
-683 -692 0
-683 -693 0
-683 -694 0
-684 -685 0
-684 -686 0
-684 -687 0
-684 -688 0
-684 -689 0
-684 -690 0
-684 -691 0
-684 -692 0
-684 -693 0
-684 -694 0
-685 -686 0
-685 -687 0
-685 -688 0
-685 -689 0
-685 -690 0
-685 -691 0
-685 -692 0
-685 -693 0
-685 -694 0
-686 -687 0
-686 -688 0
-686 -689 0
-686 -690 0
-686 -691 0
-686 -692 0
-686 -693 0
-686 -694 0
-687 -688 0
-687 -689 0
-687 -690 0
-687 -691 0
-687 -692 0
-687 -693 0
-687 -694 0
-688 -689 0
-688 -690 0
-688 -691 0
-688 -692 0
-688 -693 0
-688 -694 0
-689 -690 0
-689 -691 0
-689 -692 0
-689 -693 0
-689 -694 0
-690 -691 0
-690 -692 0
-690 -693 0
-690 -694 0
-691 -692 0
-691 -693 0
-691 -694 0
-692 -693 0
-692 -694 0
-693 -694 0
-61 683 0
-62 683 684 0
-63 683 684 685 0
-64 683 684 685 686 0
-65 684 685 686 687 0
-66 685 686 687 688 0
-67 686 687 688 689 0
-68 687 688 689 690 0
-69 688 689 690 691 0
-70 689 690 691 692 0
-71 690 691 692 693 0
-72 691 692 693 694 0
-73 692 693 694 0
-74 693 694 0
-75 694 0
-106 683 0
-107 683 684 0
-108 683 684 685 0
-109 683 684 685 686 0
-110 684 685 686 687 0
-111 685 686 687 688 0
-112 686 687 688 689 0
-113 687 688 689 690 0
-114 688 689 690 691 0
-115 689 690 691 692 0
-116 690 691 692 693 0
-117 691 692 693 694 0
-118 692 693 694 0
-119 693 694 0
-120 694 0
-421 683 0
-422 683 684 0
-423 683 684 685 0
-424 683 684 685 686 0
-425 684 685 686 687 0
-426 685 686 687 688 0
-427 686 687 688 689 0
-428 687 688 689 690 0
-429 688 689 690 691 0
-430 689 690 691 692 0
-431 690 691 692 693 0
-432 691 692 693 694 0
-433 692 693 694 0
-434 693 694 0
-435 694 0
-466 683 0
-467 683 684 0
-468 683 684 685 0
-469 683 684 685 686 0
-470 684 685 686 687 0
-471 685 686 687 688 0
-472 686 687 688 689 0
-473 687 688 689 690 0
-474 688 689 690 691 0
-475 689 690 691 692 0
-476 690 691 692 693 0
-477 691 692 693 694 0
-478 692 693 694 0
-479 693 694 0
-480 694 0
-683 -65 0
-683 -66 0
-683 -67 0
-683 -68 0
-683 -69 0
-683 -70 0
-683 -71 0
-683 -72 0
-683 -73 0
-683 -74 0
-683 -75 0
-683 -110 0
-683 -111 0
-683 -112 0
-683 -113 0
-683 -114 0
-683 -115 0
-683 -116 0
-683 -117 0
-683 -118 0
-683 -119 0
-683 -120 0
-683 -425 0
-683 -426 0
-683 -427 0
-683 -428 0
-683 -429 0
-683 -430 0
-683 -431 0
-683 -432 0
-683 -433 0
-683 -434 0
-683 -435 0
-683 -470 0
-683 -471 0
-683 -472 0
-683 -473 0
-683 -474 0
-683 -475 0
-683 -476 0
-683 -477 0
-683 -478 0
-683 -479 0
-683 -480 0
-684 -61 0
-684 -66 0
-684 -67 0
-684 -68 0
-684 -69 0
-684 -70 0
-684 -71 0
-684 -72 0
-684 -73 0
-684 -74 0
-684 -75 0
-684 -106 0
-684 -111 0
-684 -112 0
-684 -113 0
-684 -114 0
-684 -115 0
-684 -116 0
-684 -117 0
-684 -118 0
-684 -119 0
-684 -120 0
-684 -421 0
-684 -426 0
-684 -427 0
-684 -428 0
-684 -429 0
-684 -430 0
-684 -431 0
-684 -432 0
-684 -433 0
-684 -434 0
-684 -435 0
-684 -466 0
-684 -471 0
-684 -472 0
-684 -473 0
-684 -474 0
-684 -475 0
-684 -476 0
-684 -477 0
-684 -478 0
-684 -479 0
-684 -480 0
-685 -61 0
-685 -62 0
-685 -67 0
-685 -68 0
-685 -69 0
-685 -70 0
-685 -71 0
-685 -72 0
-685 -73 0
-685 -74 0
-685 -75 0
-685 -106 0
-685 -107 0
-685 -112 0
-685 -113 0
-685 -114 0
-685 -115 0
-685 -116 0
-685 -117 0
-685 -118 0
-685 -119 0
-685 -120 0
-685 -421 0
-685 -422 0
-685 -427 0
-685 -428 0
-685 -429 0
-685 -430 0
-685 -431 0
-685 -432 0
-685 -433 0
-685 -434 0
-685 -435 0
-685 -466 0
-685 -467 0
-685 -472 0
-685 -473 0
-685 -474 0
-685 -475 0
-685 -476 0
-685 -477 0
-685 -478 0
-685 -479 0
-685 -480 0
-686 -61 0
-686 -62 0
-686 -63 0
-686 -68 0
-686 -69 0
-686 -70 0
-686 -71 0
-686 -72 0
-686 -73 0
-686 -74 0
-686 -75 0
-686 -106 0
-686 -107 0
-686 -108 0
-686 -113 0
-686 -114 0
-686 -115 0
-686 -116 0
-686 -117 0
-686 -118 0
-686 -119 0
-686 -120 0
-686 -421 0
-686 -422 0
-686 -423 0
-686 -428 0
-686 -429 0
-686 -430 0
-686 -431 0
-686 -432 0
-686 -433 0
-686 -434 0
-686 -435 0
-686 -466 0
-686 -467 0
-686 -468 0
-686 -473 0
-686 -474 0
-686 -475 0
-686 -476 0
-686 -477 0
-686 -478 0
-686 -479 0
-686 -480 0
-687 -61 0
-687 -62 0
-687 -63 0
-687 -64 0
-687 -69 0
-687 -70 0
-687 -71 0
-687 -72 0
-687 -73 0
-687 -74 0
-687 -75 0
-687 -106 0
-687 -107 0
-687 -108 0
-687 -109 0
-687 -114 0
-687 -115 0
-687 -116 0
-687 -117 0
-687 -118 0
-687 -119 0
-687 -120 0
-687 -421 0
-687 -422 0
-687 -423 0
-687 -424 0
-687 -429 0
-687 -430 0
-687 -431 0
-687 -432 0
-687 -433 0
-687 -434 0
-687 -435 0
-687 -466 0
-687 -467 0
-687 -468 0
-687 -469 0
-687 -474 0
-687 -475 0
-687 -476 0
-687 -477 0
-687 -478 0
-687 -479 0
-687 -480 0
-688 -61 0
-688 -62 0
-688 -63 0
-688 -64 0
-688 -65 0
-688 -70 0
-688 -71 0
-688 -72 0
-688 -73 0
-688 -74 0
-688 -75 0
-688 -106 0
-688 -107 0
-688 -108 0
-688 -109 0
-688 -110 0
-688 -115 0
-688 -116 0
-688 -117 0
-688 -118 0
-688 -119 0
-688 -120 0
-688 -421 0
-688 -422 0
-688 -423 0
-688 -424 0
-688 -425 0
-688 -430 0
-688 -431 0
-688 -432 0
-688 -433 0
-688 -434 0
-688 -435 0
-688 -466 0
-688 -467 0
-688 -468 0
-688 -469 0
-688 -470 0
-688 -475 0
-688 -476 0
-688 -477 0
-688 -478 0
-688 -479 0
-688 -480 0
-689 -61 0
-689 -62 0
-689 -63 0
-689 -64 0
-689 -65 0
-689 -66 0
-689 -71 0
-689 -72 0
-689 -73 0
-689 -74 0
-689 -75 0
-689 -106 0
-689 -107 0
-689 -108 0
-689 -109 0
-689 -110 0
-689 -111 0
-689 -116 0
-689 -117 0
-689 -118 0
-689 -119 0
-689 -120 0
-689 -421 0
-689 -422 0
-689 -423 0
-689 -424 0
-689 -425 0
-689 -426 0
-689 -431 0
-689 -432 0
-689 -433 0
-689 -434 0
-689 -435 0
-689 -466 0
-689 -467 0
-689 -468 0
-689 -469 0
-689 -470 0
-689 -471 0
-689 -476 0
-689 -477 0
-689 -478 0
-689 -479 0
-689 -480 0
-690 -61 0
-690 -62 0
-690 -63 0
-690 -64 0
-690 -65 0
-690 -66 0
-690 -67 0
-690 -72 0
-690 -73 0
-690 -74 0
-690 -75 0
-690 -106 0
-690 -107 0
-690 -108 0
-690 -109 0
-690 -110 0
-690 -111 0
-690 -112 0
-690 -117 0
-690 -118 0
-690 -119 0
-690 -120 0
-690 -421 0
-690 -422 0
-690 -423 0
-690 -424 0
-690 -425 0
-690 -426 0
-690 -427 0
-690 -432 0
-690 -433 0
-690 -434 0
-690 -435 0
-690 -466 0
-690 -467 0
-690 -468 0
-690 -469 0
-690 -470 0
-690 -471 0
-690 -472 0
-690 -477 0
-690 -478 0
-690 -479 0
-690 -480 0
-691 -61 0
-691 -62 0
-691 -63 0
-691 -64 0
-691 -65 0
-691 -66 0
-691 -67 0
-691 -68 0
-691 -73 0
-691 -74 0
-691 -75 0
-691 -106 0
-691 -107 0
-691 -108 0
-691 -109 0
-691 -110 0
-691 -111 0
-691 -112 0
-691 -113 0
-691 -118 0
-691 -119 0
-691 -120 0
-691 -421 0
-691 -422 0
-691 -423 0
-691 -424 0
-691 -425 0
-691 -426 0
-691 -427 0
-691 -428 0
-691 -433 0
-691 -434 0
-691 -435 0
-691 -466 0
-691 -467 0
-691 -468 0
-691 -469 0
-691 -470 0
-691 -471 0
-691 -472 0
-691 -473 0
-691 -478 0
-691 -479 0
-691 -480 0
-692 -61 0
-692 -62 0
-692 -63 0
-692 -64 0
-692 -65 0
-692 -66 0
-692 -67 0
-692 -68 0
-692 -69 0
-692 -74 0
-692 -75 0
-692 -106 0
-692 -107 0
-692 -108 0
-692 -109 0
-692 -110 0
-692 -111 0
-692 -112 0
-692 -113 0
-692 -114 0
-692 -119 0
-692 -120 0
-692 -421 0
-692 -422 0
-692 -423 0
-692 -424 0
-692 -425 0
-692 -426 0
-692 -427 0
-692 -428 0
-692 -429 0
-692 -434 0
-692 -435 0
-692 -466 0
-692 -467 0
-692 -468 0
-692 -469 0
-692 -470 0
-692 -471 0
-692 -472 0
-692 -473 0
-692 -474 0
-692 -479 0
-692 -480 0
-693 -61 0
-693 -62 0
-693 -63 0
-693 -64 0
-693 -65 0
-693 -66 0
-693 -67 0
-693 -68 0
-693 -69 0
-693 -70 0
-693 -75 0
-693 -106 0
-693 -107 0
-693 -108 0
-693 -109 0
-693 -110 0
-693 -111 0
-693 -112 0
-693 -113 0
-693 -114 0
-693 -115 0
-693 -120 0
-693 -421 0
-693 -422 0
-693 -423 0
-693 -424 0
-693 -425 0
-693 -426 0
-693 -427 0
-693 -428 0
-693 -429 0
-693 -430 0
-693 -435 0
-693 -466 0
-693 -467 0
-693 -468 0
-693 -469 0
-693 -470 0
-693 -471 0
-693 -472 0
-693 -473 0
-693 -474 0
-693 -475 0
-693 -480 0
-694 -61 0
-694 -62 0
-694 -63 0
-694 -64 0
-694 -65 0
-694 -66 0
-694 -67 0
-694 -68 0
-694 -69 0
-694 -70 0
-694 -71 0
-694 -106 0
-694 -107 0
-694 -108 0
-694 -109 0
-694 -110 0
-694 -111 0
-694 -112 0
-694 -113 0
-694 -114 0
-694 -115 0
-694 -116 0
-694 -421 0
-694 -422 0
-694 -423 0
-694 -424 0
-694 -425 0
-694 -426 0
-694 -427 0
-694 -428 0
-694 -429 0
-694 -430 0
-694 -431 0
-694 -466 0
-694 -467 0
-694 -468 0
-694 -469 0
-694 -470 0
-694 -471 0
-694 -472 0
-694 -473 0
-694 -474 0
-694 -475 0
-694 -476 0
-16 -256 0
-16 -436 0
-256 -436 0
-17 -257 0
-17 -437 0
-257 -437 0
-18 -258 0
-18 -438 0
-258 -438 0
-19 -259 0
-19 -439 0
-259 -439 0
-20 -260 0
-20 -440 0
-260 -440 0
-21 -261 0
-21 -441 0
-261 -441 0
-22 -262 0
-22 -442 0
-262 -442 0
-23 -263 0
-23 -443 0
-263 -443 0
-24 -264 0
-24 -444 0
-264 -444 0
-25 -265 0
-25 -445 0
-265 -445 0
-26 -266 0
-26 -446 0
-266 -446 0
-27 -267 0
-27 -447 0
-267 -447 0
-28 -268 0
-28 -448 0
-268 -448 0
-29 -269 0
-29 -449 0
-269 -449 0
-30 -270 0
-30 -450 0
-270 -450 0
695 696 697 698 699 700 701 702 703 704 705 706 707 0
-695 -696 0
-695 -697 0
-695 -698 0
-695 -699 0
-695 -700 0
-695 -701 0
-695 -702 0
-695 -703 0
-695 -704 0
-695 -705 0
-695 -706 0
-695 -707 0
-696 -697 0
-696 -698 0
-696 -699 0
-696 -700 0
-696 -701 0
-696 -702 0
-696 -703 0
-696 -704 0
-696 -705 0
-696 -706 0
-696 -707 0
-697 -698 0
-697 -699 0
-697 -700 0
-697 -701 0
-697 -702 0
-697 -703 0
-697 -704 0
-697 -705 0
-697 -706 0
-697 -707 0
-698 -699 0
-698 -700 0
-698 -701 0
-698 -702 0
-698 -703 0
-698 -704 0
-698 -705 0
-698 -706 0
-698 -707 0
-699 -700 0
-699 -701 0
-699 -702 0
-699 -703 0
-699 -704 0
-699 -705 0
-699 -706 0
-699 -707 0
-700 -701 0
-700 -702 0
-700 -703 0
-700 -704 0
-700 -705 0
-700 -706 0
-700 -707 0
-701 -702 0
-701 -703 0
-701 -704 0
-701 -705 0
-701 -706 0
-701 -707 0
-702 -703 0
-702 -704 0
-702 -705 0
-702 -706 0
-702 -707 0
-703 -704 0
-703 -705 0
-703 -706 0
-703 -707 0
-704 -705 0
-704 -706 0
-704 -707 0
-705 -706 0
-705 -707 0
-706 -707 0
-16 695 0
-17 695 696 0
-18 695 696 697 0
-19 696 697 698 0
-20 697 698 699 0
-21 698 699 700 0
-22 699 700 701 0
-23 700 701 702 0
-24 701 702 703 0
-25 702 703 704 0
-26 703 704 705 0
-27 704 705 706 0
-28 705 706 707 0
-29 706 707 0
-30 707 0
-256 695 0
-257 695 696 0
-258 695 696 697 0
-259 696 697 698 0
-260 697 698 699 0
-261 698 699 700 0
-262 699 700 701 0
-263 700 701 702 0
-264 701 702 703 0
-265 702 703 704 0
-266 703 704 705 0
-267 704 705 706 0
-268 705 706 707 0
-269 706 707 0
-270 707 0
-436 695 0
-437 695 696 0
-438 695 696 697 0
-439 696 697 698 0
-440 697 698 699 0
-441 698 699 700 0
-442 699 700 701 0
-443 700 701 702 0
-444 701 702 703 0
-445 702 703 704 0
-446 703 704 705 0
-447 704 705 706 0
-448 705 706 707 0
-449 706 707 0
-450 707 0
-695 -19 0
-695 -20 0
-695 -21 0
-695 -22 0
-695 -23 0
-695 -24 0
-695 -25 0
-695 -26 0
-695 -27 0
-695 -28 0
-695 -29 0
-695 -30 0
-695 -259 0
-695 -260 0
-695 -261 0
-695 -262 0
-695 -263 0
-695 -264 0
-695 -265 0
-695 -266 0
-695 -267 0
-695 -268 0
-695 -269 0
-695 -270 0
-695 -439 0
-695 -440 0
-695 -441 0
-695 -442 0
-695 -443 0
-695 -444 0
-695 -445 0
-695 -446 0
-695 -447 0
-695 -448 0
-695 -449 0
-695 -450 0
-696 -16 0
-696 -20 0
-696 -21 0
-696 -22 0
-696 -23 0
-696 -24 0
-696 -25 0
-696 -26 0
-696 -27 0
-696 -28 0
-696 -29 0
-696 -30 0
-696 -256 0
-696 -260 0
-696 -261 0
-696 -262 0
-696 -263 0
-696 -264 0
-696 -265 0
-696 -266 0
-696 -267 0
-696 -268 0
-696 -269 0
-696 -270 0
-696 -436 0
-696 -440 0
-696 -441 0
-696 -442 0
-696 -443 0
-696 -444 0
-696 -445 0
-696 -446 0
-696 -447 0
-696 -448 0
-696 -449 0
-696 -450 0
-697 -16 0
-697 -17 0
-697 -21 0
-697 -22 0
-697 -23 0
-697 -24 0
-697 -25 0
-697 -26 0
-697 -27 0
-697 -28 0
-697 -29 0
-697 -30 0
-697 -256 0
-697 -257 0
-697 -261 0
-697 -262 0
-697 -263 0
-697 -264 0
-697 -265 0
-697 -266 0
-697 -267 0
-697 -268 0
-697 -269 0
-697 -270 0
-697 -436 0
-697 -437 0
-697 -441 0
-697 -442 0
-697 -443 0
-697 -444 0
-697 -445 0
-697 -446 0
-697 -447 0
-697 -448 0
-697 -449 0
-697 -450 0
-698 -16 0
-698 -17 0
-698 -18 0
-698 -22 0
-698 -23 0
-698 -24 0
-698 -25 0
-698 -26 0
-698 -27 0
-698 -28 0
-698 -29 0
-698 -30 0
-698 -256 0
-698 -257 0
-698 -258 0
-698 -262 0
-698 -263 0
-698 -264 0
-698 -265 0
-698 -266 0
-698 -267 0
-698 -268 0
-698 -269 0
-698 -270 0
-698 -436 0
-698 -437 0
-698 -438 0
-698 -442 0
-698 -443 0
-698 -444 0
-698 -445 0
-698 -446 0
-698 -447 0
-698 -448 0
-698 -449 0
-698 -450 0
-699 -16 0
-699 -17 0
-699 -18 0
-699 -19 0
-699 -23 0
-699 -24 0
-699 -25 0
-699 -26 0
-699 -27 0
-699 -28 0
-699 -29 0
-699 -30 0
-699 -256 0
-699 -257 0
-699 -258 0
-699 -259 0
-699 -263 0
-699 -264 0
-699 -265 0
-699 -266 0
-699 -267 0
-699 -268 0
-699 -269 0
-699 -270 0
-699 -436 0
-699 -437 0
-699 -438 0
-699 -439 0
-699 -443 0
-699 -444 0
-699 -445 0
-699 -446 0
-699 -447 0
-699 -448 0
-699 -449 0
-699 -450 0
-700 -16 0
-700 -17 0
-700 -18 0
-700 -19 0
-700 -20 0
-700 -24 0
-700 -25 0
-700 -26 0
-700 -27 0
-700 -28 0
-700 -29 0
-700 -30 0
-700 -256 0
-700 -257 0
-700 -258 0
-700 -259 0
-700 -260 0
-700 -264 0
-700 -265 0
-700 -266 0
-700 -267 0
-700 -268 0
-700 -269 0
-700 -270 0
-700 -436 0
-700 -437 0
-700 -438 0
-700 -439 0
-700 -440 0
-700 -444 0
-700 -445 0
-700 -446 0
-700 -447 0
-700 -448 0
-700 -449 0
-700 -450 0
-701 -16 0
-701 -17 0
-701 -18 0
-701 -19 0
-701 -20 0
-701 -21 0
-701 -25 0
-701 -26 0
-701 -27 0
-701 -28 0
-701 -29 0
-701 -30 0
-701 -256 0
-701 -257 0
-701 -258 0
-701 -259 0
-701 -260 0
-701 -261 0
-701 -265 0
-701 -266 0
-701 -267 0
-701 -268 0
-701 -269 0
-701 -270 0
-701 -436 0
-701 -437 0
-701 -438 0
-701 -439 0
-701 -440 0
-701 -441 0
-701 -445 0
-701 -446 0
-701 -447 0
-701 -448 0
-701 -449 0
-701 -450 0
-702 -16 0
-702 -17 0
-702 -18 0
-702 -19 0
-702 -20 0
-702 -21 0
-702 -22 0
-702 -26 0
-702 -27 0
-702 -28 0
-702 -29 0
-702 -30 0
-702 -256 0
-702 -257 0
-702 -258 0
-702 -259 0
-702 -260 0
-702 -261 0
-702 -262 0
-702 -266 0
-702 -267 0
-702 -268 0
-702 -269 0
-702 -270 0
-702 -436 0
-702 -437 0
-702 -438 0
-702 -439 0
-702 -440 0
-702 -441 0
-702 -442 0
-702 -446 0
-702 -447 0
-702 -448 0
-702 -449 0
-702 -450 0
-703 -16 0
-703 -17 0
-703 -18 0
-703 -19 0
-703 -20 0
-703 -21 0
-703 -22 0
-703 -23 0
-703 -27 0
-703 -28 0
-703 -29 0
-703 -30 0
-703 -256 0
-703 -257 0
-703 -258 0
-703 -259 0
-703 -260 0
-703 -261 0
-703 -262 0
-703 -263 0
-703 -267 0
-703 -268 0
-703 -269 0
-703 -270 0
-703 -436 0
-703 -437 0
-703 -438 0
-703 -439 0
-703 -440 0
-703 -441 0
-703 -442 0
-703 -443 0
-703 -447 0
-703 -448 0
-703 -449 0
-703 -450 0
-704 -16 0
-704 -17 0
-704 -18 0
-704 -19 0
-704 -20 0
-704 -21 0
-704 -22 0
-704 -23 0
-704 -24 0
-704 -28 0
-704 -29 0
-704 -30 0
-704 -256 0
-704 -257 0
-704 -258 0
-704 -259 0
-704 -260 0
-704 -261 0
-704 -262 0
-704 -263 0
-704 -264 0
-704 -268 0
-704 -269 0
-704 -270 0
-704 -436 0
-704 -437 0
-704 -438 0
-704 -439 0
-704 -440 0
-704 -441 0
-704 -442 0
-704 -443 0
-704 -444 0
-704 -448 0
-704 -449 0
-704 -450 0
-705 -16 0
-705 -17 0
-705 -18 0
-705 -19 0
-705 -20 0
-705 -21 0
-705 -22 0
-705 -23 0
-705 -24 0
-705 -25 0
-705 -29 0
-705 -30 0
-705 -256 0
-705 -257 0
-705 -258 0
-705 -259 0
-705 -260 0
-705 -261 0
-705 -262 0
-705 -263 0
-705 -264 0
-705 -265 0
-705 -269 0
-705 -270 0
-705 -436 0
-705 -437 0
-705 -438 0
-705 -439 0
-705 -440 0
-705 -441 0
-705 -442 0
-705 -443 0
-705 -444 0
-705 -445 0
-705 -449 0
-705 -450 0
-706 -16 0
-706 -17 0
-706 -18 0
-706 -19 0
-706 -20 0
-706 -21 0
-706 -22 0
-706 -23 0
-706 -24 0
-706 -25 0
-706 -26 0
-706 -30 0
-706 -256 0
-706 -257 0
-706 -258 0
-706 -259 0
-706 -260 0
-706 -261 0
-706 -262 0
-706 -263 0
-706 -264 0
-706 -265 0
-706 -266 0
-706 -270 0
-706 -436 0
-706 -437 0
-706 -438 0
-706 -439 0
-706 -440 0
-706 -441 0
-706 -442 0
-706 -443 0
-706 -444 0
-706 -445 0
-706 -446 0
-706 -450 0
-707 -16 0
-707 -17 0
-707 -18 0
-707 -19 0
-707 -20 0
-707 -21 0
-707 -22 0
-707 -23 0
-707 -24 0
-707 -25 0
-707 -26 0
-707 -27 0
-707 -256 0
-707 -257 0
-707 -258 0
-707 -259 0
-707 -260 0
-707 -261 0
-707 -262 0
-707 -263 0
-707 -264 0
-707 -265 0
-707 -266 0
-707 -267 0
-707 -436 0
-707 -437 0
-707 -438 0
-707 -439 0
-707 -440 0
-707 -441 0
-707 -442 0
-707 -443 0
-707 -444 0
-707 -445 0
-707 -446 0
-707 -447 0
-31 -301 0
-31 -481 0
-301 -481 0
-32 -302 0
-32 -482 0
-302 -482 0
-33 -303 0
-33 -483 0
-303 -483 0
-34 -304 0
-34 -484 0
-304 -484 0
-35 -305 0
-35 -485 0
-305 -485 0
-36 -306 0
-36 -486 0
-306 -486 0
-37 -307 0
-37 -487 0
-307 -487 0
-38 -308 0
-38 -488 0
-308 -488 0
-39 -309 0
-39 -489 0
-309 -489 0
-40 -310 0
-40 -490 0
-310 -490 0
-41 -311 0
-41 -491 0
-311 -491 0
-42 -312 0
-42 -492 0
-312 -492 0
-43 -313 0
-43 -493 0
-313 -493 0
-44 -314 0
-44 -494 0
-314 -494 0
-45 -315 0
-45 -495 0
-315 -495 0
708 709 710 711 712 713 714 715 716 717 718 719 720 0
-708 -709 0
-708 -710 0
-708 -711 0
-708 -712 0
-708 -713 0
-708 -714 0
-708 -715 0
-708 -716 0
-708 -717 0
-708 -718 0
-708 -719 0
-708 -720 0
-709 -710 0
-709 -711 0
-709 -712 0
-709 -713 0
-709 -714 0
-709 -715 0
-709 -716 0
-709 -717 0
-709 -718 0
-709 -719 0
-709 -720 0
-710 -711 0
-710 -712 0
-710 -713 0
-710 -714 0
-710 -715 0
-710 -716 0
-710 -717 0
-710 -718 0
-710 -719 0
-710 -720 0
-711 -712 0
-711 -713 0
-711 -714 0
-711 -715 0
-711 -716 0
-711 -717 0
-711 -718 0
-711 -719 0
-711 -720 0
-712 -713 0
-712 -714 0
-712 -715 0
-712 -716 0
-712 -717 0
-712 -718 0
-712 -719 0
-712 -720 0
-713 -714 0
-713 -715 0
-713 -716 0
-713 -717 0
-713 -718 0
-713 -719 0
-713 -720 0
-714 -715 0
-714 -716 0
-714 -717 0
-714 -718 0
-714 -719 0
-714 -720 0
-715 -716 0
-715 -717 0
-715 -718 0
-715 -719 0
-715 -720 0
-716 -717 0
-716 -718 0
-716 -719 0
-716 -720 0
-717 -718 0
-717 -719 0
-717 -720 0
-718 -719 0
-718 -720 0
-719 -720 0
-31 708 0
-32 708 709 0
-33 708 709 710 0
-34 709 710 711 0
-35 710 711 712 0
-36 711 712 713 0
-37 712 713 714 0
-38 713 714 715 0
-39 714 715 716 0
-40 715 716 717 0
-41 716 717 718 0
-42 717 718 719 0
-43 718 719 720 0
-44 719 720 0
-45 720 0
-301 708 0
-302 708 709 0
-303 708 709 710 0
-304 709 710 711 0
-305 710 711 712 0
-306 711 712 713 0
-307 712 713 714 0
-308 713 714 715 0
-309 714 715 716 0
-310 715 716 717 0
-311 716 717 718 0
-312 717 718 719 0
-313 718 719 720 0
-314 719 720 0
-315 720 0
-481 708 0
-482 708 709 0
-483 708 709 710 0
-484 709 710 711 0
-485 710 711 712 0
-486 711 712 713 0
-487 712 713 714 0
-488 713 714 715 0
-489 714 715 716 0
-490 715 716 717 0
-491 716 717 718 0
-492 717 718 719 0
-493 718 719 720 0
-494 719 720 0
-495 720 0
-708 -34 0
-708 -35 0
-708 -36 0
-708 -37 0
-708 -38 0
-708 -39 0
-708 -40 0
-708 -41 0
-708 -42 0
-708 -43 0
-708 -44 0
-708 -45 0
-708 -304 0
-708 -305 0
-708 -306 0
-708 -307 0
-708 -308 0
-708 -309 0
-708 -310 0
-708 -311 0
-708 -312 0
-708 -313 0
-708 -314 0
-708 -315 0
-708 -484 0
-708 -485 0
-708 -486 0
-708 -487 0
-708 -488 0
-708 -489 0
-708 -490 0
-708 -491 0
-708 -492 0
-708 -493 0
-708 -494 0
-708 -495 0
-709 -31 0
-709 -35 0
-709 -36 0
-709 -37 0
-709 -38 0
-709 -39 0
-709 -40 0
-709 -41 0
-709 -42 0
-709 -43 0
-709 -44 0
-709 -45 0
-709 -301 0
-709 -305 0
-709 -306 0
-709 -307 0
-709 -308 0
-709 -309 0
-709 -310 0
-709 -311 0
-709 -312 0
-709 -313 0
-709 -314 0
-709 -315 0
-709 -481 0
-709 -485 0
-709 -486 0
-709 -487 0
-709 -488 0
-709 -489 0
-709 -490 0
-709 -491 0
-709 -492 0
-709 -493 0
-709 -494 0
-709 -495 0
-710 -31 0
-710 -32 0
-710 -36 0
-710 -37 0
-710 -38 0
-710 -39 0
-710 -40 0
-710 -41 0
-710 -42 0
-710 -43 0
-710 -44 0
-710 -45 0
-710 -301 0
-710 -302 0
-710 -306 0
-710 -307 0
-710 -308 0
-710 -309 0
-710 -310 0
-710 -311 0
-710 -312 0
-710 -313 0
-710 -314 0
-710 -315 0
-710 -481 0
-710 -482 0
-710 -486 0
-710 -487 0
-710 -488 0
-710 -489 0
-710 -490 0
-710 -491 0
-710 -492 0
-710 -493 0
-710 -494 0
-710 -495 0
-711 -31 0
-711 -32 0
-711 -33 0
-711 -37 0
-711 -38 0
-711 -39 0
-711 -40 0
-711 -41 0
-711 -42 0
-711 -43 0
-711 -44 0
-711 -45 0
-711 -301 0
-711 -302 0
-711 -303 0
-711 -307 0
-711 -308 0
-711 -309 0
-711 -310 0
-711 -311 0
-711 -312 0
-711 -313 0
-711 -314 0
-711 -315 0
-711 -481 0
-711 -482 0
-711 -483 0
-711 -487 0
-711 -488 0
-711 -489 0
-711 -490 0
-711 -491 0
-711 -492 0
-711 -493 0
-711 -494 0
-711 -495 0
-712 -31 0
-712 -32 0
-712 -33 0
-712 -34 0
-712 -38 0
-712 -39 0
-712 -40 0
-712 -41 0
-712 -42 0
-712 -43 0
-712 -44 0
-712 -45 0
-712 -301 0
-712 -302 0
-712 -303 0
-712 -304 0
-712 -308 0
-712 -309 0
-712 -310 0
-712 -311 0
-712 -312 0
-712 -313 0
-712 -314 0
-712 -315 0
-712 -481 0
-712 -482 0
-712 -483 0
-712 -484 0
-712 -488 0
-712 -489 0
-712 -490 0
-712 -491 0
-712 -492 0
-712 -493 0
-712 -494 0
-712 -495 0
-713 -31 0
-713 -32 0
-713 -33 0
-713 -34 0
-713 -35 0
-713 -39 0
-713 -40 0
-713 -41 0
-713 -42 0
-713 -43 0
-713 -44 0
-713 -45 0
-713 -301 0
-713 -302 0
-713 -303 0
-713 -304 0
-713 -305 0
-713 -309 0
-713 -310 0
-713 -311 0
-713 -312 0
-713 -313 0
-713 -314 0
-713 -315 0
-713 -481 0
-713 -482 0
-713 -483 0
-713 -484 0
-713 -485 0
-713 -489 0
-713 -490 0
-713 -491 0
-713 -492 0
-713 -493 0
-713 -494 0
-713 -495 0
-714 -31 0
-714 -32 0
-714 -33 0
-714 -34 0
-714 -35 0
-714 -36 0
-714 -40 0
-714 -41 0
-714 -42 0
-714 -43 0
-714 -44 0
-714 -45 0
-714 -301 0
-714 -302 0
-714 -303 0
-714 -304 0
-714 -305 0
-714 -306 0
-714 -310 0
-714 -311 0
-714 -312 0
-714 -313 0
-714 -314 0
-714 -315 0
-714 -481 0
-714 -482 0
-714 -483 0
-714 -484 0
-714 -485 0
-714 -486 0
-714 -490 0
-714 -491 0
-714 -492 0
-714 -493 0
-714 -494 0
-714 -495 0
-715 -31 0
-715 -32 0
-715 -33 0
-715 -34 0
-715 -35 0
-715 -36 0
-715 -37 0
-715 -41 0
-715 -42 0
-715 -43 0
-715 -44 0
-715 -45 0
-715 -301 0
-715 -302 0
-715 -303 0
-715 -304 0
-715 -305 0
-715 -306 0
-715 -307 0
-715 -311 0
-715 -312 0
-715 -313 0
-715 -314 0
-715 -315 0
-715 -481 0
-715 -482 0
-715 -483 0
-715 -484 0
-715 -485 0
-715 -486 0
-715 -487 0
-715 -491 0
-715 -492 0
-715 -493 0
-715 -494 0
-715 -495 0
-716 -31 0
-716 -32 0
-716 -33 0
-716 -34 0
-716 -35 0
-716 -36 0
-716 -37 0
-716 -38 0
-716 -42 0
-716 -43 0
-716 -44 0
-716 -45 0
-716 -301 0
-716 -302 0
-716 -303 0
-716 -304 0
-716 -305 0
-716 -306 0
-716 -307 0
-716 -308 0
-716 -312 0
-716 -313 0
-716 -314 0
-716 -315 0
-716 -481 0
-716 -482 0
-716 -483 0
-716 -484 0
-716 -485 0
-716 -486 0
-716 -487 0
-716 -488 0
-716 -492 0
-716 -493 0
-716 -494 0
-716 -495 0
-717 -31 0
-717 -32 0
-717 -33 0
-717 -34 0
-717 -35 0
-717 -36 0
-717 -37 0
-717 -38 0
-717 -39 0
-717 -43 0
-717 -44 0
-717 -45 0
-717 -301 0
-717 -302 0
-717 -303 0
-717 -304 0
-717 -305 0
-717 -306 0
-717 -307 0
-717 -308 0
-717 -309 0
-717 -313 0
-717 -314 0
-717 -315 0
-717 -481 0
-717 -482 0
-717 -483 0
-717 -484 0
-717 -485 0
-717 -486 0
-717 -487 0
-717 -488 0
-717 -489 0
-717 -493 0
-717 -494 0
-717 -495 0
-718 -31 0
-718 -32 0
-718 -33 0
-718 -34 0
-718 -35 0
-718 -36 0
-718 -37 0
-718 -38 0
-718 -39 0
-718 -40 0
-718 -44 0
-718 -45 0
-718 -301 0
-718 -302 0
-718 -303 0
-718 -304 0
-718 -305 0
-718 -306 0
-718 -307 0
-718 -308 0
-718 -309 0
-718 -310 0
-718 -314 0
-718 -315 0
-718 -481 0
-718 -482 0
-718 -483 0
-718 -484 0
-718 -485 0
-718 -486 0
-718 -487 0
-718 -488 0
-718 -489 0
-718 -490 0
-718 -494 0
-718 -495 0
-719 -31 0
-719 -32 0
-719 -33 0
-719 -34 0
-719 -35 0
-719 -36 0
-719 -37 0
-719 -38 0
-719 -39 0
-719 -40 0
-719 -41 0
-719 -45 0
-719 -301 0
-719 -302 0
-719 -303 0
-719 -304 0
-719 -305 0
-719 -306 0
-719 -307 0
-719 -308 0
-719 -309 0
-719 -310 0
-719 -311 0
-719 -315 0
-719 -481 0
-719 -482 0
-719 -483 0
-719 -484 0
-719 -485 0
-719 -486 0
-719 -487 0
-719 -488 0
-719 -489 0
-719 -490 0
-719 -491 0
-719 -495 0
-720 -31 0
-720 -32 0
-720 -33 0
-720 -34 0
-720 -35 0
-720 -36 0
-720 -37 0
-720 -38 0
-720 -39 0
-720 -40 0
-720 -41 0
-720 -42 0
-720 -301 0
-720 -302 0
-720 -303 0
-720 -304 0
-720 -305 0
-720 -306 0
-720 -307 0
-720 -308 0
-720 -309 0
-720 -310 0
-720 -311 0
-720 -312 0
-720 -481 0
-720 -482 0
-720 -483 0
-720 -484 0
-720 -485 0
-720 -486 0
-720 -487 0
-720 -488 0
-720 -489 0
-720 -490 0
-720 -491 0
-720 -492 0
-76 -166 0
-76 -346 0
-166 -346 0
-77 -167 0
-77 -347 0
-167 -347 0
-78 -168 0
-78 -348 0
-168 -348 0
-79 -169 0
-79 -349 0
-169 -349 0
-80 -170 0
-80 -350 0
-170 -350 0
-81 -171 0
-81 -351 0
-171 -351 0
-82 -172 0
-82 -352 0
-172 -352 0
-83 -173 0
-83 -353 0
-173 -353 0
-84 -174 0
-84 -354 0
-174 -354 0
-85 -175 0
-85 -355 0
-175 -355 0
-86 -176 0
-86 -356 0
-176 -356 0
-87 -177 0
-87 -357 0
-177 -357 0
-88 -178 0
-88 -358 0
-178 -358 0
-89 -179 0
-89 -359 0
-179 -359 0
-90 -180 0
-90 -360 0
-180 -360 0
721 722 723 724 725 726 727 728 729 730 731 732 733 0
-721 -722 0
-721 -723 0
-721 -724 0
-721 -725 0
-721 -726 0
-721 -727 0
-721 -728 0
-721 -729 0
-721 -730 0
-721 -731 0
-721 -732 0
-721 -733 0
-722 -723 0
-722 -724 0
-722 -725 0
-722 -726 0
-722 -727 0
-722 -728 0
-722 -729 0
-722 -730 0
-722 -731 0
-722 -732 0
-722 -733 0
-723 -724 0
-723 -725 0
-723 -726 0
-723 -727 0
-723 -728 0
-723 -729 0
-723 -730 0
-723 -731 0
-723 -732 0
-723 -733 0
-724 -725 0
-724 -726 0
-724 -727 0
-724 -728 0
-724 -729 0
-724 -730 0
-724 -731 0
-724 -732 0
-724 -733 0
-725 -726 0
-725 -727 0
-725 -728 0
-725 -729 0
-725 -730 0
-725 -731 0
-725 -732 0
-725 -733 0
-726 -727 0
-726 -728 0
-726 -729 0
-726 -730 0
-726 -731 0
-726 -732 0
-726 -733 0
-727 -728 0
-727 -729 0
-727 -730 0
-727 -731 0
-727 -732 0
-727 -733 0
-728 -729 0
-728 -730 0
-728 -731 0
-728 -732 0
-728 -733 0
-729 -730 0
-729 -731 0
-729 -732 0
-729 -733 0
-730 -731 0
-730 -732 0
-730 -733 0
-731 -732 0
-731 -733 0
-732 -733 0
-76 721 0
-77 721 722 0
-78 721 722 723 0
-79 722 723 724 0
-80 723 724 725 0
-81 724 725 726 0
-82 725 726 727 0
-83 726 727 728 0
-84 727 728 729 0
-85 728 729 730 0
-86 729 730 731 0
-87 730 731 732 0
-88 731 732 733 0
-89 732 733 0
-90 733 0
-166 721 0
-167 721 722 0
-168 721 722 723 0
-169 722 723 724 0
-170 723 724 725 0
-171 724 725 726 0
-172 725 726 727 0
-173 726 727 728 0
-174 727 728 729 0
-175 728 729 730 0
-176 729 730 731 0
-177 730 731 732 0
-178 731 732 733 0
-179 732 733 0
-180 733 0
-346 721 0
-347 721 722 0
-348 721 722 723 0
-349 722 723 724 0
-350 723 724 725 0
-351 724 725 726 0
-352 725 726 727 0
-353 726 727 728 0
-354 727 728 729 0
-355 728 729 730 0
-356 729 730 731 0
-357 730 731 732 0
-358 731 732 733 0
-359 732 733 0
-360 733 0
-721 -79 0
-721 -80 0
-721 -81 0
-721 -82 0
-721 -83 0
-721 -84 0
-721 -85 0
-721 -86 0
-721 -87 0
-721 -88 0
-721 -89 0
-721 -90 0
-721 -169 0
-721 -170 0
-721 -171 0
-721 -172 0
-721 -173 0
-721 -174 0
-721 -175 0
-721 -176 0
-721 -177 0
-721 -178 0
-721 -179 0
-721 -180 0
-721 -349 0
-721 -350 0
-721 -351 0
-721 -352 0
-721 -353 0
-721 -354 0
-721 -355 0
-721 -356 0
-721 -357 0
-721 -358 0
-721 -359 0
-721 -360 0
-722 -76 0
-722 -80 0
-722 -81 0
-722 -82 0
-722 -83 0
-722 -84 0
-722 -85 0
-722 -86 0
-722 -87 0
-722 -88 0
-722 -89 0
-722 -90 0
-722 -166 0
-722 -170 0
-722 -171 0
-722 -172 0
-722 -173 0
-722 -174 0
-722 -175 0
-722 -176 0
-722 -177 0
-722 -178 0
-722 -179 0
-722 -180 0
-722 -346 0
-722 -350 0
-722 -351 0
-722 -352 0
-722 -353 0
-722 -354 0
-722 -355 0
-722 -356 0
-722 -357 0
-722 -358 0
-722 -359 0
-722 -360 0
-723 -76 0
-723 -77 0
-723 -81 0
-723 -82 0
-723 -83 0
-723 -84 0
-723 -85 0
-723 -86 0
-723 -87 0
-723 -88 0
-723 -89 0
-723 -90 0
-723 -166 0
-723 -167 0
-723 -171 0
-723 -172 0
-723 -173 0
-723 -174 0
-723 -175 0
-723 -176 0
-723 -177 0
-723 -178 0
-723 -179 0
-723 -180 0
-723 -346 0
-723 -347 0
-723 -351 0
-723 -352 0
-723 -353 0
-723 -354 0
-723 -355 0
-723 -356 0
-723 -357 0
-723 -358 0
-723 -359 0
-723 -360 0
-724 -76 0
-724 -77 0
-724 -78 0
-724 -82 0
-724 -83 0
-724 -84 0
-724 -85 0
-724 -86 0
-724 -87 0
-724 -88 0
-724 -89 0
-724 -90 0
-724 -166 0
-724 -167 0
-724 -168 0
-724 -172 0
-724 -173 0
-724 -174 0
-724 -175 0
-724 -176 0
-724 -177 0
-724 -178 0
-724 -179 0
-724 -180 0
-724 -346 0
-724 -347 0
-724 -348 0
-724 -352 0
-724 -353 0
-724 -354 0
-724 -355 0
-724 -356 0
-724 -357 0
-724 -358 0
-724 -359 0
-724 -360 0
-725 -76 0
-725 -77 0
-725 -78 0
-725 -79 0
-725 -83 0
-725 -84 0
-725 -85 0
-725 -86 0
-725 -87 0
-725 -88 0
-725 -89 0
-725 -90 0
-725 -166 0
-725 -167 0
-725 -168 0
-725 -169 0
-725 -173 0
-725 -174 0
-725 -175 0
-725 -176 0
-725 -177 0
-725 -178 0
-725 -179 0
-725 -180 0
-725 -346 0
-725 -347 0
-725 -348 0
-725 -349 0
-725 -353 0
-725 -354 0
-725 -355 0
-725 -356 0
-725 -357 0
-725 -358 0
-725 -359 0
-725 -360 0
-726 -76 0
-726 -77 0
-726 -78 0
-726 -79 0
-726 -80 0
-726 -84 0
-726 -85 0
-726 -86 0
-726 -87 0
-726 -88 0
-726 -89 0
-726 -90 0
-726 -166 0
-726 -167 0
-726 -168 0
-726 -169 0
-726 -170 0
-726 -174 0
-726 -175 0
-726 -176 0
-726 -177 0
-726 -178 0
-726 -179 0
-726 -180 0
-726 -346 0
-726 -347 0
-726 -348 0
-726 -349 0
-726 -350 0
-726 -354 0
-726 -355 0
-726 -356 0
-726 -357 0
-726 -358 0
-726 -359 0
-726 -360 0
-727 -76 0
-727 -77 0
-727 -78 0
-727 -79 0
-727 -80 0
-727 -81 0
-727 -85 0
-727 -86 0
-727 -87 0
-727 -88 0
-727 -89 0
-727 -90 0
-727 -166 0
-727 -167 0
-727 -168 0
-727 -169 0
-727 -170 0
-727 -171 0
-727 -175 0
-727 -176 0
-727 -177 0
-727 -178 0
-727 -179 0
-727 -180 0
-727 -346 0
-727 -347 0
-727 -348 0
-727 -349 0
-727 -350 0
-727 -351 0
-727 -355 0
-727 -356 0
-727 -357 0
-727 -358 0
-727 -359 0
-727 -360 0
-728 -76 0
-728 -77 0
-728 -78 0
-728 -79 0
-728 -80 0
-728 -81 0
-728 -82 0
-728 -86 0
-728 -87 0
-728 -88 0
-728 -89 0
-728 -90 0
-728 -166 0
-728 -167 0
-728 -168 0
-728 -169 0
-728 -170 0
-728 -171 0
-728 -172 0
-728 -176 0
-728 -177 0
-728 -178 0
-728 -179 0
-728 -180 0
-728 -346 0
-728 -347 0
-728 -348 0
-728 -349 0
-728 -350 0
-728 -351 0
-728 -352 0
-728 -356 0
-728 -357 0
-728 -358 0
-728 -359 0
-728 -360 0
-729 -76 0
-729 -77 0
-729 -78 0
-729 -79 0
-729 -80 0
-729 -81 0
-729 -82 0
-729 -83 0
-729 -87 0
-729 -88 0
-729 -89 0
-729 -90 0
-729 -166 0
-729 -167 0
-729 -168 0
-729 -169 0
-729 -170 0
-729 -171 0
-729 -172 0
-729 -173 0
-729 -177 0
-729 -178 0
-729 -179 0
-729 -180 0
-729 -346 0
-729 -347 0
-729 -348 0
-729 -349 0
-729 -350 0
-729 -351 0
-729 -352 0
-729 -353 0
-729 -357 0
-729 -358 0
-729 -359 0
-729 -360 0
-730 -76 0
-730 -77 0
-730 -78 0
-730 -79 0
-730 -80 0
-730 -81 0
-730 -82 0
-730 -83 0
-730 -84 0
-730 -88 0
-730 -89 0
-730 -90 0
-730 -166 0
-730 -167 0
-730 -168 0
-730 -169 0
-730 -170 0
-730 -171 0
-730 -172 0
-730 -173 0
-730 -174 0
-730 -178 0
-730 -179 0
-730 -180 0
-730 -346 0
-730 -347 0
-730 -348 0
-730 -349 0
-730 -350 0
-730 -351 0
-730 -352 0
-730 -353 0
-730 -354 0
-730 -358 0
-730 -359 0
-730 -360 0
-731 -76 0
-731 -77 0
-731 -78 0
-731 -79 0
-731 -80 0
-731 -81 0
-731 -82 0
-731 -83 0
-731 -84 0
-731 -85 0
-731 -89 0
-731 -90 0
-731 -166 0
-731 -167 0
-731 -168 0
-731 -169 0
-731 -170 0
-731 -171 0
-731 -172 0
-731 -173 0
-731 -174 0
-731 -175 0
-731 -179 0
-731 -180 0
-731 -346 0
-731 -347 0
-731 -348 0
-731 -349 0
-731 -350 0
-731 -351 0
-731 -352 0
-731 -353 0
-731 -354 0
-731 -355 0
-731 -359 0
-731 -360 0
-732 -76 0
-732 -77 0
-732 -78 0
-732 -79 0
-732 -80 0
-732 -81 0
-732 -82 0
-732 -83 0
-732 -84 0
-732 -85 0
-732 -86 0
-732 -90 0
-732 -166 0
-732 -167 0
-732 -168 0
-732 -169 0
-732 -170 0
-732 -171 0
-732 -172 0
-732 -173 0
-732 -174 0
-732 -175 0
-732 -176 0
-732 -180 0
-732 -346 0
-732 -347 0
-732 -348 0
-732 -349 0
-732 -350 0
-732 -351 0
-732 -352 0
-732 -353 0
-732 -354 0
-732 -355 0
-732 -356 0
-732 -360 0
-733 -76 0
-733 -77 0
-733 -78 0
-733 -79 0
-733 -80 0
-733 -81 0
-733 -82 0
-733 -83 0
-733 -84 0
-733 -85 0
-733 -86 0
-733 -87 0
-733 -166 0
-733 -167 0
-733 -168 0
-733 -169 0
-733 -170 0
-733 -171 0
-733 -172 0
-733 -173 0
-733 -174 0
-733 -175 0
-733 -176 0
-733 -177 0
-733 -346 0
-733 -347 0
-733 -348 0
-733 -349 0
-733 -350 0
-733 -351 0
-733 -352 0
-733 -353 0
-733 -354 0
-733 -355 0
-733 -356 0
-733 -357 0
-121 -211 0
-121 -391 0
-211 -391 0
-122 -212 0
-122 -392 0
-212 -392 0
-123 -213 0
-123 -393 0
-213 -393 0
-124 -214 0
-124 -394 0
-214 -394 0
-125 -215 0
-125 -395 0
-215 -395 0
-126 -216 0
-126 -396 0
-216 -396 0
-127 -217 0
-127 -397 0
-217 -397 0
-128 -218 0
-128 -398 0
-218 -398 0
-129 -219 0
-129 -399 0
-219 -399 0
-130 -220 0
-130 -400 0
-220 -400 0
-131 -221 0
-131 -401 0
-221 -401 0
-132 -222 0
-132 -402 0
-222 -402 0
-133 -223 0
-133 -403 0
-223 -403 0
-134 -224 0
-134 -404 0
-224 -404 0
-135 -225 0
-135 -405 0
-225 -405 0
734 735 736 737 738 739 740 741 742 743 744 745 746 0
-734 -735 0
-734 -736 0
-734 -737 0
-734 -738 0
-734 -739 0
-734 -740 0
-734 -741 0
-734 -742 0
-734 -743 0
-734 -744 0
-734 -745 0
-734 -746 0
-735 -736 0
-735 -737 0
-735 -738 0
-735 -739 0
-735 -740 0
-735 -741 0
-735 -742 0
-735 -743 0
-735 -744 0
-735 -745 0
-735 -746 0
-736 -737 0
-736 -738 0
-736 -739 0
-736 -740 0
-736 -741 0
-736 -742 0
-736 -743 0
-736 -744 0
-736 -745 0
-736 -746 0
-737 -738 0
-737 -739 0
-737 -740 0
-737 -741 0
-737 -742 0
-737 -743 0
-737 -744 0
-737 -745 0
-737 -746 0
-738 -739 0
-738 -740 0
-738 -741 0
-738 -742 0
-738 -743 0
-738 -744 0
-738 -745 0
-738 -746 0
-739 -740 0
-739 -741 0
-739 -742 0
-739 -743 0
-739 -744 0
-739 -745 0
-739 -746 0
-740 -741 0
-740 -742 0
-740 -743 0
-740 -744 0
-740 -745 0
-740 -746 0
-741 -742 0
-741 -743 0
-741 -744 0
-741 -745 0
-741 -746 0
-742 -743 0
-742 -744 0
-742 -745 0
-742 -746 0
-743 -744 0
-743 -745 0
-743 -746 0
-744 -745 0
-744 -746 0
-745 -746 0
-121 734 0
-122 734 735 0
-123 734 735 736 0
-124 735 736 737 0
-125 736 737 738 0
-126 737 738 739 0
-127 738 739 740 0
-128 739 740 741 0
-129 740 741 742 0
-130 741 742 743 0
-131 742 743 744 0
-132 743 744 745 0
-133 744 745 746 0
-134 745 746 0
-135 746 0
-211 734 0
-212 734 735 0
-213 734 735 736 0
-214 735 736 737 0
-215 736 737 738 0
-216 737 738 739 0
-217 738 739 740 0
-218 739 740 741 0
-219 740 741 742 0
-220 741 742 743 0
-221 742 743 744 0
-222 743 744 745 0
-223 744 745 746 0
-224 745 746 0
-225 746 0
-391 734 0
-392 734 735 0
-393 734 735 736 0
-394 735 736 737 0
-395 736 737 738 0
-396 737 738 739 0
-397 738 739 740 0
-398 739 740 741 0
-399 740 741 742 0
-400 741 742 743 0
-401 742 743 744 0
-402 743 744 745 0
-403 744 745 746 0
-404 745 746 0
-405 746 0
-734 -124 0
-734 -125 0
-734 -126 0
-734 -127 0
-734 -128 0
-734 -129 0
-734 -130 0
-734 -131 0
-734 -132 0
-734 -133 0
-734 -134 0
-734 -135 0
-734 -214 0
-734 -215 0
-734 -216 0
-734 -217 0
-734 -218 0
-734 -219 0
-734 -220 0
-734 -221 0
-734 -222 0
-734 -223 0
-734 -224 0
-734 -225 0
-734 -394 0
-734 -395 0
-734 -396 0
-734 -397 0
-734 -398 0
-734 -399 0
-734 -400 0
-734 -401 0
-734 -402 0
-734 -403 0
-734 -404 0
-734 -405 0
-735 -121 0
-735 -125 0
-735 -126 0
-735 -127 0
-735 -128 0
-735 -129 0
-735 -130 0
-735 -131 0
-735 -132 0
-735 -133 0
-735 -134 0
-735 -135 0
-735 -211 0
-735 -215 0
-735 -216 0
-735 -217 0
-735 -218 0
-735 -219 0
-735 -220 0
-735 -221 0
-735 -222 0
-735 -223 0
-735 -224 0
-735 -225 0
-735 -391 0
-735 -395 0
-735 -396 0
-735 -397 0
-735 -398 0
-735 -399 0
-735 -400 0
-735 -401 0
-735 -402 0
-735 -403 0
-735 -404 0
-735 -405 0
-736 -121 0
-736 -122 0
-736 -126 0
-736 -127 0
-736 -128 0
-736 -129 0
-736 -130 0
-736 -131 0
-736 -132 0
-736 -133 0
-736 -134 0
-736 -135 0
-736 -211 0
-736 -212 0
-736 -216 0
-736 -217 0
-736 -218 0
-736 -219 0
-736 -220 0
-736 -221 0
-736 -222 0
-736 -223 0
-736 -224 0
-736 -225 0
-736 -391 0
-736 -392 0
-736 -396 0
-736 -397 0
-736 -398 0
-736 -399 0
-736 -400 0
-736 -401 0
-736 -402 0
-736 -403 0
-736 -404 0
-736 -405 0
-737 -121 0
-737 -122 0
-737 -123 0
-737 -127 0
-737 -128 0
-737 -129 0
-737 -130 0
-737 -131 0
-737 -132 0
-737 -133 0
-737 -134 0
-737 -135 0
-737 -211 0
-737 -212 0
-737 -213 0
-737 -217 0
-737 -218 0
-737 -219 0
-737 -220 0
-737 -221 0
-737 -222 0
-737 -223 0
-737 -224 0
-737 -225 0
-737 -391 0
-737 -392 0
-737 -393 0
-737 -397 0
-737 -398 0
-737 -399 0
-737 -400 0
-737 -401 0
-737 -402 0
-737 -403 0
-737 -404 0
-737 -405 0
-738 -121 0
-738 -122 0
-738 -123 0
-738 -124 0
-738 -128 0
-738 -129 0
-738 -130 0
-738 -131 0
-738 -132 0
-738 -133 0
-738 -134 0
-738 -135 0
-738 -211 0
-738 -212 0
-738 -213 0
-738 -214 0
-738 -218 0
-738 -219 0
-738 -220 0
-738 -221 0
-738 -222 0
-738 -223 0
-738 -224 0
-738 -225 0
-738 -391 0
-738 -392 0
-738 -393 0
-738 -394 0
-738 -398 0
-738 -399 0
-738 -400 0
-738 -401 0
-738 -402 0
-738 -403 0
-738 -404 0
-738 -405 0
-739 -121 0
-739 -122 0
-739 -123 0
-739 -124 0
-739 -125 0
-739 -129 0
-739 -130 0
-739 -131 0
-739 -132 0
-739 -133 0
-739 -134 0
-739 -135 0
-739 -211 0
-739 -212 0
-739 -213 0
-739 -214 0
-739 -215 0
-739 -219 0
-739 -220 0
-739 -221 0
-739 -222 0
-739 -223 0
-739 -224 0
-739 -225 0
-739 -391 0
-739 -392 0
-739 -393 0
-739 -394 0
-739 -395 0
-739 -399 0
-739 -400 0
-739 -401 0
-739 -402 0
-739 -403 0
-739 -404 0
-739 -405 0
-740 -121 0
-740 -122 0
-740 -123 0
-740 -124 0
-740 -125 0
-740 -126 0
-740 -130 0
-740 -131 0
-740 -132 0
-740 -133 0
-740 -134 0
-740 -135 0
-740 -211 0
-740 -212 0
-740 -213 0
-740 -214 0
-740 -215 0
-740 -216 0
-740 -220 0
-740 -221 0
-740 -222 0
-740 -223 0
-740 -224 0
-740 -225 0
-740 -391 0
-740 -392 0
-740 -393 0
-740 -394 0
-740 -395 0
-740 -396 0
-740 -400 0
-740 -401 0
-740 -402 0
-740 -403 0
-740 -404 0
-740 -405 0
-741 -121 0
-741 -122 0
-741 -123 0
-741 -124 0
-741 -125 0
-741 -126 0
-741 -127 0
-741 -131 0
-741 -132 0
-741 -133 0
-741 -134 0
-741 -135 0
-741 -211 0
-741 -212 0
-741 -213 0
-741 -214 0
-741 -215 0
-741 -216 0
-741 -217 0
-741 -221 0
-741 -222 0
-741 -223 0
-741 -224 0
-741 -225 0
-741 -391 0
-741 -392 0
-741 -393 0
-741 -394 0
-741 -395 0
-741 -396 0
-741 -397 0
-741 -401 0
-741 -402 0
-741 -403 0
-741 -404 0
-741 -405 0
-742 -121 0
-742 -122 0
-742 -123 0
-742 -124 0
-742 -125 0
-742 -126 0
-742 -127 0
-742 -128 0
-742 -132 0
-742 -133 0
-742 -134 0
-742 -135 0
-742 -211 0
-742 -212 0
-742 -213 0
-742 -214 0
-742 -215 0
-742 -216 0
-742 -217 0
-742 -218 0
-742 -222 0
-742 -223 0
-742 -224 0
-742 -225 0
-742 -391 0
-742 -392 0
-742 -393 0
-742 -394 0
-742 -395 0
-742 -396 0
-742 -397 0
-742 -398 0
-742 -402 0
-742 -403 0
-742 -404 0
-742 -405 0
-743 -121 0
-743 -122 0
-743 -123 0
-743 -124 0
-743 -125 0
-743 -126 0
-743 -127 0
-743 -128 0
-743 -129 0
-743 -133 0
-743 -134 0
-743 -135 0
-743 -211 0
-743 -212 0
-743 -213 0
-743 -214 0
-743 -215 0
-743 -216 0
-743 -217 0
-743 -218 0
-743 -219 0
-743 -223 0
-743 -224 0
-743 -225 0
-743 -391 0
-743 -392 0
-743 -393 0
-743 -394 0
-743 -395 0
-743 -396 0
-743 -397 0
-743 -398 0
-743 -399 0
-743 -403 0
-743 -404 0
-743 -405 0
-744 -121 0
-744 -122 0
-744 -123 0
-744 -124 0
-744 -125 0
-744 -126 0
-744 -127 0
-744 -128 0
-744 -129 0
-744 -130 0
-744 -134 0
-744 -135 0
-744 -211 0
-744 -212 0
-744 -213 0
-744 -214 0
-744 -215 0
-744 -216 0
-744 -217 0
-744 -218 0
-744 -219 0
-744 -220 0
-744 -224 0
-744 -225 0
-744 -391 0
-744 -392 0
-744 -393 0
-744 -394 0
-744 -395 0
-744 -396 0
-744 -397 0
-744 -398 0
-744 -399 0
-744 -400 0
-744 -404 0
-744 -405 0
-745 -121 0
-745 -122 0
-745 -123 0
-745 -124 0
-745 -125 0
-745 -126 0
-745 -127 0
-745 -128 0
-745 -129 0
-745 -130 0
-745 -131 0
-745 -135 0
-745 -211 0
-745 -212 0
-745 -213 0
-745 -214 0
-745 -215 0
-745 -216 0
-745 -217 0
-745 -218 0
-745 -219 0
-745 -220 0
-745 -221 0
-745 -225 0
-745 -391 0
-745 -392 0
-745 -393 0
-745 -394 0
-745 -395 0
-745 -396 0
-745 -397 0
-745 -398 0
-745 -399 0
-745 -400 0
-745 -401 0
-745 -405 0
-746 -121 0
-746 -122 0
-746 -123 0
-746 -124 0
-746 -125 0
-746 -126 0
-746 -127 0
-746 -128 0
-746 -129 0
-746 -130 0
-746 -131 0
-746 -132 0
-746 -211 0
-746 -212 0
-746 -213 0
-746 -214 0
-746 -215 0
-746 -216 0
-746 -217 0
-746 -218 0
-746 -219 0
-746 -220 0
-746 -221 0
-746 -222 0
-746 -391 0
-746 -392 0
-746 -393 0
-746 -394 0
-746 -395 0
-746 -396 0
-746 -397 0
-746 -398 0
-746 -399 0
-746 -400 0
-746 -401 0
-746 -402 0
1 16 31 46 61 76 91 106 121 136 151 166 181 196 211 226 241 256 271 286 301 316 331 346 361 376 391 406 421 436 451 466 481 496 0
2 17 32 47 62 77 92 107 122 137 152 167 182 197 212 227 242 257 272 287 302 317 332 347 362 377 392 407 422 437 452 467 482 497 0
3 18 33 48 63 78 93 108 123 138 153 168 183 198 213 228 243 258 273 288 303 318 333 348 363 378 393 408 423 438 453 468 483 498 0
4 19 34 49 64 79 94 109 124 139 154 169 184 199 214 229 244 259 274 289 304 319 334 349 364 379 394 409 424 439 454 469 484 499 0
5 20 35 50 65 80 95 110 125 140 155 170 185 200 215 230 245 260 275 290 305 320 335 350 365 380 395 410 425 440 455 470 485 500 0
6 21 36 51 66 81 96 111 126 141 156 171 186 201 216 231 246 261 276 291 306 321 336 351 366 381 396 411 426 441 456 471 486 501 0
7 22 37 52 67 82 97 112 127 142 157 172 187 202 217 232 247 262 277 292 307 322 337 352 367 382 397 412 427 442 457 472 487 502 0
8 23 38 53 68 83 98 113 128 143 158 173 188 203 218 233 248 263 278 293 308 323 338 353 368 383 398 413 428 443 458 473 488 503 0
9 24 39 54 69 84 99 114 129 144 159 174 189 204 219 234 249 264 279 294 309 324 339 354 369 384 399 414 429 444 459 474 489 504 0
10 25 40 55 70 85 100 115 130 145 160 175 190 205 220 235 250 265 280 295 310 325 340 355 370 385 400 415 430 445 460 475 490 505 0
11 26 41 56 71 86 101 116 131 146 161 176 191 206 221 236 251 266 281 296 311 326 341 356 371 386 401 416 431 446 461 476 491 506 0
12 27 42 57 72 87 102 117 132 147 162 177 192 207 222 237 252 267 282 297 312 327 342 357 372 387 402 417 432 447 462 477 492 507 0
13 28 43 58 73 88 103 118 133 148 163 178 193 208 223 238 253 268 283 298 313 328 343 358 373 388 403 418 433 448 463 478 493 508 0
14 29 44 59 74 89 104 119 134 149 164 179 194 209 224 239 254 269 284 299 314 329 344 359 374 389 404 419 434 449 464 479 494 509 0
15 30 45 60 75 90 105 120 135 150 165 180 195 210 225 240 255 270 285 300 315 330 345 360 375 390 405 420 435 450 465 480 495 510 0
