p cnf 799 19131
1 2 3 4 5 6 7 8 9 10 11 12 13 14 15 16 0
-1 -2 0
-1 -3 0
-1 -4 0
-1 -5 0
-1 -6 0
-1 -7 0
-1 -8 0
-1 -9 0
-1 -10 0
-1 -11 0
-1 -12 0
-1 -13 0
-1 -14 0
-1 -15 0
-1 -16 0
-2 -3 0
-2 -4 0
-2 -5 0
-2 -6 0
-2 -7 0
-2 -8 0
-2 -9 0
-2 -10 0
-2 -11 0
-2 -12 0
-2 -13 0
-2 -14 0
-2 -15 0
-2 -16 0
-3 -4 0
-3 -5 0
-3 -6 0
-3 -7 0
-3 -8 0
-3 -9 0
-3 -10 0
-3 -11 0
-3 -12 0
-3 -13 0
-3 -14 0
-3 -15 0
-3 -16 0
-4 -5 0
-4 -6 0
-4 -7 0
-4 -8 0
-4 -9 0
-4 -10 0
-4 -11 0
-4 -12 0
-4 -13 0
-4 -14 0
-4 -15 0
-4 -16 0
-5 -6 0
-5 -7 0
-5 -8 0
-5 -9 0
-5 -10 0
-5 -11 0
-5 -12 0
-5 -13 0
-5 -14 0
-5 -15 0
-5 -16 0
-6 -7 0
-6 -8 0
-6 -9 0
-6 -10 0
-6 -11 0
-6 -12 0
-6 -13 0
-6 -14 0
-6 -15 0
-6 -16 0
-7 -8 0
-7 -9 0
-7 -10 0
-7 -11 0
-7 -12 0
-7 -13 0
-7 -14 0
-7 -15 0
-7 -16 0
-8 -9 0
-8 -10 0
-8 -11 0
-8 -12 0
-8 -13 0
-8 -14 0
-8 -15 0
-8 -16 0
-9 -10 0
-9 -11 0
-9 -12 0
-9 -13 0
-9 -14 0
-9 -15 0
-9 -16 0
-10 -11 0
-10 -12 0
-10 -13 0
-10 -14 0
-10 -15 0
-10 -16 0
-11 -12 0
-11 -13 0
-11 -14 0
-11 -15 0
-11 -16 0
-12 -13 0
-12 -14 0
-12 -15 0
-12 -16 0
-13 -14 0
-13 -15 0
-13 -16 0
-14 -15 0
-14 -16 0
-15 -16 0
17 18 19 20 21 22 23 24 25 26 27 28 29 30 31 32 0
-17 -18 0
-17 -19 0
-17 -20 0
-17 -21 0
-17 -22 0
-17 -23 0
-17 -24 0
-17 -25 0
-17 -26 0
-17 -27 0
-17 -28 0
-17 -29 0
-17 -30 0
-17 -31 0
-17 -32 0
-18 -19 0
-18 -20 0
-18 -21 0
-18 -22 0
-18 -23 0
-18 -24 0
-18 -25 0
-18 -26 0
-18 -27 0
-18 -28 0
-18 -29 0
-18 -30 0
-18 -31 0
-18 -32 0
-19 -20 0
-19 -21 0
-19 -22 0
-19 -23 0
-19 -24 0
-19 -25 0
-19 -26 0
-19 -27 0
-19 -28 0
-19 -29 0
-19 -30 0
-19 -31 0
-19 -32 0
-20 -21 0
-20 -22 0
-20 -23 0
-20 -24 0
-20 -25 0
-20 -26 0
-20 -27 0
-20 -28 0
-20 -29 0
-20 -30 0
-20 -31 0
-20 -32 0
-21 -22 0
-21 -23 0
-21 -24 0
-21 -25 0
-21 -26 0
-21 -27 0
-21 -28 0
-21 -29 0
-21 -30 0
-21 -31 0
-21 -32 0
-22 -23 0
-22 -24 0
-22 -25 0
-22 -26 0
-22 -27 0
-22 -28 0
-22 -29 0
-22 -30 0
-22 -31 0
-22 -32 0
-23 -24 0
-23 -25 0
-23 -26 0
-23 -27 0
-23 -28 0
-23 -29 0
-23 -30 0
-23 -31 0
-23 -32 0
-24 -25 0
-24 -26 0
-24 -27 0
-24 -28 0
-24 -29 0
-24 -30 0
-24 -31 0
-24 -32 0
-25 -26 0
-25 -27 0
-25 -28 0
-25 -29 0
-25 -30 0
-25 -31 0
-25 -32 0
-26 -27 0
-26 -28 0
-26 -29 0
-26 -30 0
-26 -31 0
-26 -32 0
-27 -28 0
-27 -29 0
-27 -30 0
-27 -31 0
-27 -32 0
-28 -29 0
-28 -30 0
-28 -31 0
-28 -32 0
-29 -30 0
-29 -31 0
-29 -32 0
-30 -31 0
-30 -32 0
-31 -32 0
33 34 35 36 37 38 39 40 41 42 43 44 45 46 47 48 0
-33 -34 0
-33 -35 0
-33 -36 0
-33 -37 0
-33 -38 0
-33 -39 0
-33 -40 0
-33 -41 0
-33 -42 0
-33 -43 0
-33 -44 0
-33 -45 0
-33 -46 0
-33 -47 0
-33 -48 0
-34 -35 0
-34 -36 0
-34 -37 0
-34 -38 0
-34 -39 0
-34 -40 0
-34 -41 0
-34 -42 0
-34 -43 0
-34 -44 0
-34 -45 0
-34 -46 0
-34 -47 0
-34 -48 0
-35 -36 0
-35 -37 0
-35 -38 0
-35 -39 0
-35 -40 0
-35 -41 0
-35 -42 0
-35 -43 0
-35 -44 0
-35 -45 0
-35 -46 0
-35 -47 0
-35 -48 0
-36 -37 0
-36 -38 0
-36 -39 0
-36 -40 0
-36 -41 0
-36 -42 0
-36 -43 0
-36 -44 0
-36 -45 0
-36 -46 0
-36 -47 0
-36 -48 0
-37 -38 0
-37 -39 0
-37 -40 0
-37 -41 0
-37 -42 0
-37 -43 0
-37 -44 0
-37 -45 0
-37 -46 0
-37 -47 0
-37 -48 0
-38 -39 0
-38 -40 0
-38 -41 0
-38 -42 0
-38 -43 0
-38 -44 0
-38 -45 0
-38 -46 0
-38 -47 0
-38 -48 0
-39 -40 0
-39 -41 0
-39 -42 0
-39 -43 0
-39 -44 0
-39 -45 0
-39 -46 0
-39 -47 0
-39 -48 0
-40 -41 0
-40 -42 0
-40 -43 0
-40 -44 0
-40 -45 0
-40 -46 0
-40 -47 0
-40 -48 0
-41 -42 0
-41 -43 0
-41 -44 0
-41 -45 0
-41 -46 0
-41 -47 0
-41 -48 0
-42 -43 0
-42 -44 0
-42 -45 0
-42 -46 0
-42 -47 0
-42 -48 0
-43 -44 0
-43 -45 0
-43 -46 0
-43 -47 0
-43 -48 0
-44 -45 0
-44 -46 0
-44 -47 0
-44 -48 0
-45 -46 0
-45 -47 0
-45 -48 0
-46 -47 0
-46 -48 0
-47 -48 0
49 50 51 52 53 54 55 56 57 58 59 60 61 62 63 64 0
-49 -50 0
-49 -51 0
-49 -52 0
-49 -53 0
-49 -54 0
-49 -55 0
-49 -56 0
-49 -57 0
-49 -58 0
-49 -59 0
-49 -60 0
-49 -61 0
-49 -62 0
-49 -63 0
-49 -64 0
-50 -51 0
-50 -52 0
-50 -53 0
-50 -54 0
-50 -55 0
-50 -56 0
-50 -57 0
-50 -58 0
-50 -59 0
-50 -60 0
-50 -61 0
-50 -62 0
-50 -63 0
-50 -64 0
-51 -52 0
-51 -53 0
-51 -54 0
-51 -55 0
-51 -56 0
-51 -57 0
-51 -58 0
-51 -59 0
-51 -60 0
-51 -61 0
-51 -62 0
-51 -63 0
-51 -64 0
-52 -53 0
-52 -54 0
-52 -55 0
-52 -56 0
-52 -57 0
-52 -58 0
-52 -59 0
-52 -60 0
-52 -61 0
-52 -62 0
-52 -63 0
-52 -64 0
-53 -54 0
-53 -55 0
-53 -56 0
-53 -57 0
-53 -58 0
-53 -59 0
-53 -60 0
-53 -61 0
-53 -62 0
-53 -63 0
-53 -64 0
-54 -55 0
-54 -56 0
-54 -57 0
-54 -58 0
-54 -59 0
-54 -60 0
-54 -61 0
-54 -62 0
-54 -63 0
-54 -64 0
-55 -56 0
-55 -57 0
-55 -58 0
-55 -59 0
-55 -60 0
-55 -61 0
-55 -62 0
-55 -63 0
-55 -64 0
-56 -57 0
-56 -58 0
-56 -59 0
-56 -60 0
-56 -61 0
-56 -62 0
-56 -63 0
-56 -64 0
-57 -58 0
-57 -59 0
-57 -60 0
-57 -61 0
-57 -62 0
-57 -63 0
-57 -64 0
-58 -59 0
-58 -60 0
-58 -61 0
-58 -62 0
-58 -63 0
-58 -64 0
-59 -60 0
-59 -61 0
-59 -62 0
-59 -63 0
-59 -64 0
-60 -61 0
-60 -62 0
-60 -63 0
-60 -64 0
-61 -62 0
-61 -63 0
-61 -64 0
-62 -63 0
-62 -64 0
-63 -64 0
65 66 67 68 69 70 71 72 73 74 75 76 77 78 79 80 0
-65 -66 0
-65 -67 0
-65 -68 0
-65 -69 0
-65 -70 0
-65 -71 0
-65 -72 0
-65 -73 0
-65 -74 0
-65 -75 0
-65 -76 0
-65 -77 0
-65 -78 0
-65 -79 0
-65 -80 0
-66 -67 0
-66 -68 0
-66 -69 0
-66 -70 0
-66 -71 0
-66 -72 0
-66 -73 0
-66 -74 0
-66 -75 0
-66 -76 0
-66 -77 0
-66 -78 0
-66 -79 0
-66 -80 0
-67 -68 0
-67 -69 0
-67 -70 0
-67 -71 0
-67 -72 0
-67 -73 0
-67 -74 0
-67 -75 0
-67 -76 0
-67 -77 0
-67 -78 0
-67 -79 0
-67 -80 0
-68 -69 0
-68 -70 0
-68 -71 0
-68 -72 0
-68 -73 0
-68 -74 0
-68 -75 0
-68 -76 0
-68 -77 0
-68 -78 0
-68 -79 0
-68 -80 0
-69 -70 0
-69 -71 0
-69 -72 0
-69 -73 0
-69 -74 0
-69 -75 0
-69 -76 0
-69 -77 0
-69 -78 0
-69 -79 0
-69 -80 0
-70 -71 0
-70 -72 0
-70 -73 0
-70 -74 0
-70 -75 0
-70 -76 0
-70 -77 0
-70 -78 0
-70 -79 0
-70 -80 0
-71 -72 0
-71 -73 0
-71 -74 0
-71 -75 0
-71 -76 0
-71 -77 0
-71 -78 0
-71 -79 0
-71 -80 0
-72 -73 0
-72 -74 0
-72 -75 0
-72 -76 0
-72 -77 0
-72 -78 0
-72 -79 0
-72 -80 0
-73 -74 0
-73 -75 0
-73 -76 0
-73 -77 0
-73 -78 0
-73 -79 0
-73 -80 0
-74 -75 0
-74 -76 0
-74 -77 0
-74 -78 0
-74 -79 0
-74 -80 0
-75 -76 0
-75 -77 0
-75 -78 0
-75 -79 0
-75 -80 0
-76 -77 0
-76 -78 0
-76 -79 0
-76 -80 0
-77 -78 0
-77 -79 0
-77 -80 0
-78 -79 0
-78 -80 0
-79 -80 0
81 82 83 84 85 86 87 88 89 90 91 92 93 94 95 96 0
-81 -82 0
-81 -83 0
-81 -84 0
-81 -85 0
-81 -86 0
-81 -87 0
-81 -88 0
-81 -89 0
-81 -90 0
-81 -91 0
-81 -92 0
-81 -93 0
-81 -94 0
-81 -95 0
-81 -96 0
-82 -83 0
-82 -84 0
-82 -85 0
-82 -86 0
-82 -87 0
-82 -88 0
-82 -89 0
-82 -90 0
-82 -91 0
-82 -92 0
-82 -93 0
-82 -94 0
-82 -95 0
-82 -96 0
-83 -84 0
-83 -85 0
-83 -86 0
-83 -87 0
-83 -88 0
-83 -89 0
-83 -90 0
-83 -91 0
-83 -92 0
-83 -93 0
-83 -94 0
-83 -95 0
-83 -96 0
-84 -85 0
-84 -86 0
-84 -87 0
-84 -88 0
-84 -89 0
-84 -90 0
-84 -91 0
-84 -92 0
-84 -93 0
-84 -94 0
-84 -95 0
-84 -96 0
-85 -86 0
-85 -87 0
-85 -88 0
-85 -89 0
-85 -90 0
-85 -91 0
-85 -92 0
-85 -93 0
-85 -94 0
-85 -95 0
-85 -96 0
-86 -87 0
-86 -88 0
-86 -89 0
-86 -90 0
-86 -91 0
-86 -92 0
-86 -93 0
-86 -94 0
-86 -95 0
-86 -96 0
-87 -88 0
-87 -89 0
-87 -90 0
-87 -91 0
-87 -92 0
-87 -93 0
-87 -94 0
-87 -95 0
-87 -96 0
-88 -89 0
-88 -90 0
-88 -91 0
-88 -92 0
-88 -93 0
-88 -94 0
-88 -95 0
-88 -96 0
-89 -90 0
-89 -91 0
-89 -92 0
-89 -93 0
-89 -94 0
-89 -95 0
-89 -96 0
-90 -91 0
-90 -92 0
-90 -93 0
-90 -94 0
-90 -95 0
-90 -96 0
-91 -92 0
-91 -93 0
-91 -94 0
-91 -95 0
-91 -96 0
-92 -93 0
-92 -94 0
-92 -95 0
-92 -96 0
-93 -94 0
-93 -95 0
-93 -96 0
-94 -95 0
-94 -96 0
-95 -96 0
97 98 99 100 101 102 103 104 105 106 107 108 109 110 111 112 0
-97 -98 0
-97 -99 0
-97 -100 0
-97 -101 0
-97 -102 0
-97 -103 0
-97 -104 0
-97 -105 0
-97 -106 0
-97 -107 0
-97 -108 0
-97 -109 0
-97 -110 0
-97 -111 0
-97 -112 0
-98 -99 0
-98 -100 0
-98 -101 0
-98 -102 0
-98 -103 0
-98 -104 0
-98 -105 0
-98 -106 0
-98 -107 0
-98 -108 0
-98 -109 0
-98 -110 0
-98 -111 0
-98 -112 0
-99 -100 0
-99 -101 0
-99 -102 0
-99 -103 0
-99 -104 0
-99 -105 0
-99 -106 0
-99 -107 0
-99 -108 0
-99 -109 0
-99 -110 0
-99 -111 0
-99 -112 0
-100 -101 0
-100 -102 0
-100 -103 0
-100 -104 0
-100 -105 0
-100 -106 0
-100 -107 0
-100 -108 0
-100 -109 0
-100 -110 0
-100 -111 0
-100 -112 0
-101 -102 0
-101 -103 0
-101 -104 0
-101 -105 0
-101 -106 0
-101 -107 0
-101 -108 0
-101 -109 0
-101 -110 0
-101 -111 0
-101 -112 0
-102 -103 0
-102 -104 0
-102 -105 0
-102 -106 0
-102 -107 0
-102 -108 0
-102 -109 0
-102 -110 0
-102 -111 0
-102 -112 0
-103 -104 0
-103 -105 0
-103 -106 0
-103 -107 0
-103 -108 0
-103 -109 0
-103 -110 0
-103 -111 0
-103 -112 0
-104 -105 0
-104 -106 0
-104 -107 0
-104 -108 0
-104 -109 0
-104 -110 0
-104 -111 0
-104 -112 0
-105 -106 0
-105 -107 0
-105 -108 0
-105 -109 0
-105 -110 0
-105 -111 0
-105 -112 0
-106 -107 0
-106 -108 0
-106 -109 0
-106 -110 0
-106 -111 0
-106 -112 0
-107 -108 0
-107 -109 0
-107 -110 0
-107 -111 0
-107 -112 0
-108 -109 0
-108 -110 0
-108 -111 0
-108 -112 0
-109 -110 0
-109 -111 0
-109 -112 0
-110 -111 0
-110 -112 0
-111 -112 0
113 114 115 116 117 118 119 120 121 122 123 124 125 126 127 128 0
-113 -114 0
-113 -115 0
-113 -116 0
-113 -117 0
-113 -118 0
-113 -119 0
-113 -120 0
-113 -121 0
-113 -122 0
-113 -123 0
-113 -124 0
-113 -125 0
-113 -126 0
-113 -127 0
-113 -128 0
-114 -115 0
-114 -116 0
-114 -117 0
-114 -118 0
-114 -119 0
-114 -120 0
-114 -121 0
-114 -122 0
-114 -123 0
-114 -124 0
-114 -125 0
-114 -126 0
-114 -127 0
-114 -128 0
-115 -116 0
-115 -117 0
-115 -118 0
-115 -119 0
-115 -120 0
-115 -121 0
-115 -122 0
-115 -123 0
-115 -124 0
-115 -125 0
-115 -126 0
-115 -127 0
-115 -128 0
-116 -117 0
-116 -118 0
-116 -119 0
-116 -120 0
-116 -121 0
-116 -122 0
-116 -123 0
-116 -124 0
-116 -125 0
-116 -126 0
-116 -127 0
-116 -128 0
-117 -118 0
-117 -119 0
-117 -120 0
-117 -121 0
-117 -122 0
-117 -123 0
-117 -124 0
-117 -125 0
-117 -126 0
-117 -127 0
-117 -128 0
-118 -119 0
-118 -120 0
-118 -121 0
-118 -122 0
-118 -123 0
-118 -124 0
-118 -125 0
-118 -126 0
-118 -127 0
-118 -128 0
-119 -120 0
-119 -121 0
-119 -122 0
-119 -123 0
-119 -124 0
-119 -125 0
-119 -126 0
-119 -127 0
-119 -128 0
-120 -121 0
-120 -122 0
-120 -123 0
-120 -124 0
-120 -125 0
-120 -126 0
-120 -127 0
-120 -128 0
-121 -122 0
-121 -123 0
-121 -124 0
-121 -125 0
-121 -126 0
-121 -127 0
-121 -128 0
-122 -123 0
-122 -124 0
-122 -125 0
-122 -126 0
-122 -127 0
-122 -128 0
-123 -124 0
-123 -125 0
-123 -126 0
-123 -127 0
-123 -128 0
-124 -125 0
-124 -126 0
-124 -127 0
-124 -128 0
-125 -126 0
-125 -127 0
-125 -128 0
-126 -127 0
-126 -128 0
-127 -128 0
129 130 131 132 133 134 135 136 137 138 139 140 141 142 143 144 0
-129 -130 0
-129 -131 0
-129 -132 0
-129 -133 0
-129 -134 0
-129 -135 0
-129 -136 0
-129 -137 0
-129 -138 0
-129 -139 0
-129 -140 0
-129 -141 0
-129 -142 0
-129 -143 0
-129 -144 0
-130 -131 0
-130 -132 0
-130 -133 0
-130 -134 0
-130 -135 0
-130 -136 0
-130 -137 0
-130 -138 0
-130 -139 0
-130 -140 0
-130 -141 0
-130 -142 0
-130 -143 0
-130 -144 0
-131 -132 0
-131 -133 0
-131 -134 0
-131 -135 0
-131 -136 0
-131 -137 0
-131 -138 0
-131 -139 0
-131 -140 0
-131 -141 0
-131 -142 0
-131 -143 0
-131 -144 0
-132 -133 0
-132 -134 0
-132 -135 0
-132 -136 0
-132 -137 0
-132 -138 0
-132 -139 0
-132 -140 0
-132 -141 0
-132 -142 0
-132 -143 0
-132 -144 0
-133 -134 0
-133 -135 0
-133 -136 0
-133 -137 0
-133 -138 0
-133 -139 0
-133 -140 0
-133 -141 0
-133 -142 0
-133 -143 0
-133 -144 0
-134 -135 0
-134 -136 0
-134 -137 0
-134 -138 0
-134 -139 0
-134 -140 0
-134 -141 0
-134 -142 0
-134 -143 0
-134 -144 0
-135 -136 0
-135 -137 0
-135 -138 0
-135 -139 0
-135 -140 0
-135 -141 0
-135 -142 0
-135 -143 0
-135 -144 0
-136 -137 0
-136 -138 0
-136 -139 0
-136 -140 0
-136 -141 0
-136 -142 0
-136 -143 0
-136 -144 0
-137 -138 0
-137 -139 0
-137 -140 0
-137 -141 0
-137 -142 0
-137 -143 0
-137 -144 0
-138 -139 0
-138 -140 0
-138 -141 0
-138 -142 0
-138 -143 0
-138 -144 0
-139 -140 0
-139 -141 0
-139 -142 0
-139 -143 0
-139 -144 0
-140 -141 0
-140 -142 0
-140 -143 0
-140 -144 0
-141 -142 0
-141 -143 0
-141 -144 0
-142 -143 0
-142 -144 0
-143 -144 0
145 146 147 148 149 150 151 152 153 154 155 156 157 158 159 160 0
-145 -146 0
-145 -147 0
-145 -148 0
-145 -149 0
-145 -150 0
-145 -151 0
-145 -152 0
-145 -153 0
-145 -154 0
-145 -155 0
-145 -156 0
-145 -157 0
-145 -158 0
-145 -159 0
-145 -160 0
-146 -147 0
-146 -148 0
-146 -149 0
-146 -150 0
-146 -151 0
-146 -152 0
-146 -153 0
-146 -154 0
-146 -155 0
-146 -156 0
-146 -157 0
-146 -158 0
-146 -159 0
-146 -160 0
-147 -148 0
-147 -149 0
-147 -150 0
-147 -151 0
-147 -152 0
-147 -153 0
-147 -154 0
-147 -155 0
-147 -156 0
-147 -157 0
-147 -158 0
-147 -159 0
-147 -160 0
-148 -149 0
-148 -150 0
-148 -151 0
-148 -152 0
-148 -153 0
-148 -154 0
-148 -155 0
-148 -156 0
-148 -157 0
-148 -158 0
-148 -159 0
-148 -160 0
-149 -150 0
-149 -151 0
-149 -152 0
-149 -153 0
-149 -154 0
-149 -155 0
-149 -156 0
-149 -157 0
-149 -158 0
-149 -159 0
-149 -160 0
-150 -151 0
-150 -152 0
-150 -153 0
-150 -154 0
-150 -155 0
-150 -156 0
-150 -157 0
-150 -158 0
-150 -159 0
-150 -160 0
-151 -152 0
-151 -153 0
-151 -154 0
-151 -155 0
-151 -156 0
-151 -157 0
-151 -158 0
-151 -159 0
-151 -160 0
-152 -153 0
-152 -154 0
-152 -155 0
-152 -156 0
-152 -157 0
-152 -158 0
-152 -159 0
-152 -160 0
-153 -154 0
-153 -155 0
-153 -156 0
-153 -157 0
-153 -158 0
-153 -159 0
-153 -160 0
-154 -155 0
-154 -156 0
-154 -157 0
-154 -158 0
-154 -159 0
-154 -160 0
-155 -156 0
-155 -157 0
-155 -158 0
-155 -159 0
-155 -160 0
-156 -157 0
-156 -158 0
-156 -159 0
-156 -160 0
-157 -158 0
-157 -159 0
-157 -160 0
-158 -159 0
-158 -160 0
-159 -160 0
161 162 163 164 165 166 167 168 169 170 171 172 173 174 175 176 0
-161 -162 0
-161 -163 0
-161 -164 0
-161 -165 0
-161 -166 0
-161 -167 0
-161 -168 0
-161 -169 0
-161 -170 0
-161 -171 0
-161 -172 0
-161 -173 0
-161 -174 0
-161 -175 0
-161 -176 0
-162 -163 0
-162 -164 0
-162 -165 0
-162 -166 0
-162 -167 0
-162 -168 0
-162 -169 0
-162 -170 0
-162 -171 0
-162 -172 0
-162 -173 0
-162 -174 0
-162 -175 0
-162 -176 0
-163 -164 0
-163 -165 0
-163 -166 0
-163 -167 0
-163 -168 0
-163 -169 0
-163 -170 0
-163 -171 0
-163 -172 0
-163 -173 0
-163 -174 0
-163 -175 0
-163 -176 0
-164 -165 0
-164 -166 0
-164 -167 0
-164 -168 0
-164 -169 0
-164 -170 0
-164 -171 0
-164 -172 0
-164 -173 0
-164 -174 0
-164 -175 0
-164 -176 0
-165 -166 0
-165 -167 0
-165 -168 0
-165 -169 0
-165 -170 0
-165 -171 0
-165 -172 0
-165 -173 0
-165 -174 0
-165 -175 0
-165 -176 0
-166 -167 0
-166 -168 0
-166 -169 0
-166 -170 0
-166 -171 0
-166 -172 0
-166 -173 0
-166 -174 0
-166 -175 0
-166 -176 0
-167 -168 0
-167 -169 0
-167 -170 0
-167 -171 0
-167 -172 0
-167 -173 0
-167 -174 0
-167 -175 0
-167 -176 0
-168 -169 0
-168 -170 0
-168 -171 0
-168 -172 0
-168 -173 0
-168 -174 0
-168 -175 0
-168 -176 0
-169 -170 0
-169 -171 0
-169 -172 0
-169 -173 0
-169 -174 0
-169 -175 0
-169 -176 0
-170 -171 0
-170 -172 0
-170 -173 0
-170 -174 0
-170 -175 0
-170 -176 0
-171 -172 0
-171 -173 0
-171 -174 0
-171 -175 0
-171 -176 0
-172 -173 0
-172 -174 0
-172 -175 0
-172 -176 0
-173 -174 0
-173 -175 0
-173 -176 0
-174 -175 0
-174 -176 0
-175 -176 0
177 178 179 180 181 182 183 184 185 186 187 188 189 190 191 192 0
-177 -178 0
-177 -179 0
-177 -180 0
-177 -181 0
-177 -182 0
-177 -183 0
-177 -184 0
-177 -185 0
-177 -186 0
-177 -187 0
-177 -188 0
-177 -189 0
-177 -190 0
-177 -191 0
-177 -192 0
-178 -179 0
-178 -180 0
-178 -181 0
-178 -182 0
-178 -183 0
-178 -184 0
-178 -185 0
-178 -186 0
-178 -187 0
-178 -188 0
-178 -189 0
-178 -190 0
-178 -191 0
-178 -192 0
-179 -180 0
-179 -181 0
-179 -182 0
-179 -183 0
-179 -184 0
-179 -185 0
-179 -186 0
-179 -187 0
-179 -188 0
-179 -189 0
-179 -190 0
-179 -191 0
-179 -192 0
-180 -181 0
-180 -182 0
-180 -183 0
-180 -184 0
-180 -185 0
-180 -186 0
-180 -187 0
-180 -188 0
-180 -189 0
-180 -190 0
-180 -191 0
-180 -192 0
-181 -182 0
-181 -183 0
-181 -184 0
-181 -185 0
-181 -186 0
-181 -187 0
-181 -188 0
-181 -189 0
-181 -190 0
-181 -191 0
-181 -192 0
-182 -183 0
-182 -184 0
-182 -185 0
-182 -186 0
-182 -187 0
-182 -188 0
-182 -189 0
-182 -190 0
-182 -191 0
-182 -192 0
-183 -184 0
-183 -185 0
-183 -186 0
-183 -187 0
-183 -188 0
-183 -189 0
-183 -190 0
-183 -191 0
-183 -192 0
-184 -185 0
-184 -186 0
-184 -187 0
-184 -188 0
-184 -189 0
-184 -190 0
-184 -191 0
-184 -192 0
-185 -186 0
-185 -187 0
-185 -188 0
-185 -189 0
-185 -190 0
-185 -191 0
-185 -192 0
-186 -187 0
-186 -188 0
-186 -189 0
-186 -190 0
-186 -191 0
-186 -192 0
-187 -188 0
-187 -189 0
-187 -190 0
-187 -191 0
-187 -192 0
-188 -189 0
-188 -190 0
-188 -191 0
-188 -192 0
-189 -190 0
-189 -191 0
-189 -192 0
-190 -191 0
-190 -192 0
-191 -192 0
193 194 195 196 197 198 199 200 201 202 203 204 205 206 207 208 0
-193 -194 0
-193 -195 0
-193 -196 0
-193 -197 0
-193 -198 0
-193 -199 0
-193 -200 0
-193 -201 0
-193 -202 0
-193 -203 0
-193 -204 0
-193 -205 0
-193 -206 0
-193 -207 0
-193 -208 0
-194 -195 0
-194 -196 0
-194 -197 0
-194 -198 0
-194 -199 0
-194 -200 0
-194 -201 0
-194 -202 0
-194 -203 0
-194 -204 0
-194 -205 0
-194 -206 0
-194 -207 0
-194 -208 0
-195 -196 0
-195 -197 0
-195 -198 0
-195 -199 0
-195 -200 0
-195 -201 0
-195 -202 0
-195 -203 0
-195 -204 0
-195 -205 0
-195 -206 0
-195 -207 0
-195 -208 0
-196 -197 0
-196 -198 0
-196 -199 0
-196 -200 0
-196 -201 0
-196 -202 0
-196 -203 0
-196 -204 0
-196 -205 0
-196 -206 0
-196 -207 0
-196 -208 0
-197 -198 0
-197 -199 0
-197 -200 0
-197 -201 0
-197 -202 0
-197 -203 0
-197 -204 0
-197 -205 0
-197 -206 0
-197 -207 0
-197 -208 0
-198 -199 0
-198 -200 0
-198 -201 0
-198 -202 0
-198 -203 0
-198 -204 0
-198 -205 0
-198 -206 0
-198 -207 0
-198 -208 0
-199 -200 0
-199 -201 0
-199 -202 0
-199 -203 0
-199 -204 0
-199 -205 0
-199 -206 0
-199 -207 0
-199 -208 0
-200 -201 0
-200 -202 0
-200 -203 0
-200 -204 0
-200 -205 0
-200 -206 0
-200 -207 0
-200 -208 0
-201 -202 0
-201 -203 0
-201 -204 0
-201 -205 0
-201 -206 0
-201 -207 0
-201 -208 0
-202 -203 0
-202 -204 0
-202 -205 0
-202 -206 0
-202 -207 0
-202 -208 0
-203 -204 0
-203 -205 0
-203 -206 0
-203 -207 0
-203 -208 0
-204 -205 0
-204 -206 0
-204 -207 0
-204 -208 0
-205 -206 0
-205 -207 0
-205 -208 0
-206 -207 0
-206 -208 0
-207 -208 0
209 210 211 212 213 214 215 216 217 218 219 220 221 222 223 224 0
-209 -210 0
-209 -211 0
-209 -212 0
-209 -213 0
-209 -214 0
-209 -215 0
-209 -216 0
-209 -217 0
-209 -218 0
-209 -219 0
-209 -220 0
-209 -221 0
-209 -222 0
-209 -223 0
-209 -224 0
-210 -211 0
-210 -212 0
-210 -213 0
-210 -214 0
-210 -215 0
-210 -216 0
-210 -217 0
-210 -218 0
-210 -219 0
-210 -220 0
-210 -221 0
-210 -222 0
-210 -223 0
-210 -224 0
-211 -212 0
-211 -213 0
-211 -214 0
-211 -215 0
-211 -216 0
-211 -217 0
-211 -218 0
-211 -219 0
-211 -220 0
-211 -221 0
-211 -222 0
-211 -223 0
-211 -224 0
-212 -213 0
-212 -214 0
-212 -215 0
-212 -216 0
-212 -217 0
-212 -218 0
-212 -219 0
-212 -220 0
-212 -221 0
-212 -222 0
-212 -223 0
-212 -224 0
-213 -214 0
-213 -215 0
-213 -216 0
-213 -217 0
-213 -218 0
-213 -219 0
-213 -220 0
-213 -221 0
-213 -222 0
-213 -223 0
-213 -224 0
-214 -215 0
-214 -216 0
-214 -217 0
-214 -218 0
-214 -219 0
-214 -220 0
-214 -221 0
-214 -222 0
-214 -223 0
-214 -224 0
-215 -216 0
-215 -217 0
-215 -218 0
-215 -219 0
-215 -220 0
-215 -221 0
-215 -222 0
-215 -223 0
-215 -224 0
-216 -217 0
-216 -218 0
-216 -219 0
-216 -220 0
-216 -221 0
-216 -222 0
-216 -223 0
-216 -224 0
-217 -218 0
-217 -219 0
-217 -220 0
-217 -221 0
-217 -222 0
-217 -223 0
-217 -224 0
-218 -219 0
-218 -220 0
-218 -221 0
-218 -222 0
-218 -223 0
-218 -224 0
-219 -220 0
-219 -221 0
-219 -222 0
-219 -223 0
-219 -224 0
-220 -221 0
-220 -222 0
-220 -223 0
-220 -224 0
-221 -222 0
-221 -223 0
-221 -224 0
-222 -223 0
-222 -224 0
-223 -224 0
225 226 227 228 229 230 231 232 233 234 235 236 237 238 239 240 0
-225 -226 0
-225 -227 0
-225 -228 0
-225 -229 0
-225 -230 0
-225 -231 0
-225 -232 0
-225 -233 0
-225 -234 0
-225 -235 0
-225 -236 0
-225 -237 0
-225 -238 0
-225 -239 0
-225 -240 0
-226 -227 0
-226 -228 0
-226 -229 0
-226 -230 0
-226 -231 0
-226 -232 0
-226 -233 0
-226 -234 0
-226 -235 0
-226 -236 0
-226 -237 0
-226 -238 0
-226 -239 0
-226 -240 0
-227 -228 0
-227 -229 0
-227 -230 0
-227 -231 0
-227 -232 0
-227 -233 0
-227 -234 0
-227 -235 0
-227 -236 0
-227 -237 0
-227 -238 0
-227 -239 0
-227 -240 0
-228 -229 0
-228 -230 0
-228 -231 0
-228 -232 0
-228 -233 0
-228 -234 0
-228 -235 0
-228 -236 0
-228 -237 0
-228 -238 0
-228 -239 0
-228 -240 0
-229 -230 0
-229 -231 0
-229 -232 0
-229 -233 0
-229 -234 0
-229 -235 0
-229 -236 0
-229 -237 0
-229 -238 0
-229 -239 0
-229 -240 0
-230 -231 0
-230 -232 0
-230 -233 0
-230 -234 0
-230 -235 0
-230 -236 0
-230 -237 0
-230 -238 0
-230 -239 0
-230 -240 0
-231 -232 0
-231 -233 0
-231 -234 0
-231 -235 0
-231 -236 0
-231 -237 0
-231 -238 0
-231 -239 0
-231 -240 0
-232 -233 0
-232 -234 0
-232 -235 0
-232 -236 0
-232 -237 0
-232 -238 0
-232 -239 0
-232 -240 0
-233 -234 0
-233 -235 0
-233 -236 0
-233 -237 0
-233 -238 0
-233 -239 0
-233 -240 0
-234 -235 0
-234 -236 0
-234 -237 0
-234 -238 0
-234 -239 0
-234 -240 0
-235 -236 0
-235 -237 0
-235 -238 0
-235 -239 0
-235 -240 0
-236 -237 0
-236 -238 0
-236 -239 0
-236 -240 0
-237 -238 0
-237 -239 0
-237 -240 0
-238 -239 0
-238 -240 0
-239 -240 0
241 242 243 244 245 246 247 248 249 250 251 252 253 254 255 256 0
-241 -242 0
-241 -243 0
-241 -244 0
-241 -245 0
-241 -246 0
-241 -247 0
-241 -248 0
-241 -249 0
-241 -250 0
-241 -251 0
-241 -252 0
-241 -253 0
-241 -254 0
-241 -255 0
-241 -256 0
-242 -243 0
-242 -244 0
-242 -245 0
-242 -246 0
-242 -247 0
-242 -248 0
-242 -249 0
-242 -250 0
-242 -251 0
-242 -252 0
-242 -253 0
-242 -254 0
-242 -255 0
-242 -256 0
-243 -244 0
-243 -245 0
-243 -246 0
-243 -247 0
-243 -248 0
-243 -249 0
-243 -250 0
-243 -251 0
-243 -252 0
-243 -253 0
-243 -254 0
-243 -255 0
-243 -256 0
-244 -245 0
-244 -246 0
-244 -247 0
-244 -248 0
-244 -249 0
-244 -250 0
-244 -251 0
-244 -252 0
-244 -253 0
-244 -254 0
-244 -255 0
-244 -256 0
-245 -246 0
-245 -247 0
-245 -248 0
-245 -249 0
-245 -250 0
-245 -251 0
-245 -252 0
-245 -253 0
-245 -254 0
-245 -255 0
-245 -256 0
-246 -247 0
-246 -248 0
-246 -249 0
-246 -250 0
-246 -251 0
-246 -252 0
-246 -253 0
-246 -254 0
-246 -255 0
-246 -256 0
-247 -248 0
-247 -249 0
-247 -250 0
-247 -251 0
-247 -252 0
-247 -253 0
-247 -254 0
-247 -255 0
-247 -256 0
-248 -249 0
-248 -250 0
-248 -251 0
-248 -252 0
-248 -253 0
-248 -254 0
-248 -255 0
-248 -256 0
-249 -250 0
-249 -251 0
-249 -252 0
-249 -253 0
-249 -254 0
-249 -255 0
-249 -256 0
-250 -251 0
-250 -252 0
-250 -253 0
-250 -254 0
-250 -255 0
-250 -256 0
-251 -252 0
-251 -253 0
-251 -254 0
-251 -255 0
-251 -256 0
-252 -253 0
-252 -254 0
-252 -255 0
-252 -256 0
-253 -254 0
-253 -255 0
-253 -256 0
-254 -255 0
-254 -256 0
-255 -256 0
257 258 259 260 261 262 263 264 265 266 267 268 269 270 271 272 0
-257 -258 0
-257 -259 0
-257 -260 0
-257 -261 0
-257 -262 0
-257 -263 0
-257 -264 0
-257 -265 0
-257 -266 0
-257 -267 0
-257 -268 0
-257 -269 0
-257 -270 0
-257 -271 0
-257 -272 0
-258 -259 0
-258 -260 0
-258 -261 0
-258 -262 0
-258 -263 0
-258 -264 0
-258 -265 0
-258 -266 0
-258 -267 0
-258 -268 0
-258 -269 0
-258 -270 0
-258 -271 0
-258 -272 0
-259 -260 0
-259 -261 0
-259 -262 0
-259 -263 0
-259 -264 0
-259 -265 0
-259 -266 0
-259 -267 0
-259 -268 0
-259 -269 0
-259 -270 0
-259 -271 0
-259 -272 0
-260 -261 0
-260 -262 0
-260 -263 0
-260 -264 0
-260 -265 0
-260 -266 0
-260 -267 0
-260 -268 0
-260 -269 0
-260 -270 0
-260 -271 0
-260 -272 0
-261 -262 0
-261 -263 0
-261 -264 0
-261 -265 0
-261 -266 0
-261 -267 0
-261 -268 0
-261 -269 0
-261 -270 0
-261 -271 0
-261 -272 0
-262 -263 0
-262 -264 0
-262 -265 0
-262 -266 0
-262 -267 0
-262 -268 0
-262 -269 0
-262 -270 0
-262 -271 0
-262 -272 0
-263 -264 0
-263 -265 0
-263 -266 0
-263 -267 0
-263 -268 0
-263 -269 0
-263 -270 0
-263 -271 0
-263 -272 0
-264 -265 0
-264 -266 0
-264 -267 0
-264 -268 0
-264 -269 0
-264 -270 0
-264 -271 0
-264 -272 0
-265 -266 0
-265 -267 0
-265 -268 0
-265 -269 0
-265 -270 0
-265 -271 0
-265 -272 0
-266 -267 0
-266 -268 0
-266 -269 0
-266 -270 0
-266 -271 0
-266 -272 0
-267 -268 0
-267 -269 0
-267 -270 0
-267 -271 0
-267 -272 0
-268 -269 0
-268 -270 0
-268 -271 0
-268 -272 0
-269 -270 0
-269 -271 0
-269 -272 0
-270 -271 0
-270 -272 0
-271 -272 0
273 274 275 276 277 278 279 280 281 282 283 284 285 286 287 288 0
-273 -274 0
-273 -275 0
-273 -276 0
-273 -277 0
-273 -278 0
-273 -279 0
-273 -280 0
-273 -281 0
-273 -282 0
-273 -283 0
-273 -284 0
-273 -285 0
-273 -286 0
-273 -287 0
-273 -288 0
-274 -275 0
-274 -276 0
-274 -277 0
-274 -278 0
-274 -279 0
-274 -280 0
-274 -281 0
-274 -282 0
-274 -283 0
-274 -284 0
-274 -285 0
-274 -286 0
-274 -287 0
-274 -288 0
-275 -276 0
-275 -277 0
-275 -278 0
-275 -279 0
-275 -280 0
-275 -281 0
-275 -282 0
-275 -283 0
-275 -284 0
-275 -285 0
-275 -286 0
-275 -287 0
-275 -288 0
-276 -277 0
-276 -278 0
-276 -279 0
-276 -280 0
-276 -281 0
-276 -282 0
-276 -283 0
-276 -284 0
-276 -285 0
-276 -286 0
-276 -287 0
-276 -288 0
-277 -278 0
-277 -279 0
-277 -280 0
-277 -281 0
-277 -282 0
-277 -283 0
-277 -284 0
-277 -285 0
-277 -286 0
-277 -287 0
-277 -288 0
-278 -279 0
-278 -280 0
-278 -281 0
-278 -282 0
-278 -283 0
-278 -284 0
-278 -285 0
-278 -286 0
-278 -287 0
-278 -288 0
-279 -280 0
-279 -281 0
-279 -282 0
-279 -283 0
-279 -284 0
-279 -285 0
-279 -286 0
-279 -287 0
-279 -288 0
-280 -281 0
-280 -282 0
-280 -283 0
-280 -284 0
-280 -285 0
-280 -286 0
-280 -287 0
-280 -288 0
-281 -282 0
-281 -283 0
-281 -284 0
-281 -285 0
-281 -286 0
-281 -287 0
-281 -288 0
-282 -283 0
-282 -284 0
-282 -285 0
-282 -286 0
-282 -287 0
-282 -288 0
-283 -284 0
-283 -285 0
-283 -286 0
-283 -287 0
-283 -288 0
-284 -285 0
-284 -286 0
-284 -287 0
-284 -288 0
-285 -286 0
-285 -287 0
-285 -288 0
-286 -287 0
-286 -288 0
-287 -288 0
289 290 291 292 293 294 295 296 297 298 299 300 301 302 303 304 0
-289 -290 0
-289 -291 0
-289 -292 0
-289 -293 0
-289 -294 0
-289 -295 0
-289 -296 0
-289 -297 0
-289 -298 0
-289 -299 0
-289 -300 0
-289 -301 0
-289 -302 0
-289 -303 0
-289 -304 0
-290 -291 0
-290 -292 0
-290 -293 0
-290 -294 0
-290 -295 0
-290 -296 0
-290 -297 0
-290 -298 0
-290 -299 0
-290 -300 0
-290 -301 0
-290 -302 0
-290 -303 0
-290 -304 0
-291 -292 0
-291 -293 0
-291 -294 0
-291 -295 0
-291 -296 0
-291 -297 0
-291 -298 0
-291 -299 0
-291 -300 0
-291 -301 0
-291 -302 0
-291 -303 0
-291 -304 0
-292 -293 0
-292 -294 0
-292 -295 0
-292 -296 0
-292 -297 0
-292 -298 0
-292 -299 0
-292 -300 0
-292 -301 0
-292 -302 0
-292 -303 0
-292 -304 0
-293 -294 0
-293 -295 0
-293 -296 0
-293 -297 0
-293 -298 0
-293 -299 0
-293 -300 0
-293 -301 0
-293 -302 0
-293 -303 0
-293 -304 0
-294 -295 0
-294 -296 0
-294 -297 0
-294 -298 0
-294 -299 0
-294 -300 0
-294 -301 0
-294 -302 0
-294 -303 0
-294 -304 0
-295 -296 0
-295 -297 0
-295 -298 0
-295 -299 0
-295 -300 0
-295 -301 0
-295 -302 0
-295 -303 0
-295 -304 0
-296 -297 0
-296 -298 0
-296 -299 0
-296 -300 0
-296 -301 0
-296 -302 0
-296 -303 0
-296 -304 0
-297 -298 0
-297 -299 0
-297 -300 0
-297 -301 0
-297 -302 0
-297 -303 0
-297 -304 0
-298 -299 0
-298 -300 0
-298 -301 0
-298 -302 0
-298 -303 0
-298 -304 0
-299 -300 0
-299 -301 0
-299 -302 0
-299 -303 0
-299 -304 0
-300 -301 0
-300 -302 0
-300 -303 0
-300 -304 0
-301 -302 0
-301 -303 0
-301 -304 0
-302 -303 0
-302 -304 0
-303 -304 0
305 306 307 308 309 310 311 312 313 314 315 316 317 318 319 320 0
-305 -306 0
-305 -307 0
-305 -308 0
-305 -309 0
-305 -310 0
-305 -311 0
-305 -312 0
-305 -313 0
-305 -314 0
-305 -315 0
-305 -316 0
-305 -317 0
-305 -318 0
-305 -319 0
-305 -320 0
-306 -307 0
-306 -308 0
-306 -309 0
-306 -310 0
-306 -311 0
-306 -312 0
-306 -313 0
-306 -314 0
-306 -315 0
-306 -316 0
-306 -317 0
-306 -318 0
-306 -319 0
-306 -320 0
-307 -308 0
-307 -309 0
-307 -310 0
-307 -311 0
-307 -312 0
-307 -313 0
-307 -314 0
-307 -315 0
-307 -316 0
-307 -317 0
-307 -318 0
-307 -319 0
-307 -320 0
-308 -309 0
-308 -310 0
-308 -311 0
-308 -312 0
-308 -313 0
-308 -314 0
-308 -315 0
-308 -316 0
-308 -317 0
-308 -318 0
-308 -319 0
-308 -320 0
-309 -310 0
-309 -311 0
-309 -312 0
-309 -313 0
-309 -314 0
-309 -315 0
-309 -316 0
-309 -317 0
-309 -318 0
-309 -319 0
-309 -320 0
-310 -311 0
-310 -312 0
-310 -313 0
-310 -314 0
-310 -315 0
-310 -316 0
-310 -317 0
-310 -318 0
-310 -319 0
-310 -320 0
-311 -312 0
-311 -313 0
-311 -314 0
-311 -315 0
-311 -316 0
-311 -317 0
-311 -318 0
-311 -319 0
-311 -320 0
-312 -313 0
-312 -314 0
-312 -315 0
-312 -316 0
-312 -317 0
-312 -318 0
-312 -319 0
-312 -320 0
-313 -314 0
-313 -315 0
-313 -316 0
-313 -317 0
-313 -318 0
-313 -319 0
-313 -320 0
-314 -315 0
-314 -316 0
-314 -317 0
-314 -318 0
-314 -319 0
-314 -320 0
-315 -316 0
-315 -317 0
-315 -318 0
-315 -319 0
-315 -320 0
-316 -317 0
-316 -318 0
-316 -319 0
-316 -320 0
-317 -318 0
-317 -319 0
-317 -320 0
-318 -319 0
-318 -320 0
-319 -320 0
321 322 323 324 325 326 327 328 329 330 331 332 333 334 335 336 0
-321 -322 0
-321 -323 0
-321 -324 0
-321 -325 0
-321 -326 0
-321 -327 0
-321 -328 0
-321 -329 0
-321 -330 0
-321 -331 0
-321 -332 0
-321 -333 0
-321 -334 0
-321 -335 0
-321 -336 0
-322 -323 0
-322 -324 0
-322 -325 0
-322 -326 0
-322 -327 0
-322 -328 0
-322 -329 0
-322 -330 0
-322 -331 0
-322 -332 0
-322 -333 0
-322 -334 0
-322 -335 0
-322 -336 0
-323 -324 0
-323 -325 0
-323 -326 0
-323 -327 0
-323 -328 0
-323 -329 0
-323 -330 0
-323 -331 0
-323 -332 0
-323 -333 0
-323 -334 0
-323 -335 0
-323 -336 0
-324 -325 0
-324 -326 0
-324 -327 0
-324 -328 0
-324 -329 0
-324 -330 0
-324 -331 0
-324 -332 0
-324 -333 0
-324 -334 0
-324 -335 0
-324 -336 0
-325 -326 0
-325 -327 0
-325 -328 0
-325 -329 0
-325 -330 0
-325 -331 0
-325 -332 0
-325 -333 0
-325 -334 0
-325 -335 0
-325 -336 0
-326 -327 0
-326 -328 0
-326 -329 0
-326 -330 0
-326 -331 0
-326 -332 0
-326 -333 0
-326 -334 0
-326 -335 0
-326 -336 0
-327 -328 0
-327 -329 0
-327 -330 0
-327 -331 0
-327 -332 0
-327 -333 0
-327 -334 0
-327 -335 0
-327 -336 0
-328 -329 0
-328 -330 0
-328 -331 0
-328 -332 0
-328 -333 0
-328 -334 0
-328 -335 0
-328 -336 0
-329 -330 0
-329 -331 0
-329 -332 0
-329 -333 0
-329 -334 0
-329 -335 0
-329 -336 0
-330 -331 0
-330 -332 0
-330 -333 0
-330 -334 0
-330 -335 0
-330 -336 0
-331 -332 0
-331 -333 0
-331 -334 0
-331 -335 0
-331 -336 0
-332 -333 0
-332 -334 0
-332 -335 0
-332 -336 0
-333 -334 0
-333 -335 0
-333 -336 0
-334 -335 0
-334 -336 0
-335 -336 0
337 338 339 340 341 342 343 344 345 346 347 348 349 350 351 352 0
-337 -338 0
-337 -339 0
-337 -340 0
-337 -341 0
-337 -342 0
-337 -343 0
-337 -344 0
-337 -345 0
-337 -346 0
-337 -347 0
-337 -348 0
-337 -349 0
-337 -350 0
-337 -351 0
-337 -352 0
-338 -339 0
-338 -340 0
-338 -341 0
-338 -342 0
-338 -343 0
-338 -344 0
-338 -345 0
-338 -346 0
-338 -347 0
-338 -348 0
-338 -349 0
-338 -350 0
-338 -351 0
-338 -352 0
-339 -340 0
-339 -341 0
-339 -342 0
-339 -343 0
-339 -344 0
-339 -345 0
-339 -346 0
-339 -347 0
-339 -348 0
-339 -349 0
-339 -350 0
-339 -351 0
-339 -352 0
-340 -341 0
-340 -342 0
-340 -343 0
-340 -344 0
-340 -345 0
-340 -346 0
-340 -347 0
-340 -348 0
-340 -349 0
-340 -350 0
-340 -351 0
-340 -352 0
-341 -342 0
-341 -343 0
-341 -344 0
-341 -345 0
-341 -346 0
-341 -347 0
-341 -348 0
-341 -349 0
-341 -350 0
-341 -351 0
-341 -352 0
-342 -343 0
-342 -344 0
-342 -345 0
-342 -346 0
-342 -347 0
-342 -348 0
-342 -349 0
-342 -350 0
-342 -351 0
-342 -352 0
-343 -344 0
-343 -345 0
-343 -346 0
-343 -347 0
-343 -348 0
-343 -349 0
-343 -350 0
-343 -351 0
-343 -352 0
-344 -345 0
-344 -346 0
-344 -347 0
-344 -348 0
-344 -349 0
-344 -350 0
-344 -351 0
-344 -352 0
-345 -346 0
-345 -347 0
-345 -348 0
-345 -349 0
-345 -350 0
-345 -351 0
-345 -352 0
-346 -347 0
-346 -348 0
-346 -349 0
-346 -350 0
-346 -351 0
-346 -352 0
-347 -348 0
-347 -349 0
-347 -350 0
-347 -351 0
-347 -352 0
-348 -349 0
-348 -350 0
-348 -351 0
-348 -352 0
-349 -350 0
-349 -351 0
-349 -352 0
-350 -351 0
-350 -352 0
-351 -352 0
353 354 355 356 357 358 359 360 361 362 363 364 365 366 367 368 0
-353 -354 0
-353 -355 0
-353 -356 0
-353 -357 0
-353 -358 0
-353 -359 0
-353 -360 0
-353 -361 0
-353 -362 0
-353 -363 0
-353 -364 0
-353 -365 0
-353 -366 0
-353 -367 0
-353 -368 0
-354 -355 0
-354 -356 0
-354 -357 0
-354 -358 0
-354 -359 0
-354 -360 0
-354 -361 0
-354 -362 0
-354 -363 0
-354 -364 0
-354 -365 0
-354 -366 0
-354 -367 0
-354 -368 0
-355 -356 0
-355 -357 0
-355 -358 0
-355 -359 0
-355 -360 0
-355 -361 0
-355 -362 0
-355 -363 0
-355 -364 0
-355 -365 0
-355 -366 0
-355 -367 0
-355 -368 0
-356 -357 0
-356 -358 0
-356 -359 0
-356 -360 0
-356 -361 0
-356 -362 0
-356 -363 0
-356 -364 0
-356 -365 0
-356 -366 0
-356 -367 0
-356 -368 0
-357 -358 0
-357 -359 0
-357 -360 0
-357 -361 0
-357 -362 0
-357 -363 0
-357 -364 0
-357 -365 0
-357 -366 0
-357 -367 0
-357 -368 0
-358 -359 0
-358 -360 0
-358 -361 0
-358 -362 0
-358 -363 0
-358 -364 0
-358 -365 0
-358 -366 0
-358 -367 0
-358 -368 0
-359 -360 0
-359 -361 0
-359 -362 0
-359 -363 0
-359 -364 0
-359 -365 0
-359 -366 0
-359 -367 0
-359 -368 0
-360 -361 0
-360 -362 0
-360 -363 0
-360 -364 0
-360 -365 0
-360 -366 0
-360 -367 0
-360 -368 0
-361 -362 0
-361 -363 0
-361 -364 0
-361 -365 0
-361 -366 0
-361 -367 0
-361 -368 0
-362 -363 0
-362 -364 0
-362 -365 0
-362 -366 0
-362 -367 0
-362 -368 0
-363 -364 0
-363 -365 0
-363 -366 0
-363 -367 0
-363 -368 0
-364 -365 0
-364 -366 0
-364 -367 0
-364 -368 0
-365 -366 0
-365 -367 0
-365 -368 0
-366 -367 0
-366 -368 0
-367 -368 0
369 370 371 372 373 374 375 376 377 378 379 380 381 382 383 384 0
-369 -370 0
-369 -371 0
-369 -372 0
-369 -373 0
-369 -374 0
-369 -375 0
-369 -376 0
-369 -377 0
-369 -378 0
-369 -379 0
-369 -380 0
-369 -381 0
-369 -382 0
-369 -383 0
-369 -384 0
-370 -371 0
-370 -372 0
-370 -373 0
-370 -374 0
-370 -375 0
-370 -376 0
-370 -377 0
-370 -378 0
-370 -379 0
-370 -380 0
-370 -381 0
-370 -382 0
-370 -383 0
-370 -384 0
-371 -372 0
-371 -373 0
-371 -374 0
-371 -375 0
-371 -376 0
-371 -377 0
-371 -378 0
-371 -379 0
-371 -380 0
-371 -381 0
-371 -382 0
-371 -383 0
-371 -384 0
-372 -373 0
-372 -374 0
-372 -375 0
-372 -376 0
-372 -377 0
-372 -378 0
-372 -379 0
-372 -380 0
-372 -381 0
-372 -382 0
-372 -383 0
-372 -384 0
-373 -374 0
-373 -375 0
-373 -376 0
-373 -377 0
-373 -378 0
-373 -379 0
-373 -380 0
-373 -381 0
-373 -382 0
-373 -383 0
-373 -384 0
-374 -375 0
-374 -376 0
-374 -377 0
-374 -378 0
-374 -379 0
-374 -380 0
-374 -381 0
-374 -382 0
-374 -383 0
-374 -384 0
-375 -376 0
-375 -377 0
-375 -378 0
-375 -379 0
-375 -380 0
-375 -381 0
-375 -382 0
-375 -383 0
-375 -384 0
-376 -377 0
-376 -378 0
-376 -379 0
-376 -380 0
-376 -381 0
-376 -382 0
-376 -383 0
-376 -384 0
-377 -378 0
-377 -379 0
-377 -380 0
-377 -381 0
-377 -382 0
-377 -383 0
-377 -384 0
-378 -379 0
-378 -380 0
-378 -381 0
-378 -382 0
-378 -383 0
-378 -384 0
-379 -380 0
-379 -381 0
-379 -382 0
-379 -383 0
-379 -384 0
-380 -381 0
-380 -382 0
-380 -383 0
-380 -384 0
-381 -382 0
-381 -383 0
-381 -384 0
-382 -383 0
-382 -384 0
-383 -384 0
385 386 387 388 389 390 391 392 393 394 395 396 397 398 399 400 0
-385 -386 0
-385 -387 0
-385 -388 0
-385 -389 0
-385 -390 0
-385 -391 0
-385 -392 0
-385 -393 0
-385 -394 0
-385 -395 0
-385 -396 0
-385 -397 0
-385 -398 0
-385 -399 0
-385 -400 0
-386 -387 0
-386 -388 0
-386 -389 0
-386 -390 0
-386 -391 0
-386 -392 0
-386 -393 0
-386 -394 0
-386 -395 0
-386 -396 0
-386 -397 0
-386 -398 0
-386 -399 0
-386 -400 0
-387 -388 0
-387 -389 0
-387 -390 0
-387 -391 0
-387 -392 0
-387 -393 0
-387 -394 0
-387 -395 0
-387 -396 0
-387 -397 0
-387 -398 0
-387 -399 0
-387 -400 0
-388 -389 0
-388 -390 0
-388 -391 0
-388 -392 0
-388 -393 0
-388 -394 0
-388 -395 0
-388 -396 0
-388 -397 0
-388 -398 0
-388 -399 0
-388 -400 0
-389 -390 0
-389 -391 0
-389 -392 0
-389 -393 0
-389 -394 0
-389 -395 0
-389 -396 0
-389 -397 0
-389 -398 0
-389 -399 0
-389 -400 0
-390 -391 0
-390 -392 0
-390 -393 0
-390 -394 0
-390 -395 0
-390 -396 0
-390 -397 0
-390 -398 0
-390 -399 0
-390 -400 0
-391 -392 0
-391 -393 0
-391 -394 0
-391 -395 0
-391 -396 0
-391 -397 0
-391 -398 0
-391 -399 0
-391 -400 0
-392 -393 0
-392 -394 0
-392 -395 0
-392 -396 0
-392 -397 0
-392 -398 0
-392 -399 0
-392 -400 0
-393 -394 0
-393 -395 0
-393 -396 0
-393 -397 0
-393 -398 0
-393 -399 0
-393 -400 0
-394 -395 0
-394 -396 0
-394 -397 0
-394 -398 0
-394 -399 0
-394 -400 0
-395 -396 0
-395 -397 0
-395 -398 0
-395 -399 0
-395 -400 0
-396 -397 0
-396 -398 0
-396 -399 0
-396 -400 0
-397 -398 0
-397 -399 0
-397 -400 0
-398 -399 0
-398 -400 0
-399 -400 0
401 402 403 404 405 406 407 408 409 410 411 412 413 414 415 416 0
-401 -402 0
-401 -403 0
-401 -404 0
-401 -405 0
-401 -406 0
-401 -407 0
-401 -408 0
-401 -409 0
-401 -410 0
-401 -411 0
-401 -412 0
-401 -413 0
-401 -414 0
-401 -415 0
-401 -416 0
-402 -403 0
-402 -404 0
-402 -405 0
-402 -406 0
-402 -407 0
-402 -408 0
-402 -409 0
-402 -410 0
-402 -411 0
-402 -412 0
-402 -413 0
-402 -414 0
-402 -415 0
-402 -416 0
-403 -404 0
-403 -405 0
-403 -406 0
-403 -407 0
-403 -408 0
-403 -409 0
-403 -410 0
-403 -411 0
-403 -412 0
-403 -413 0
-403 -414 0
-403 -415 0
-403 -416 0
-404 -405 0
-404 -406 0
-404 -407 0
-404 -408 0
-404 -409 0
-404 -410 0
-404 -411 0
-404 -412 0
-404 -413 0
-404 -414 0
-404 -415 0
-404 -416 0
-405 -406 0
-405 -407 0
-405 -408 0
-405 -409 0
-405 -410 0
-405 -411 0
-405 -412 0
-405 -413 0
-405 -414 0
-405 -415 0
-405 -416 0
-406 -407 0
-406 -408 0
-406 -409 0
-406 -410 0
-406 -411 0
-406 -412 0
-406 -413 0
-406 -414 0
-406 -415 0
-406 -416 0
-407 -408 0
-407 -409 0
-407 -410 0
-407 -411 0
-407 -412 0
-407 -413 0
-407 -414 0
-407 -415 0
-407 -416 0
-408 -409 0
-408 -410 0
-408 -411 0
-408 -412 0
-408 -413 0
-408 -414 0
-408 -415 0
-408 -416 0
-409 -410 0
-409 -411 0
-409 -412 0
-409 -413 0
-409 -414 0
-409 -415 0
-409 -416 0
-410 -411 0
-410 -412 0
-410 -413 0
-410 -414 0
-410 -415 0
-410 -416 0
-411 -412 0
-411 -413 0
-411 -414 0
-411 -415 0
-411 -416 0
-412 -413 0
-412 -414 0
-412 -415 0
-412 -416 0
-413 -414 0
-413 -415 0
-413 -416 0
-414 -415 0
-414 -416 0
-415 -416 0
417 418 419 420 421 422 423 424 425 426 427 428 429 430 431 432 0
-417 -418 0
-417 -419 0
-417 -420 0
-417 -421 0
-417 -422 0
-417 -423 0
-417 -424 0
-417 -425 0
-417 -426 0
-417 -427 0
-417 -428 0
-417 -429 0
-417 -430 0
-417 -431 0
-417 -432 0
-418 -419 0
-418 -420 0
-418 -421 0
-418 -422 0
-418 -423 0
-418 -424 0
-418 -425 0
-418 -426 0
-418 -427 0
-418 -428 0
-418 -429 0
-418 -430 0
-418 -431 0
-418 -432 0
-419 -420 0
-419 -421 0
-419 -422 0
-419 -423 0
-419 -424 0
-419 -425 0
-419 -426 0
-419 -427 0
-419 -428 0
-419 -429 0
-419 -430 0
-419 -431 0
-419 -432 0
-420 -421 0
-420 -422 0
-420 -423 0
-420 -424 0
-420 -425 0
-420 -426 0
-420 -427 0
-420 -428 0
-420 -429 0
-420 -430 0
-420 -431 0
-420 -432 0
-421 -422 0
-421 -423 0
-421 -424 0
-421 -425 0
-421 -426 0
-421 -427 0
-421 -428 0
-421 -429 0
-421 -430 0
-421 -431 0
-421 -432 0
-422 -423 0
-422 -424 0
-422 -425 0
-422 -426 0
-422 -427 0
-422 -428 0
-422 -429 0
-422 -430 0
-422 -431 0
-422 -432 0
-423 -424 0
-423 -425 0
-423 -426 0
-423 -427 0
-423 -428 0
-423 -429 0
-423 -430 0
-423 -431 0
-423 -432 0
-424 -425 0
-424 -426 0
-424 -427 0
-424 -428 0
-424 -429 0
-424 -430 0
-424 -431 0
-424 -432 0
-425 -426 0
-425 -427 0
-425 -428 0
-425 -429 0
-425 -430 0
-425 -431 0
-425 -432 0
-426 -427 0
-426 -428 0
-426 -429 0
-426 -430 0
-426 -431 0
-426 -432 0
-427 -428 0
-427 -429 0
-427 -430 0
-427 -431 0
-427 -432 0
-428 -429 0
-428 -430 0
-428 -431 0
-428 -432 0
-429 -430 0
-429 -431 0
-429 -432 0
-430 -431 0
-430 -432 0
-431 -432 0
433 434 435 436 437 438 439 440 441 442 443 444 445 446 447 448 0
-433 -434 0
-433 -435 0
-433 -436 0
-433 -437 0
-433 -438 0
-433 -439 0
-433 -440 0
-433 -441 0
-433 -442 0
-433 -443 0
-433 -444 0
-433 -445 0
-433 -446 0
-433 -447 0
-433 -448 0
-434 -435 0
-434 -436 0
-434 -437 0
-434 -438 0
-434 -439 0
-434 -440 0
-434 -441 0
-434 -442 0
-434 -443 0
-434 -444 0
-434 -445 0
-434 -446 0
-434 -447 0
-434 -448 0
-435 -436 0
-435 -437 0
-435 -438 0
-435 -439 0
-435 -440 0
-435 -441 0
-435 -442 0
-435 -443 0
-435 -444 0
-435 -445 0
-435 -446 0
-435 -447 0
-435 -448 0
-436 -437 0
-436 -438 0
-436 -439 0
-436 -440 0
-436 -441 0
-436 -442 0
-436 -443 0
-436 -444 0
-436 -445 0
-436 -446 0
-436 -447 0
-436 -448 0
-437 -438 0
-437 -439 0
-437 -440 0
-437 -441 0
-437 -442 0
-437 -443 0
-437 -444 0
-437 -445 0
-437 -446 0
-437 -447 0
-437 -448 0
-438 -439 0
-438 -440 0
-438 -441 0
-438 -442 0
-438 -443 0
-438 -444 0
-438 -445 0
-438 -446 0
-438 -447 0
-438 -448 0
-439 -440 0
-439 -441 0
-439 -442 0
-439 -443 0
-439 -444 0
-439 -445 0
-439 -446 0
-439 -447 0
-439 -448 0
-440 -441 0
-440 -442 0
-440 -443 0
-440 -444 0
-440 -445 0
-440 -446 0
-440 -447 0
-440 -448 0
-441 -442 0
-441 -443 0
-441 -444 0
-441 -445 0
-441 -446 0
-441 -447 0
-441 -448 0
-442 -443 0
-442 -444 0
-442 -445 0
-442 -446 0
-442 -447 0
-442 -448 0
-443 -444 0
-443 -445 0
-443 -446 0
-443 -447 0
-443 -448 0
-444 -445 0
-444 -446 0
-444 -447 0
-444 -448 0
-445 -446 0
-445 -447 0
-445 -448 0
-446 -447 0
-446 -448 0
-447 -448 0
449 450 451 452 453 454 455 456 457 458 459 460 461 462 463 464 0
-449 -450 0
-449 -451 0
-449 -452 0
-449 -453 0
-449 -454 0
-449 -455 0
-449 -456 0
-449 -457 0
-449 -458 0
-449 -459 0
-449 -460 0
-449 -461 0
-449 -462 0
-449 -463 0
-449 -464 0
-450 -451 0
-450 -452 0
-450 -453 0
-450 -454 0
-450 -455 0
-450 -456 0
-450 -457 0
-450 -458 0
-450 -459 0
-450 -460 0
-450 -461 0
-450 -462 0
-450 -463 0
-450 -464 0
-451 -452 0
-451 -453 0
-451 -454 0
-451 -455 0
-451 -456 0
-451 -457 0
-451 -458 0
-451 -459 0
-451 -460 0
-451 -461 0
-451 -462 0
-451 -463 0
-451 -464 0
-452 -453 0
-452 -454 0
-452 -455 0
-452 -456 0
-452 -457 0
-452 -458 0
-452 -459 0
-452 -460 0
-452 -461 0
-452 -462 0
-452 -463 0
-452 -464 0
-453 -454 0
-453 -455 0
-453 -456 0
-453 -457 0
-453 -458 0
-453 -459 0
-453 -460 0
-453 -461 0
-453 -462 0
-453 -463 0
-453 -464 0
-454 -455 0
-454 -456 0
-454 -457 0
-454 -458 0
-454 -459 0
-454 -460 0
-454 -461 0
-454 -462 0
-454 -463 0
-454 -464 0
-455 -456 0
-455 -457 0
-455 -458 0
-455 -459 0
-455 -460 0
-455 -461 0
-455 -462 0
-455 -463 0
-455 -464 0
-456 -457 0
-456 -458 0
-456 -459 0
-456 -460 0
-456 -461 0
-456 -462 0
-456 -463 0
-456 -464 0
-457 -458 0
-457 -459 0
-457 -460 0
-457 -461 0
-457 -462 0
-457 -463 0
-457 -464 0
-458 -459 0
-458 -460 0
-458 -461 0
-458 -462 0
-458 -463 0
-458 -464 0
-459 -460 0
-459 -461 0
-459 -462 0
-459 -463 0
-459 -464 0
-460 -461 0
-460 -462 0
-460 -463 0
-460 -464 0
-461 -462 0
-461 -463 0
-461 -464 0
-462 -463 0
-462 -464 0
-463 -464 0
465 466 467 468 469 470 471 472 473 474 475 476 477 478 479 480 0
-465 -466 0
-465 -467 0
-465 -468 0
-465 -469 0
-465 -470 0
-465 -471 0
-465 -472 0
-465 -473 0
-465 -474 0
-465 -475 0
-465 -476 0
-465 -477 0
-465 -478 0
-465 -479 0
-465 -480 0
-466 -467 0
-466 -468 0
-466 -469 0
-466 -470 0
-466 -471 0
-466 -472 0
-466 -473 0
-466 -474 0
-466 -475 0
-466 -476 0
-466 -477 0
-466 -478 0
-466 -479 0
-466 -480 0
-467 -468 0
-467 -469 0
-467 -470 0
-467 -471 0
-467 -472 0
-467 -473 0
-467 -474 0
-467 -475 0
-467 -476 0
-467 -477 0
-467 -478 0
-467 -479 0
-467 -480 0
-468 -469 0
-468 -470 0
-468 -471 0
-468 -472 0
-468 -473 0
-468 -474 0
-468 -475 0
-468 -476 0
-468 -477 0
-468 -478 0
-468 -479 0
-468 -480 0
-469 -470 0
-469 -471 0
-469 -472 0
-469 -473 0
-469 -474 0
-469 -475 0
-469 -476 0
-469 -477 0
-469 -478 0
-469 -479 0
-469 -480 0
-470 -471 0
-470 -472 0
-470 -473 0
-470 -474 0
-470 -475 0
-470 -476 0
-470 -477 0
-470 -478 0
-470 -479 0
-470 -480 0
-471 -472 0
-471 -473 0
-471 -474 0
-471 -475 0
-471 -476 0
-471 -477 0
-471 -478 0
-471 -479 0
-471 -480 0
-472 -473 0
-472 -474 0
-472 -475 0
-472 -476 0
-472 -477 0
-472 -478 0
-472 -479 0
-472 -480 0
-473 -474 0
-473 -475 0
-473 -476 0
-473 -477 0
-473 -478 0
-473 -479 0
-473 -480 0
-474 -475 0
-474 -476 0
-474 -477 0
-474 -478 0
-474 -479 0
-474 -480 0
-475 -476 0
-475 -477 0
-475 -478 0
-475 -479 0
-475 -480 0
-476 -477 0
-476 -478 0
-476 -479 0
-476 -480 0
-477 -478 0
-477 -479 0
-477 -480 0
-478 -479 0
-478 -480 0
-479 -480 0
481 482 483 484 485 486 487 488 489 490 491 492 493 494 495 496 0
-481 -482 0
-481 -483 0
-481 -484 0
-481 -485 0
-481 -486 0
-481 -487 0
-481 -488 0
-481 -489 0
-481 -490 0
-481 -491 0
-481 -492 0
-481 -493 0
-481 -494 0
-481 -495 0
-481 -496 0
-482 -483 0
-482 -484 0
-482 -485 0
-482 -486 0
-482 -487 0
-482 -488 0
-482 -489 0
-482 -490 0
-482 -491 0
-482 -492 0
-482 -493 0
-482 -494 0
-482 -495 0
-482 -496 0
-483 -484 0
-483 -485 0
-483 -486 0
-483 -487 0
-483 -488 0
-483 -489 0
-483 -490 0
-483 -491 0
-483 -492 0
-483 -493 0
-483 -494 0
-483 -495 0
-483 -496 0
-484 -485 0
-484 -486 0
-484 -487 0
-484 -488 0
-484 -489 0
-484 -490 0
-484 -491 0
-484 -492 0
-484 -493 0
-484 -494 0
-484 -495 0
-484 -496 0
-485 -486 0
-485 -487 0
-485 -488 0
-485 -489 0
-485 -490 0
-485 -491 0
-485 -492 0
-485 -493 0
-485 -494 0
-485 -495 0
-485 -496 0
-486 -487 0
-486 -488 0
-486 -489 0
-486 -490 0
-486 -491 0
-486 -492 0
-486 -493 0
-486 -494 0
-486 -495 0
-486 -496 0
-487 -488 0
-487 -489 0
-487 -490 0
-487 -491 0
-487 -492 0
-487 -493 0
-487 -494 0
-487 -495 0
-487 -496 0
-488 -489 0
-488 -490 0
-488 -491 0
-488 -492 0
-488 -493 0
-488 -494 0
-488 -495 0
-488 -496 0
-489 -490 0
-489 -491 0
-489 -492 0
-489 -493 0
-489 -494 0
-489 -495 0
-489 -496 0
-490 -491 0
-490 -492 0
-490 -493 0
-490 -494 0
-490 -495 0
-490 -496 0
-491 -492 0
-491 -493 0
-491 -494 0
-491 -495 0
-491 -496 0
-492 -493 0
-492 -494 0
-492 -495 0
-492 -496 0
-493 -494 0
-493 -495 0
-493 -496 0
-494 -495 0
-494 -496 0
-495 -496 0
497 498 499 500 501 502 503 504 505 506 507 508 509 510 511 512 0
-497 -498 0
-497 -499 0
-497 -500 0
-497 -501 0
-497 -502 0
-497 -503 0
-497 -504 0
-497 -505 0
-497 -506 0
-497 -507 0
-497 -508 0
-497 -509 0
-497 -510 0
-497 -511 0
-497 -512 0
-498 -499 0
-498 -500 0
-498 -501 0
-498 -502 0
-498 -503 0
-498 -504 0
-498 -505 0
-498 -506 0
-498 -507 0
-498 -508 0
-498 -509 0
-498 -510 0
-498 -511 0
-498 -512 0
-499 -500 0
-499 -501 0
-499 -502 0
-499 -503 0
-499 -504 0
-499 -505 0
-499 -506 0
-499 -507 0
-499 -508 0
-499 -509 0
-499 -510 0
-499 -511 0
-499 -512 0
-500 -501 0
-500 -502 0
-500 -503 0
-500 -504 0
-500 -505 0
-500 -506 0
-500 -507 0
-500 -508 0
-500 -509 0
-500 -510 0
-500 -511 0
-500 -512 0
-501 -502 0
-501 -503 0
-501 -504 0
-501 -505 0
-501 -506 0
-501 -507 0
-501 -508 0
-501 -509 0
-501 -510 0
-501 -511 0
-501 -512 0
-502 -503 0
-502 -504 0
-502 -505 0
-502 -506 0
-502 -507 0
-502 -508 0
-502 -509 0
-502 -510 0
-502 -511 0
-502 -512 0
-503 -504 0
-503 -505 0
-503 -506 0
-503 -507 0
-503 -508 0
-503 -509 0
-503 -510 0
-503 -511 0
-503 -512 0
-504 -505 0
-504 -506 0
-504 -507 0
-504 -508 0
-504 -509 0
-504 -510 0
-504 -511 0
-504 -512 0
-505 -506 0
-505 -507 0
-505 -508 0
-505 -509 0
-505 -510 0
-505 -511 0
-505 -512 0
-506 -507 0
-506 -508 0
-506 -509 0
-506 -510 0
-506 -511 0
-506 -512 0
-507 -508 0
-507 -509 0
-507 -510 0
-507 -511 0
-507 -512 0
-508 -509 0
-508 -510 0
-508 -511 0
-508 -512 0
-509 -510 0
-509 -511 0
-509 -512 0
-510 -511 0
-510 -512 0
-511 -512 0
513 514 515 516 517 518 519 520 521 522 523 524 525 526 527 528 0
-513 -514 0
-513 -515 0
-513 -516 0
-513 -517 0
-513 -518 0
-513 -519 0
-513 -520 0
-513 -521 0
-513 -522 0
-513 -523 0
-513 -524 0
-513 -525 0
-513 -526 0
-513 -527 0
-513 -528 0
-514 -515 0
-514 -516 0
-514 -517 0
-514 -518 0
-514 -519 0
-514 -520 0
-514 -521 0
-514 -522 0
-514 -523 0
-514 -524 0
-514 -525 0
-514 -526 0
-514 -527 0
-514 -528 0
-515 -516 0
-515 -517 0
-515 -518 0
-515 -519 0
-515 -520 0
-515 -521 0
-515 -522 0
-515 -523 0
-515 -524 0
-515 -525 0
-515 -526 0
-515 -527 0
-515 -528 0
-516 -517 0
-516 -518 0
-516 -519 0
-516 -520 0
-516 -521 0
-516 -522 0
-516 -523 0
-516 -524 0
-516 -525 0
-516 -526 0
-516 -527 0
-516 -528 0
-517 -518 0
-517 -519 0
-517 -520 0
-517 -521 0
-517 -522 0
-517 -523 0
-517 -524 0
-517 -525 0
-517 -526 0
-517 -527 0
-517 -528 0
-518 -519 0
-518 -520 0
-518 -521 0
-518 -522 0
-518 -523 0
-518 -524 0
-518 -525 0
-518 -526 0
-518 -527 0
-518 -528 0
-519 -520 0
-519 -521 0
-519 -522 0
-519 -523 0
-519 -524 0
-519 -525 0
-519 -526 0
-519 -527 0
-519 -528 0
-520 -521 0
-520 -522 0
-520 -523 0
-520 -524 0
-520 -525 0
-520 -526 0
-520 -527 0
-520 -528 0
-521 -522 0
-521 -523 0
-521 -524 0
-521 -525 0
-521 -526 0
-521 -527 0
-521 -528 0
-522 -523 0
-522 -524 0
-522 -525 0
-522 -526 0
-522 -527 0
-522 -528 0
-523 -524 0
-523 -525 0
-523 -526 0
-523 -527 0
-523 -528 0
-524 -525 0
-524 -526 0
-524 -527 0
-524 -528 0
-525 -526 0
-525 -527 0
-525 -528 0
-526 -527 0
-526 -528 0
-527 -528 0
529 530 531 532 533 534 535 536 537 538 539 540 541 542 543 544 0
-529 -530 0
-529 -531 0
-529 -532 0
-529 -533 0
-529 -534 0
-529 -535 0
-529 -536 0
-529 -537 0
-529 -538 0
-529 -539 0
-529 -540 0
-529 -541 0
-529 -542 0
-529 -543 0
-529 -544 0
-530 -531 0
-530 -532 0
-530 -533 0
-530 -534 0
-530 -535 0
-530 -536 0
-530 -537 0
-530 -538 0
-530 -539 0
-530 -540 0
-530 -541 0
-530 -542 0
-530 -543 0
-530 -544 0
-531 -532 0
-531 -533 0
-531 -534 0
-531 -535 0
-531 -536 0
-531 -537 0
-531 -538 0
-531 -539 0
-531 -540 0
-531 -541 0
-531 -542 0
-531 -543 0
-531 -544 0
-532 -533 0
-532 -534 0
-532 -535 0
-532 -536 0
-532 -537 0
-532 -538 0
-532 -539 0
-532 -540 0
-532 -541 0
-532 -542 0
-532 -543 0
-532 -544 0
-533 -534 0
-533 -535 0
-533 -536 0
-533 -537 0
-533 -538 0
-533 -539 0
-533 -540 0
-533 -541 0
-533 -542 0
-533 -543 0
-533 -544 0
-534 -535 0
-534 -536 0
-534 -537 0
-534 -538 0
-534 -539 0
-534 -540 0
-534 -541 0
-534 -542 0
-534 -543 0
-534 -544 0
-535 -536 0
-535 -537 0
-535 -538 0
-535 -539 0
-535 -540 0
-535 -541 0
-535 -542 0
-535 -543 0
-535 -544 0
-536 -537 0
-536 -538 0
-536 -539 0
-536 -540 0
-536 -541 0
-536 -542 0
-536 -543 0
-536 -544 0
-537 -538 0
-537 -539 0
-537 -540 0
-537 -541 0
-537 -542 0
-537 -543 0
-537 -544 0
-538 -539 0
-538 -540 0
-538 -541 0
-538 -542 0
-538 -543 0
-538 -544 0
-539 -540 0
-539 -541 0
-539 -542 0
-539 -543 0
-539 -544 0
-540 -541 0
-540 -542 0
-540 -543 0
-540 -544 0
-541 -542 0
-541 -543 0
-541 -544 0
-542 -543 0
-542 -544 0
-543 -544 0
-1 -17 0
-1 -33 0
-1 -49 0
-17 -33 0
-17 -49 0
-33 -49 0
-2 -18 0
-2 -34 0
-2 -50 0
-18 -34 0
-18 -50 0
-34 -50 0
-3 -19 0
-3 -35 0
-3 -51 0
-19 -35 0
-19 -51 0
-35 -51 0
-4 -20 0
-4 -36 0
-4 -52 0
-20 -36 0
-20 -52 0
-36 -52 0
-5 -21 0
-5 -37 0
-5 -53 0
-21 -37 0
-21 -53 0
-37 -53 0
-6 -22 0
-6 -38 0
-6 -54 0
-22 -38 0
-22 -54 0
-38 -54 0
-7 -23 0
-7 -39 0
-7 -55 0
-23 -39 0
-23 -55 0
-39 -55 0
-8 -24 0
-8 -40 0
-8 -56 0
-24 -40 0
-24 -56 0
-40 -56 0
-9 -25 0
-9 -41 0
-9 -57 0
-25 -41 0
-25 -57 0
-41 -57 0
-10 -26 0
-10 -42 0
-10 -58 0
-26 -42 0
-26 -58 0
-42 -58 0
-11 -27 0
-11 -43 0
-11 -59 0
-27 -43 0
-27 -59 0
-43 -59 0
-12 -28 0
-12 -44 0
-12 -60 0
-28 -44 0
-28 -60 0
-44 -60 0
-13 -29 0
-13 -45 0
-13 -61 0
-29 -45 0
-29 -61 0
-45 -61 0
-14 -30 0
-14 -46 0
-14 -62 0
-30 -46 0
-30 -62 0
-46 -62 0
-15 -31 0
-15 -47 0
-15 -63 0
-31 -47 0
-31 -63 0
-47 -63 0
-16 -32 0
-16 -48 0
-16 -64 0
-32 -48 0
-32 -64 0
-48 -64 0
545 546 547 548 549 550 551 552 553 554 555 556 557 0
-545 -546 0
-545 -547 0
-545 -548 0
-545 -549 0
-545 -550 0
-545 -551 0
-545 -552 0
-545 -553 0
-545 -554 0
-545 -555 0
-545 -556 0
-545 -557 0
-546 -547 0
-546 -548 0
-546 -549 0
-546 -550 0
-546 -551 0
-546 -552 0
-546 -553 0
-546 -554 0
-546 -555 0
-546 -556 0
-546 -557 0
-547 -548 0
-547 -549 0
-547 -550 0
-547 -551 0
-547 -552 0
-547 -553 0
-547 -554 0
-547 -555 0
-547 -556 0
-547 -557 0
-548 -549 0
-548 -550 0
-548 -551 0
-548 -552 0
-548 -553 0
-548 -554 0
-548 -555 0
-548 -556 0
-548 -557 0
-549 -550 0
-549 -551 0
-549 -552 0
-549 -553 0
-549 -554 0
-549 -555 0
-549 -556 0
-549 -557 0
-550 -551 0
-550 -552 0
-550 -553 0
-550 -554 0
-550 -555 0
-550 -556 0
-550 -557 0
-551 -552 0
-551 -553 0
-551 -554 0
-551 -555 0
-551 -556 0
-551 -557 0
-552 -553 0
-552 -554 0
-552 -555 0
-552 -556 0
-552 -557 0
-553 -554 0
-553 -555 0
-553 -556 0
-553 -557 0
-554 -555 0
-554 -556 0
-554 -557 0
-555 -556 0
-555 -557 0
-556 -557 0
-1 545 0
-2 545 546 0
-3 545 546 547 0
-4 545 546 547 548 0
-5 546 547 548 549 0
-6 547 548 549 550 0
-7 548 549 550 551 0
-8 549 550 551 552 0
-9 550 551 552 553 0
-10 551 552 553 554 0
-11 552 553 554 555 0
-12 553 554 555 556 0
-13 554 555 556 557 0
-14 555 556 557 0
-15 556 557 0
-16 557 0
-17 545 0
-18 545 546 0
-19 545 546 547 0
-20 545 546 547 548 0
-21 546 547 548 549 0
-22 547 548 549 550 0
-23 548 549 550 551 0
-24 549 550 551 552 0
-25 550 551 552 553 0
-26 551 552 553 554 0
-27 552 553 554 555 0
-28 553 554 555 556 0
-29 554 555 556 557 0
-30 555 556 557 0
-31 556 557 0
-32 557 0
-33 545 0
-34 545 546 0
-35 545 546 547 0
-36 545 546 547 548 0
-37 546 547 548 549 0
-38 547 548 549 550 0
-39 548 549 550 551 0
-40 549 550 551 552 0
-41 550 551 552 553 0
-42 551 552 553 554 0
-43 552 553 554 555 0
-44 553 554 555 556 0
-45 554 555 556 557 0
-46 555 556 557 0
-47 556 557 0
-48 557 0
-49 545 0
-50 545 546 0
-51 545 546 547 0
-52 545 546 547 548 0
-53 546 547 548 549 0
-54 547 548 549 550 0
-55 548 549 550 551 0
-56 549 550 551 552 0
-57 550 551 552 553 0
-58 551 552 553 554 0
-59 552 553 554 555 0
-60 553 554 555 556 0
-61 554 555 556 557 0
-62 555 556 557 0
-63 556 557 0
-64 557 0
-545 -5 0
-545 -6 0
-545 -7 0
-545 -8 0
-545 -9 0
-545 -10 0
-545 -11 0
-545 -12 0
-545 -13 0
-545 -14 0
-545 -15 0
-545 -16 0
-545 -21 0
-545 -22 0
-545 -23 0
-545 -24 0
-545 -25 0
-545 -26 0
-545 -27 0
-545 -28 0
-545 -29 0
-545 -30 0
-545 -31 0
-545 -32 0
-545 -37 0
-545 -38 0
-545 -39 0
-545 -40 0
-545 -41 0
-545 -42 0
-545 -43 0
-545 -44 0
-545 -45 0
-545 -46 0
-545 -47 0
-545 -48 0
-545 -53 0
-545 -54 0
-545 -55 0
-545 -56 0
-545 -57 0
-545 -58 0
-545 -59 0
-545 -60 0
-545 -61 0
-545 -62 0
-545 -63 0
-545 -64 0
-546 -1 0
-546 -6 0
-546 -7 0
-546 -8 0
-546 -9 0
-546 -10 0
-546 -11 0
-546 -12 0
-546 -13 0
-546 -14 0
-546 -15 0
-546 -16 0
-546 -17 0
-546 -22 0
-546 -23 0
-546 -24 0
-546 -25 0
-546 -26 0
-546 -27 0
-546 -28 0
-546 -29 0
-546 -30 0
-546 -31 0
-546 -32 0
-546 -33 0
-546 -38 0
-546 -39 0
-546 -40 0
-546 -41 0
-546 -42 0
-546 -43 0
-546 -44 0
-546 -45 0
-546 -46 0
-546 -47 0
-546 -48 0
-546 -49 0
-546 -54 0
-546 -55 0
-546 -56 0
-546 -57 0
-546 -58 0
-546 -59 0
-546 -60 0
-546 -61 0
-546 -62 0
-546 -63 0
-546 -64 0
-547 -1 0
-547 -2 0
-547 -7 0
-547 -8 0
-547 -9 0
-547 -10 0
-547 -11 0
-547 -12 0
-547 -13 0
-547 -14 0
-547 -15 0
-547 -16 0
-547 -17 0
-547 -18 0
-547 -23 0
-547 -24 0
-547 -25 0
-547 -26 0
-547 -27 0
-547 -28 0
-547 -29 0
-547 -30 0
-547 -31 0
-547 -32 0
-547 -33 0
-547 -34 0
-547 -39 0
-547 -40 0
-547 -41 0
-547 -42 0
-547 -43 0
-547 -44 0
-547 -45 0
-547 -46 0
-547 -47 0
-547 -48 0
-547 -49 0
-547 -50 0
-547 -55 0
-547 -56 0
-547 -57 0
-547 -58 0
-547 -59 0
-547 -60 0
-547 -61 0
-547 -62 0
-547 -63 0
-547 -64 0
-548 -1 0
-548 -2 0
-548 -3 0
-548 -8 0
-548 -9 0
-548 -10 0
-548 -11 0
-548 -12 0
-548 -13 0
-548 -14 0
-548 -15 0
-548 -16 0
-548 -17 0
-548 -18 0
-548 -19 0
-548 -24 0
-548 -25 0
-548 -26 0
-548 -27 0
-548 -28 0
-548 -29 0
-548 -30 0
-548 -31 0
-548 -32 0
-548 -33 0
-548 -34 0
-548 -35 0
-548 -40 0
-548 -41 0
-548 -42 0
-548 -43 0
-548 -44 0
-548 -45 0
-548 -46 0
-548 -47 0
-548 -48 0
-548 -49 0
-548 -50 0
-548 -51 0
-548 -56 0
-548 -57 0
-548 -58 0
-548 -59 0
-548 -60 0
-548 -61 0
-548 -62 0
-548 -63 0
-548 -64 0
-549 -1 0
-549 -2 0
-549 -3 0
-549 -4 0
-549 -9 0
-549 -10 0
-549 -11 0
-549 -12 0
-549 -13 0
-549 -14 0
-549 -15 0
-549 -16 0
-549 -17 0
-549 -18 0
-549 -19 0
-549 -20 0
-549 -25 0
-549 -26 0
-549 -27 0
-549 -28 0
-549 -29 0
-549 -30 0
-549 -31 0
-549 -32 0
-549 -33 0
-549 -34 0
-549 -35 0
-549 -36 0
-549 -41 0
-549 -42 0
-549 -43 0
-549 -44 0
-549 -45 0
-549 -46 0
-549 -47 0
-549 -48 0
-549 -49 0
-549 -50 0
-549 -51 0
-549 -52 0
-549 -57 0
-549 -58 0
-549 -59 0
-549 -60 0
-549 -61 0
-549 -62 0
-549 -63 0
-549 -64 0
-550 -1 0
-550 -2 0
-550 -3 0
-550 -4 0
-550 -5 0
-550 -10 0
-550 -11 0
-550 -12 0
-550 -13 0
-550 -14 0
-550 -15 0
-550 -16 0
-550 -17 0
-550 -18 0
-550 -19 0
-550 -20 0
-550 -21 0
-550 -26 0
-550 -27 0
-550 -28 0
-550 -29 0
-550 -30 0
-550 -31 0
-550 -32 0
-550 -33 0
-550 -34 0
-550 -35 0
-550 -36 0
-550 -37 0
-550 -42 0
-550 -43 0
-550 -44 0
-550 -45 0
-550 -46 0
-550 -47 0
-550 -48 0
-550 -49 0
-550 -50 0
-550 -51 0
-550 -52 0
-550 -53 0
-550 -58 0
-550 -59 0
-550 -60 0
-550 -61 0
-550 -62 0
-550 -63 0
-550 -64 0
-551 -1 0
-551 -2 0
-551 -3 0
-551 -4 0
-551 -5 0
-551 -6 0
-551 -11 0
-551 -12 0
-551 -13 0
-551 -14 0
-551 -15 0
-551 -16 0
-551 -17 0
-551 -18 0
-551 -19 0
-551 -20 0
-551 -21 0
-551 -22 0
-551 -27 0
-551 -28 0
-551 -29 0
-551 -30 0
-551 -31 0
-551 -32 0
-551 -33 0
-551 -34 0
-551 -35 0
-551 -36 0
-551 -37 0
-551 -38 0
-551 -43 0
-551 -44 0
-551 -45 0
-551 -46 0
-551 -47 0
-551 -48 0
-551 -49 0
-551 -50 0
-551 -51 0
-551 -52 0
-551 -53 0
-551 -54 0
-551 -59 0
-551 -60 0
-551 -61 0
-551 -62 0
-551 -63 0
-551 -64 0
-552 -1 0
-552 -2 0
-552 -3 0
-552 -4 0
-552 -5 0
-552 -6 0
-552 -7 0
-552 -12 0
-552 -13 0
-552 -14 0
-552 -15 0
-552 -16 0
-552 -17 0
-552 -18 0
-552 -19 0
-552 -20 0
-552 -21 0
-552 -22 0
-552 -23 0
-552 -28 0
-552 -29 0
-552 -30 0
-552 -31 0
-552 -32 0
-552 -33 0
-552 -34 0
-552 -35 0
-552 -36 0
-552 -37 0
-552 -38 0
-552 -39 0
-552 -44 0
-552 -45 0
-552 -46 0
-552 -47 0
-552 -48 0
-552 -49 0
-552 -50 0
-552 -51 0
-552 -52 0
-552 -53 0
-552 -54 0
-552 -55 0
-552 -60 0
-552 -61 0
-552 -62 0
-552 -63 0
-552 -64 0
-553 -1 0
-553 -2 0
-553 -3 0
-553 -4 0
-553 -5 0
-553 -6 0
-553 -7 0
-553 -8 0
-553 -13 0
-553 -14 0
-553 -15 0
-553 -16 0
-553 -17 0
-553 -18 0
-553 -19 0
-553 -20 0
-553 -21 0
-553 -22 0
-553 -23 0
-553 -24 0
-553 -29 0
-553 -30 0
-553 -31 0
-553 -32 0
-553 -33 0
-553 -34 0
-553 -35 0
-553 -36 0
-553 -37 0
-553 -38 0
-553 -39 0
-553 -40 0
-553 -45 0
-553 -46 0
-553 -47 0
-553 -48 0
-553 -49 0
-553 -50 0
-553 -51 0
-553 -52 0
-553 -53 0
-553 -54 0
-553 -55 0
-553 -56 0
-553 -61 0
-553 -62 0
-553 -63 0
-553 -64 0
-554 -1 0
-554 -2 0
-554 -3 0
-554 -4 0
-554 -5 0
-554 -6 0
-554 -7 0
-554 -8 0
-554 -9 0
-554 -14 0
-554 -15 0
-554 -16 0
-554 -17 0
-554 -18 0
-554 -19 0
-554 -20 0
-554 -21 0
-554 -22 0
-554 -23 0
-554 -24 0
-554 -25 0
-554 -30 0
-554 -31 0
-554 -32 0
-554 -33 0
-554 -34 0
-554 -35 0
-554 -36 0
-554 -37 0
-554 -38 0
-554 -39 0
-554 -40 0
-554 -41 0
-554 -46 0
-554 -47 0
-554 -48 0
-554 -49 0
-554 -50 0
-554 -51 0
-554 -52 0
-554 -53 0
-554 -54 0
-554 -55 0
-554 -56 0
-554 -57 0
-554 -62 0
-554 -63 0
-554 -64 0
-555 -1 0
-555 -2 0
-555 -3 0
-555 -4 0
-555 -5 0
-555 -6 0
-555 -7 0
-555 -8 0
-555 -9 0
-555 -10 0
-555 -15 0
-555 -16 0
-555 -17 0
-555 -18 0
-555 -19 0
-555 -20 0
-555 -21 0
-555 -22 0
-555 -23 0
-555 -24 0
-555 -25 0
-555 -26 0
-555 -31 0
-555 -32 0
-555 -33 0
-555 -34 0
-555 -35 0
-555 -36 0
-555 -37 0
-555 -38 0
-555 -39 0
-555 -40 0
-555 -41 0
-555 -42 0
-555 -47 0
-555 -48 0
-555 -49 0
-555 -50 0
-555 -51 0
-555 -52 0
-555 -53 0
-555 -54 0
-555 -55 0
-555 -56 0
-555 -57 0
-555 -58 0
-555 -63 0
-555 -64 0
-556 -1 0
-556 -2 0
-556 -3 0
-556 -4 0
-556 -5 0
-556 -6 0
-556 -7 0
-556 -8 0
-556 -9 0
-556 -10 0
-556 -11 0
-556 -16 0
-556 -17 0
-556 -18 0
-556 -19 0
-556 -20 0
-556 -21 0
-556 -22 0
-556 -23 0
-556 -24 0
-556 -25 0
-556 -26 0
-556 -27 0
-556 -32 0
-556 -33 0
-556 -34 0
-556 -35 0
-556 -36 0
-556 -37 0
-556 -38 0
-556 -39 0
-556 -40 0
-556 -41 0
-556 -42 0
-556 -43 0
-556 -48 0
-556 -49 0
-556 -50 0
-556 -51 0
-556 -52 0
-556 -53 0
-556 -54 0
-556 -55 0
-556 -56 0
-556 -57 0
-556 -58 0
-556 -59 0
-556 -64 0
-557 -1 0
-557 -2 0
-557 -3 0
-557 -4 0
-557 -5 0
-557 -6 0
-557 -7 0
-557 -8 0
-557 -9 0
-557 -10 0
-557 -11 0
-557 -12 0
-557 -17 0
-557 -18 0
-557 -19 0
-557 -20 0
-557 -21 0
-557 -22 0
-557 -23 0
-557 -24 0
-557 -25 0
-557 -26 0
-557 -27 0
-557 -28 0
-557 -33 0
-557 -34 0
-557 -35 0
-557 -36 0
-557 -37 0
-557 -38 0
-557 -39 0
-557 -40 0
-557 -41 0
-557 -42 0
-557 -43 0
-557 -44 0
-557 -49 0
-557 -50 0
-557 -51 0
-557 -52 0
-557 -53 0
-557 -54 0
-557 -55 0
-557 -56 0
-557 -57 0
-557 -58 0
-557 -59 0
-557 -60 0
-65 -81 0
-65 -97 0
-81 -97 0
-66 -82 0
-66 -98 0
-82 -98 0
-67 -83 0
-67 -99 0
-83 -99 0
-68 -84 0
-68 -100 0
-84 -100 0
-69 -85 0
-69 -101 0
-85 -101 0
-70 -86 0
-70 -102 0
-86 -102 0
-71 -87 0
-71 -103 0
-87 -103 0
-72 -88 0
-72 -104 0
-88 -104 0
-73 -89 0
-73 -105 0
-89 -105 0
-74 -90 0
-74 -106 0
-90 -106 0
-75 -91 0
-75 -107 0
-91 -107 0
-76 -92 0
-76 -108 0
-92 -108 0
-77 -93 0
-77 -109 0
-93 -109 0
-78 -94 0
-78 -110 0
-94 -110 0
-79 -95 0
-79 -111 0
-95 -111 0
-80 -96 0
-80 -112 0
-96 -112 0
558 559 560 561 562 563 564 565 566 567 568 569 570 571 0
-558 -559 0
-558 -560 0
-558 -561 0
-558 -562 0
-558 -563 0
-558 -564 0
-558 -565 0
-558 -566 0
-558 -567 0
-558 -568 0
-558 -569 0
-558 -570 0
-558 -571 0
-559 -560 0
-559 -561 0
-559 -562 0
-559 -563 0
-559 -564 0
-559 -565 0
-559 -566 0
-559 -567 0
-559 -568 0
-559 -569 0
-559 -570 0
-559 -571 0
-560 -561 0
-560 -562 0
-560 -563 0
-560 -564 0
-560 -565 0
-560 -566 0
-560 -567 0
-560 -568 0
-560 -569 0
-560 -570 0
-560 -571 0
-561 -562 0
-561 -563 0
-561 -564 0
-561 -565 0
-561 -566 0
-561 -567 0
-561 -568 0
-561 -569 0
-561 -570 0
-561 -571 0
-562 -563 0
-562 -564 0
-562 -565 0
-562 -566 0
-562 -567 0
-562 -568 0
-562 -569 0
-562 -570 0
-562 -571 0
-563 -564 0
-563 -565 0
-563 -566 0
-563 -567 0
-563 -568 0
-563 -569 0
-563 -570 0
-563 -571 0
-564 -565 0
-564 -566 0
-564 -567 0
-564 -568 0
-564 -569 0
-564 -570 0
-564 -571 0
-565 -566 0
-565 -567 0
-565 -568 0
-565 -569 0
-565 -570 0
-565 -571 0
-566 -567 0
-566 -568 0
-566 -569 0
-566 -570 0
-566 -571 0
-567 -568 0
-567 -569 0
-567 -570 0
-567 -571 0
-568 -569 0
-568 -570 0
-568 -571 0
-569 -570 0
-569 -571 0
-570 -571 0
-65 558 0
-66 558 559 0
-67 558 559 560 0
-68 559 560 561 0
-69 560 561 562 0
-70 561 562 563 0
-71 562 563 564 0
-72 563 564 565 0
-73 564 565 566 0
-74 565 566 567 0
-75 566 567 568 0
-76 567 568 569 0
-77 568 569 570 0
-78 569 570 571 0
-79 570 571 0
-80 571 0
-81 558 0
-82 558 559 0
-83 558 559 560 0
-84 559 560 561 0
-85 560 561 562 0
-86 561 562 563 0
-87 562 563 564 0
-88 563 564 565 0
-89 564 565 566 0
-90 565 566 567 0
-91 566 567 568 0
-92 567 568 569 0
-93 568 569 570 0
-94 569 570 571 0
-95 570 571 0
-96 571 0
-97 558 0
-98 558 559 0
-99 558 559 560 0
-100 559 560 561 0
-101 560 561 562 0
-102 561 562 563 0
-103 562 563 564 0
-104 563 564 565 0
-105 564 565 566 0
-106 565 566 567 0
-107 566 567 568 0
-108 567 568 569 0
-109 568 569 570 0
-110 569 570 571 0
-111 570 571 0
-112 571 0
-558 -68 0
-558 -69 0
-558 -70 0
-558 -71 0
-558 -72 0
-558 -73 0
-558 -74 0
-558 -75 0
-558 -76 0
-558 -77 0
-558 -78 0
-558 -79 0
-558 -80 0
-558 -84 0
-558 -85 0
-558 -86 0
-558 -87 0
-558 -88 0
-558 -89 0
-558 -90 0
-558 -91 0
-558 -92 0
-558 -93 0
-558 -94 0
-558 -95 0
-558 -96 0
-558 -100 0
-558 -101 0
-558 -102 0
-558 -103 0
-558 -104 0
-558 -105 0
-558 -106 0
-558 -107 0
-558 -108 0
-558 -109 0
-558 -110 0
-558 -111 0
-558 -112 0
-559 -65 0
-559 -69 0
-559 -70 0
-559 -71 0
-559 -72 0
-559 -73 0
-559 -74 0
-559 -75 0
-559 -76 0
-559 -77 0
-559 -78 0
-559 -79 0
-559 -80 0
-559 -81 0
-559 -85 0
-559 -86 0
-559 -87 0
-559 -88 0
-559 -89 0
-559 -90 0
-559 -91 0
-559 -92 0
-559 -93 0
-559 -94 0
-559 -95 0
-559 -96 0
-559 -97 0
-559 -101 0
-559 -102 0
-559 -103 0
-559 -104 0
-559 -105 0
-559 -106 0
-559 -107 0
-559 -108 0
-559 -109 0
-559 -110 0
-559 -111 0
-559 -112 0
-560 -65 0
-560 -66 0
-560 -70 0
-560 -71 0
-560 -72 0
-560 -73 0
-560 -74 0
-560 -75 0
-560 -76 0
-560 -77 0
-560 -78 0
-560 -79 0
-560 -80 0
-560 -81 0
-560 -82 0
-560 -86 0
-560 -87 0
-560 -88 0
-560 -89 0
-560 -90 0
-560 -91 0
-560 -92 0
-560 -93 0
-560 -94 0
-560 -95 0
-560 -96 0
-560 -97 0
-560 -98 0
-560 -102 0
-560 -103 0
-560 -104 0
-560 -105 0
-560 -106 0
-560 -107 0
-560 -108 0
-560 -109 0
-560 -110 0
-560 -111 0
-560 -112 0
-561 -65 0
-561 -66 0
-561 -67 0
-561 -71 0
-561 -72 0
-561 -73 0
-561 -74 0
-561 -75 0
-561 -76 0
-561 -77 0
-561 -78 0
-561 -79 0
-561 -80 0
-561 -81 0
-561 -82 0
-561 -83 0
-561 -87 0
-561 -88 0
-561 -89 0
-561 -90 0
-561 -91 0
-561 -92 0
-561 -93 0
-561 -94 0
-561 -95 0
-561 -96 0
-561 -97 0
-561 -98 0
-561 -99 0
-561 -103 0
-561 -104 0
-561 -105 0
-561 -106 0
-561 -107 0
-561 -108 0
-561 -109 0
-561 -110 0
-561 -111 0
-561 -112 0
-562 -65 0
-562 -66 0
-562 -67 0
-562 -68 0
-562 -72 0
-562 -73 0
-562 -74 0
-562 -75 0
-562 -76 0
-562 -77 0
-562 -78 0
-562 -79 0
-562 -80 0
-562 -81 0
-562 -82 0
-562 -83 0
-562 -84 0
-562 -88 0
-562 -89 0
-562 -90 0
-562 -91 0
-562 -92 0
-562 -93 0
-562 -94 0
-562 -95 0
-562 -96 0
-562 -97 0
-562 -98 0
-562 -99 0
-562 -100 0
-562 -104 0
-562 -105 0
-562 -106 0
-562 -107 0
-562 -108 0
-562 -109 0
-562 -110 0
-562 -111 0
-562 -112 0
-563 -65 0
-563 -66 0
-563 -67 0
-563 -68 0
-563 -69 0
-563 -73 0
-563 -74 0
-563 -75 0
-563 -76 0
-563 -77 0
-563 -78 0
-563 -79 0
-563 -80 0
-563 -81 0
-563 -82 0
-563 -83 0
-563 -84 0
-563 -85 0
-563 -89 0
-563 -90 0
-563 -91 0
-563 -92 0
-563 -93 0
-563 -94 0
-563 -95 0
-563 -96 0
-563 -97 0
-563 -98 0
-563 -99 0
-563 -100 0
-563 -101 0
-563 -105 0
-563 -106 0
-563 -107 0
-563 -108 0
-563 -109 0
-563 -110 0
-563 -111 0
-563 -112 0
-564 -65 0
-564 -66 0
-564 -67 0
-564 -68 0
-564 -69 0
-564 -70 0
-564 -74 0
-564 -75 0
-564 -76 0
-564 -77 0
-564 -78 0
-564 -79 0
-564 -80 0
-564 -81 0
-564 -82 0
-564 -83 0
-564 -84 0
-564 -85 0
-564 -86 0
-564 -90 0
-564 -91 0
-564 -92 0
-564 -93 0
-564 -94 0
-564 -95 0
-564 -96 0
-564 -97 0
-564 -98 0
-564 -99 0
-564 -100 0
-564 -101 0
-564 -102 0
-564 -106 0
-564 -107 0
-564 -108 0
-564 -109 0
-564 -110 0
-564 -111 0
-564 -112 0
-565 -65 0
-565 -66 0
-565 -67 0
-565 -68 0
-565 -69 0
-565 -70 0
-565 -71 0
-565 -75 0
-565 -76 0
-565 -77 0
-565 -78 0
-565 -79 0
-565 -80 0
-565 -81 0
-565 -82 0
-565 -83 0
-565 -84 0
-565 -85 0
-565 -86 0
-565 -87 0
-565 -91 0
-565 -92 0
-565 -93 0
-565 -94 0
-565 -95 0
-565 -96 0
-565 -97 0
-565 -98 0
-565 -99 0
-565 -100 0
-565 -101 0
-565 -102 0
-565 -103 0
-565 -107 0
-565 -108 0
-565 -109 0
-565 -110 0
-565 -111 0
-565 -112 0
-566 -65 0
-566 -66 0
-566 -67 0
-566 -68 0
-566 -69 0
-566 -70 0
-566 -71 0
-566 -72 0
-566 -76 0
-566 -77 0
-566 -78 0
-566 -79 0
-566 -80 0
-566 -81 0
-566 -82 0
-566 -83 0
-566 -84 0
-566 -85 0
-566 -86 0
-566 -87 0
-566 -88 0
-566 -92 0
-566 -93 0
-566 -94 0
-566 -95 0
-566 -96 0
-566 -97 0
-566 -98 0
-566 -99 0
-566 -100 0
-566 -101 0
-566 -102 0
-566 -103 0
-566 -104 0
-566 -108 0
-566 -109 0
-566 -110 0
-566 -111 0
-566 -112 0
-567 -65 0
-567 -66 0
-567 -67 0
-567 -68 0
-567 -69 0
-567 -70 0
-567 -71 0
-567 -72 0
-567 -73 0
-567 -77 0
-567 -78 0
-567 -79 0
-567 -80 0
-567 -81 0
-567 -82 0
-567 -83 0
-567 -84 0
-567 -85 0
-567 -86 0
-567 -87 0
-567 -88 0
-567 -89 0
-567 -93 0
-567 -94 0
-567 -95 0
-567 -96 0
-567 -97 0
-567 -98 0
-567 -99 0
-567 -100 0
-567 -101 0
-567 -102 0
-567 -103 0
-567 -104 0
-567 -105 0
-567 -109 0
-567 -110 0
-567 -111 0
-567 -112 0
-568 -65 0
-568 -66 0
-568 -67 0
-568 -68 0
-568 -69 0
-568 -70 0
-568 -71 0
-568 -72 0
-568 -73 0
-568 -74 0
-568 -78 0
-568 -79 0
-568 -80 0
-568 -81 0
-568 -82 0
-568 -83 0
-568 -84 0
-568 -85 0
-568 -86 0
-568 -87 0
-568 -88 0
-568 -89 0
-568 -90 0
-568 -94 0
-568 -95 0
-568 -96 0
-568 -97 0
-568 -98 0
-568 -99 0
-568 -100 0
-568 -101 0
-568 -102 0
-568 -103 0
-568 -104 0
-568 -105 0
-568 -106 0
-568 -110 0
-568 -111 0
-568 -112 0
-569 -65 0
-569 -66 0
-569 -67 0
-569 -68 0
-569 -69 0
-569 -70 0
-569 -71 0
-569 -72 0
-569 -73 0
-569 -74 0
-569 -75 0
-569 -79 0
-569 -80 0
-569 -81 0
-569 -82 0
-569 -83 0
-569 -84 0
-569 -85 0
-569 -86 0
-569 -87 0
-569 -88 0
-569 -89 0
-569 -90 0
-569 -91 0
-569 -95 0
-569 -96 0
-569 -97 0
-569 -98 0
-569 -99 0
-569 -100 0
-569 -101 0
-569 -102 0
-569 -103 0
-569 -104 0
-569 -105 0
-569 -106 0
-569 -107 0
-569 -111 0
-569 -112 0
-570 -65 0
-570 -66 0
-570 -67 0
-570 -68 0
-570 -69 0
-570 -70 0
-570 -71 0
-570 -72 0
-570 -73 0
-570 -74 0
-570 -75 0
-570 -76 0
-570 -80 0
-570 -81 0
-570 -82 0
-570 -83 0
-570 -84 0
-570 -85 0
-570 -86 0
-570 -87 0
-570 -88 0
-570 -89 0
-570 -90 0
-570 -91 0
-570 -92 0
-570 -96 0
-570 -97 0
-570 -98 0
-570 -99 0
-570 -100 0
-570 -101 0
-570 -102 0
-570 -103 0
-570 -104 0
-570 -105 0
-570 -106 0
-570 -107 0
-570 -108 0
-570 -112 0
-571 -65 0
-571 -66 0
-571 -67 0
-571 -68 0
-571 -69 0
-571 -70 0
-571 -71 0
-571 -72 0
-571 -73 0
-571 -74 0
-571 -75 0
-571 -76 0
-571 -77 0
-571 -81 0
-571 -82 0
-571 -83 0
-571 -84 0
-571 -85 0
-571 -86 0
-571 -87 0
-571 -88 0
-571 -89 0
-571 -90 0
-571 -91 0
-571 -92 0
-571 -93 0
-571 -97 0
-571 -98 0
-571 -99 0
-571 -100 0
-571 -101 0
-571 -102 0
-571 -103 0
-571 -104 0
-571 -105 0
-571 -106 0
-571 -107 0
-571 -108 0
-571 -109 0
-113 -129 0
-113 -145 0
-129 -145 0
-114 -130 0
-114 -146 0
-130 -146 0
-115 -131 0
-115 -147 0
-131 -147 0
-116 -132 0
-116 -148 0
-132 -148 0
-117 -133 0
-117 -149 0
-133 -149 0
-118 -134 0
-118 -150 0
-134 -150 0
-119 -135 0
-119 -151 0
-135 -151 0
-120 -136 0
-120 -152 0
-136 -152 0
-121 -137 0
-121 -153 0
-137 -153 0
-122 -138 0
-122 -154 0
-138 -154 0
-123 -139 0
-123 -155 0
-139 -155 0
-124 -140 0
-124 -156 0
-140 -156 0
-125 -141 0
-125 -157 0
-141 -157 0
-126 -142 0
-126 -158 0
-142 -158 0
-127 -143 0
-127 -159 0
-143 -159 0
-128 -144 0
-128 -160 0
-144 -160 0
572 573 574 575 576 577 578 579 580 581 582 583 584 585 0
-572 -573 0
-572 -574 0
-572 -575 0
-572 -576 0
-572 -577 0
-572 -578 0
-572 -579 0
-572 -580 0
-572 -581 0
-572 -582 0
-572 -583 0
-572 -584 0
-572 -585 0
-573 -574 0
-573 -575 0
-573 -576 0
-573 -577 0
-573 -578 0
-573 -579 0
-573 -580 0
-573 -581 0
-573 -582 0
-573 -583 0
-573 -584 0
-573 -585 0
-574 -575 0
-574 -576 0
-574 -577 0
-574 -578 0
-574 -579 0
-574 -580 0
-574 -581 0
-574 -582 0
-574 -583 0
-574 -584 0
-574 -585 0
-575 -576 0
-575 -577 0
-575 -578 0
-575 -579 0
-575 -580 0
-575 -581 0
-575 -582 0
-575 -583 0
-575 -584 0
-575 -585 0
-576 -577 0
-576 -578 0
-576 -579 0
-576 -580 0
-576 -581 0
-576 -582 0
-576 -583 0
-576 -584 0
-576 -585 0
-577 -578 0
-577 -579 0
-577 -580 0
-577 -581 0
-577 -582 0
-577 -583 0
-577 -584 0
-577 -585 0
-578 -579 0
-578 -580 0
-578 -581 0
-578 -582 0
-578 -583 0
-578 -584 0
-578 -585 0
-579 -580 0
-579 -581 0
-579 -582 0
-579 -583 0
-579 -584 0
-579 -585 0
-580 -581 0
-580 -582 0
-580 -583 0
-580 -584 0
-580 -585 0
-581 -582 0
-581 -583 0
-581 -584 0
-581 -585 0
-582 -583 0
-582 -584 0
-582 -585 0
-583 -584 0
-583 -585 0
-584 -585 0
-113 572 0
-114 572 573 0
-115 572 573 574 0
-116 573 574 575 0
-117 574 575 576 0
-118 575 576 577 0
-119 576 577 578 0
-120 577 578 579 0
-121 578 579 580 0
-122 579 580 581 0
-123 580 581 582 0
-124 581 582 583 0
-125 582 583 584 0
-126 583 584 585 0
-127 584 585 0
-128 585 0
-129 572 0
-130 572 573 0
-131 572 573 574 0
-132 573 574 575 0
-133 574 575 576 0
-134 575 576 577 0
-135 576 577 578 0
-136 577 578 579 0
-137 578 579 580 0
-138 579 580 581 0
-139 580 581 582 0
-140 581 582 583 0
-141 582 583 584 0
-142 583 584 585 0
-143 584 585 0
-144 585 0
-145 572 0
-146 572 573 0
-147 572 573 574 0
-148 573 574 575 0
-149 574 575 576 0
-150 575 576 577 0
-151 576 577 578 0
-152 577 578 579 0
-153 578 579 580 0
-154 579 580 581 0
-155 580 581 582 0
-156 581 582 583 0
-157 582 583 584 0
-158 583 584 585 0
-159 584 585 0
-160 585 0
-572 -116 0
-572 -117 0
-572 -118 0
-572 -119 0
-572 -120 0
-572 -121 0
-572 -122 0
-572 -123 0
-572 -124 0
-572 -125 0
-572 -126 0
-572 -127 0
-572 -128 0
-572 -132 0
-572 -133 0
-572 -134 0
-572 -135 0
-572 -136 0
-572 -137 0
-572 -138 0
-572 -139 0
-572 -140 0
-572 -141 0
-572 -142 0
-572 -143 0
-572 -144 0
-572 -148 0
-572 -149 0
-572 -150 0
-572 -151 0
-572 -152 0
-572 -153 0
-572 -154 0
-572 -155 0
-572 -156 0
-572 -157 0
-572 -158 0
-572 -159 0
-572 -160 0
-573 -113 0
-573 -117 0
-573 -118 0
-573 -119 0
-573 -120 0
-573 -121 0
-573 -122 0
-573 -123 0
-573 -124 0
-573 -125 0
-573 -126 0
-573 -127 0
-573 -128 0
-573 -129 0
-573 -133 0
-573 -134 0
-573 -135 0
-573 -136 0
-573 -137 0
-573 -138 0
-573 -139 0
-573 -140 0
-573 -141 0
-573 -142 0
-573 -143 0
-573 -144 0
-573 -145 0
-573 -149 0
-573 -150 0
-573 -151 0
-573 -152 0
-573 -153 0
-573 -154 0
-573 -155 0
-573 -156 0
-573 -157 0
-573 -158 0
-573 -159 0
-573 -160 0
-574 -113 0
-574 -114 0
-574 -118 0
-574 -119 0
-574 -120 0
-574 -121 0
-574 -122 0
-574 -123 0
-574 -124 0
-574 -125 0
-574 -126 0
-574 -127 0
-574 -128 0
-574 -129 0
-574 -130 0
-574 -134 0
-574 -135 0
-574 -136 0
-574 -137 0
-574 -138 0
-574 -139 0
-574 -140 0
-574 -141 0
-574 -142 0
-574 -143 0
-574 -144 0
-574 -145 0
-574 -146 0
-574 -150 0
-574 -151 0
-574 -152 0
-574 -153 0
-574 -154 0
-574 -155 0
-574 -156 0
-574 -157 0
-574 -158 0
-574 -159 0
-574 -160 0
-575 -113 0
-575 -114 0
-575 -115 0
-575 -119 0
-575 -120 0
-575 -121 0
-575 -122 0
-575 -123 0
-575 -124 0
-575 -125 0
-575 -126 0
-575 -127 0
-575 -128 0
-575 -129 0
-575 -130 0
-575 -131 0
-575 -135 0
-575 -136 0
-575 -137 0
-575 -138 0
-575 -139 0
-575 -140 0
-575 -141 0
-575 -142 0
-575 -143 0
-575 -144 0
-575 -145 0
-575 -146 0
-575 -147 0
-575 -151 0
-575 -152 0
-575 -153 0
-575 -154 0
-575 -155 0
-575 -156 0
-575 -157 0
-575 -158 0
-575 -159 0
-575 -160 0
-576 -113 0
-576 -114 0
-576 -115 0
-576 -116 0
-576 -120 0
-576 -121 0
-576 -122 0
-576 -123 0
-576 -124 0
-576 -125 0
-576 -126 0
-576 -127 0
-576 -128 0
-576 -129 0
-576 -130 0
-576 -131 0
-576 -132 0
-576 -136 0
-576 -137 0
-576 -138 0
-576 -139 0
-576 -140 0
-576 -141 0
-576 -142 0
-576 -143 0
-576 -144 0
-576 -145 0
-576 -146 0
-576 -147 0
-576 -148 0
-576 -152 0
-576 -153 0
-576 -154 0
-576 -155 0
-576 -156 0
-576 -157 0
-576 -158 0
-576 -159 0
-576 -160 0
-577 -113 0
-577 -114 0
-577 -115 0
-577 -116 0
-577 -117 0
-577 -121 0
-577 -122 0
-577 -123 0
-577 -124 0
-577 -125 0
-577 -126 0
-577 -127 0
-577 -128 0
-577 -129 0
-577 -130 0
-577 -131 0
-577 -132 0
-577 -133 0
-577 -137 0
-577 -138 0
-577 -139 0
-577 -140 0
-577 -141 0
-577 -142 0
-577 -143 0
-577 -144 0
-577 -145 0
-577 -146 0
-577 -147 0
-577 -148 0
-577 -149 0
-577 -153 0
-577 -154 0
-577 -155 0
-577 -156 0
-577 -157 0
-577 -158 0
-577 -159 0
-577 -160 0
-578 -113 0
-578 -114 0
-578 -115 0
-578 -116 0
-578 -117 0
-578 -118 0
-578 -122 0
-578 -123 0
-578 -124 0
-578 -125 0
-578 -126 0
-578 -127 0
-578 -128 0
-578 -129 0
-578 -130 0
-578 -131 0
-578 -132 0
-578 -133 0
-578 -134 0
-578 -138 0
-578 -139 0
-578 -140 0
-578 -141 0
-578 -142 0
-578 -143 0
-578 -144 0
-578 -145 0
-578 -146 0
-578 -147 0
-578 -148 0
-578 -149 0
-578 -150 0
-578 -154 0
-578 -155 0
-578 -156 0
-578 -157 0
-578 -158 0
-578 -159 0
-578 -160 0
-579 -113 0
-579 -114 0
-579 -115 0
-579 -116 0
-579 -117 0
-579 -118 0
-579 -119 0
-579 -123 0
-579 -124 0
-579 -125 0
-579 -126 0
-579 -127 0
-579 -128 0
-579 -129 0
-579 -130 0
-579 -131 0
-579 -132 0
-579 -133 0
-579 -134 0
-579 -135 0
-579 -139 0
-579 -140 0
-579 -141 0
-579 -142 0
-579 -143 0
-579 -144 0
-579 -145 0
-579 -146 0
-579 -147 0
-579 -148 0
-579 -149 0
-579 -150 0
-579 -151 0
-579 -155 0
-579 -156 0
-579 -157 0
-579 -158 0
-579 -159 0
-579 -160 0
-580 -113 0
-580 -114 0
-580 -115 0
-580 -116 0
-580 -117 0
-580 -118 0
-580 -119 0
-580 -120 0
-580 -124 0
-580 -125 0
-580 -126 0
-580 -127 0
-580 -128 0
-580 -129 0
-580 -130 0
-580 -131 0
-580 -132 0
-580 -133 0
-580 -134 0
-580 -135 0
-580 -136 0
-580 -140 0
-580 -141 0
-580 -142 0
-580 -143 0
-580 -144 0
-580 -145 0
-580 -146 0
-580 -147 0
-580 -148 0
-580 -149 0
-580 -150 0
-580 -151 0
-580 -152 0
-580 -156 0
-580 -157 0
-580 -158 0
-580 -159 0
-580 -160 0
-581 -113 0
-581 -114 0
-581 -115 0
-581 -116 0
-581 -117 0
-581 -118 0
-581 -119 0
-581 -120 0
-581 -121 0
-581 -125 0
-581 -126 0
-581 -127 0
-581 -128 0
-581 -129 0
-581 -130 0
-581 -131 0
-581 -132 0
-581 -133 0
-581 -134 0
-581 -135 0
-581 -136 0
-581 -137 0
-581 -141 0
-581 -142 0
-581 -143 0
-581 -144 0
-581 -145 0
-581 -146 0
-581 -147 0
-581 -148 0
-581 -149 0
-581 -150 0
-581 -151 0
-581 -152 0
-581 -153 0
-581 -157 0
-581 -158 0
-581 -159 0
-581 -160 0
-582 -113 0
-582 -114 0
-582 -115 0
-582 -116 0
-582 -117 0
-582 -118 0
-582 -119 0
-582 -120 0
-582 -121 0
-582 -122 0
-582 -126 0
-582 -127 0
-582 -128 0
-582 -129 0
-582 -130 0
-582 -131 0
-582 -132 0
-582 -133 0
-582 -134 0
-582 -135 0
-582 -136 0
-582 -137 0
-582 -138 0
-582 -142 0
-582 -143 0
-582 -144 0
-582 -145 0
-582 -146 0
-582 -147 0
-582 -148 0
-582 -149 0
-582 -150 0
-582 -151 0
-582 -152 0
-582 -153 0
-582 -154 0
-582 -158 0
-582 -159 0
-582 -160 0
-583 -113 0
-583 -114 0
-583 -115 0
-583 -116 0
-583 -117 0
-583 -118 0
-583 -119 0
-583 -120 0
-583 -121 0
-583 -122 0
-583 -123 0
-583 -127 0
-583 -128 0
-583 -129 0
-583 -130 0
-583 -131 0
-583 -132 0
-583 -133 0
-583 -134 0
-583 -135 0
-583 -136 0
-583 -137 0
-583 -138 0
-583 -139 0
-583 -143 0
-583 -144 0
-583 -145 0
-583 -146 0
-583 -147 0
-583 -148 0
-583 -149 0
-583 -150 0
-583 -151 0
-583 -152 0
-583 -153 0
-583 -154 0
-583 -155 0
-583 -159 0
-583 -160 0
-584 -113 0
-584 -114 0
-584 -115 0
-584 -116 0
-584 -117 0
-584 -118 0
-584 -119 0
-584 -120 0
-584 -121 0
-584 -122 0
-584 -123 0
-584 -124 0
-584 -128 0
-584 -129 0
-584 -130 0
-584 -131 0
-584 -132 0
-584 -133 0
-584 -134 0
-584 -135 0
-584 -136 0
-584 -137 0
-584 -138 0
-584 -139 0
-584 -140 0
-584 -144 0
-584 -145 0
-584 -146 0
-584 -147 0
-584 -148 0
-584 -149 0
-584 -150 0
-584 -151 0
-584 -152 0
-584 -153 0
-584 -154 0
-584 -155 0
-584 -156 0
-584 -160 0
-585 -113 0
-585 -114 0
-585 -115 0
-585 -116 0
-585 -117 0
-585 -118 0
-585 -119 0
-585 -120 0
-585 -121 0
-585 -122 0
-585 -123 0
-585 -124 0
-585 -125 0
-585 -129 0
-585 -130 0
-585 -131 0
-585 -132 0
-585 -133 0
-585 -134 0
-585 -135 0
-585 -136 0
-585 -137 0
-585 -138 0
-585 -139 0
-585 -140 0
-585 -141 0
-585 -145 0
-585 -146 0
-585 -147 0
-585 -148 0
-585 -149 0
-585 -150 0
-585 -151 0
-585 -152 0
-585 -153 0
-585 -154 0
-585 -155 0
-585 -156 0
-585 -157 0
-161 -177 0
-161 -193 0
-177 -193 0
-162 -178 0
-162 -194 0
-178 -194 0
-163 -179 0
-163 -195 0
-179 -195 0
-164 -180 0
-164 -196 0
-180 -196 0
-165 -181 0
-165 -197 0
-181 -197 0
-166 -182 0
-166 -198 0
-182 -198 0
-167 -183 0
-167 -199 0
-183 -199 0
-168 -184 0
-168 -200 0
-184 -200 0
-169 -185 0
-169 -201 0
-185 -201 0
-170 -186 0
-170 -202 0
-186 -202 0
-171 -187 0
-171 -203 0
-187 -203 0
-172 -188 0
-172 -204 0
-188 -204 0
-173 -189 0
-173 -205 0
-189 -205 0
-174 -190 0
-174 -206 0
-190 -206 0
-175 -191 0
-175 -207 0
-191 -207 0
-176 -192 0
-176 -208 0
-192 -208 0
586 587 588 589 590 591 592 593 594 595 596 597 598 599 0
-586 -587 0
-586 -588 0
-586 -589 0
-586 -590 0
-586 -591 0
-586 -592 0
-586 -593 0
-586 -594 0
-586 -595 0
-586 -596 0
-586 -597 0
-586 -598 0
-586 -599 0
-587 -588 0
-587 -589 0
-587 -590 0
-587 -591 0
-587 -592 0
-587 -593 0
-587 -594 0
-587 -595 0
-587 -596 0
-587 -597 0
-587 -598 0
-587 -599 0
-588 -589 0
-588 -590 0
-588 -591 0
-588 -592 0
-588 -593 0
-588 -594 0
-588 -595 0
-588 -596 0
-588 -597 0
-588 -598 0
-588 -599 0
-589 -590 0
-589 -591 0
-589 -592 0
-589 -593 0
-589 -594 0
-589 -595 0
-589 -596 0
-589 -597 0
-589 -598 0
-589 -599 0
-590 -591 0
-590 -592 0
-590 -593 0
-590 -594 0
-590 -595 0
-590 -596 0
-590 -597 0
-590 -598 0
-590 -599 0
-591 -592 0
-591 -593 0
-591 -594 0
-591 -595 0
-591 -596 0
-591 -597 0
-591 -598 0
-591 -599 0
-592 -593 0
-592 -594 0
-592 -595 0
-592 -596 0
-592 -597 0
-592 -598 0
-592 -599 0
-593 -594 0
-593 -595 0
-593 -596 0
-593 -597 0
-593 -598 0
-593 -599 0
-594 -595 0
-594 -596 0
-594 -597 0
-594 -598 0
-594 -599 0
-595 -596 0
-595 -597 0
-595 -598 0
-595 -599 0
-596 -597 0
-596 -598 0
-596 -599 0
-597 -598 0
-597 -599 0
-598 -599 0
-161 586 0
-162 586 587 0
-163 586 587 588 0
-164 587 588 589 0
-165 588 589 590 0
-166 589 590 591 0
-167 590 591 592 0
-168 591 592 593 0
-169 592 593 594 0
-170 593 594 595 0
-171 594 595 596 0
-172 595 596 597 0
-173 596 597 598 0
-174 597 598 599 0
-175 598 599 0
-176 599 0
-177 586 0
-178 586 587 0
-179 586 587 588 0
-180 587 588 589 0
-181 588 589 590 0
-182 589 590 591 0
-183 590 591 592 0
-184 591 592 593 0
-185 592 593 594 0
-186 593 594 595 0
-187 594 595 596 0
-188 595 596 597 0
-189 596 597 598 0
-190 597 598 599 0
-191 598 599 0
-192 599 0
-193 586 0
-194 586 587 0
-195 586 587 588 0
-196 587 588 589 0
-197 588 589 590 0
-198 589 590 591 0
-199 590 591 592 0
-200 591 592 593 0
-201 592 593 594 0
-202 593 594 595 0
-203 594 595 596 0
-204 595 596 597 0
-205 596 597 598 0
-206 597 598 599 0
-207 598 599 0
-208 599 0
-586 -164 0
-586 -165 0
-586 -166 0
-586 -167 0
-586 -168 0
-586 -169 0
-586 -170 0
-586 -171 0
-586 -172 0
-586 -173 0
-586 -174 0
-586 -175 0
-586 -176 0
-586 -180 0
-586 -181 0
-586 -182 0
-586 -183 0
-586 -184 0
-586 -185 0
-586 -186 0
-586 -187 0
-586 -188 0
-586 -189 0
-586 -190 0
-586 -191 0
-586 -192 0
-586 -196 0
-586 -197 0
-586 -198 0
-586 -199 0
-586 -200 0
-586 -201 0
-586 -202 0
-586 -203 0
-586 -204 0
-586 -205 0
-586 -206 0
-586 -207 0
-586 -208 0
-587 -161 0
-587 -165 0
-587 -166 0
-587 -167 0
-587 -168 0
-587 -169 0
-587 -170 0
-587 -171 0
-587 -172 0
-587 -173 0
-587 -174 0
-587 -175 0
-587 -176 0
-587 -177 0
-587 -181 0
-587 -182 0
-587 -183 0
-587 -184 0
-587 -185 0
-587 -186 0
-587 -187 0
-587 -188 0
-587 -189 0
-587 -190 0
-587 -191 0
-587 -192 0
-587 -193 0
-587 -197 0
-587 -198 0
-587 -199 0
-587 -200 0
-587 -201 0
-587 -202 0
-587 -203 0
-587 -204 0
-587 -205 0
-587 -206 0
-587 -207 0
-587 -208 0
-588 -161 0
-588 -162 0
-588 -166 0
-588 -167 0
-588 -168 0
-588 -169 0
-588 -170 0
-588 -171 0
-588 -172 0
-588 -173 0
-588 -174 0
-588 -175 0
-588 -176 0
-588 -177 0
-588 -178 0
-588 -182 0
-588 -183 0
-588 -184 0
-588 -185 0
-588 -186 0
-588 -187 0
-588 -188 0
-588 -189 0
-588 -190 0
-588 -191 0
-588 -192 0
-588 -193 0
-588 -194 0
-588 -198 0
-588 -199 0
-588 -200 0
-588 -201 0
-588 -202 0
-588 -203 0
-588 -204 0
-588 -205 0
-588 -206 0
-588 -207 0
-588 -208 0
-589 -161 0
-589 -162 0
-589 -163 0
-589 -167 0
-589 -168 0
-589 -169 0
-589 -170 0
-589 -171 0
-589 -172 0
-589 -173 0
-589 -174 0
-589 -175 0
-589 -176 0
-589 -177 0
-589 -178 0
-589 -179 0
-589 -183 0
-589 -184 0
-589 -185 0
-589 -186 0
-589 -187 0
-589 -188 0
-589 -189 0
-589 -190 0
-589 -191 0
-589 -192 0
-589 -193 0
-589 -194 0
-589 -195 0
-589 -199 0
-589 -200 0
-589 -201 0
-589 -202 0
-589 -203 0
-589 -204 0
-589 -205 0
-589 -206 0
-589 -207 0
-589 -208 0
-590 -161 0
-590 -162 0
-590 -163 0
-590 -164 0
-590 -168 0
-590 -169 0
-590 -170 0
-590 -171 0
-590 -172 0
-590 -173 0
-590 -174 0
-590 -175 0
-590 -176 0
-590 -177 0
-590 -178 0
-590 -179 0
-590 -180 0
-590 -184 0
-590 -185 0
-590 -186 0
-590 -187 0
-590 -188 0
-590 -189 0
-590 -190 0
-590 -191 0
-590 -192 0
-590 -193 0
-590 -194 0
-590 -195 0
-590 -196 0
-590 -200 0
-590 -201 0
-590 -202 0
-590 -203 0
-590 -204 0
-590 -205 0
-590 -206 0
-590 -207 0
-590 -208 0
-591 -161 0
-591 -162 0
-591 -163 0
-591 -164 0
-591 -165 0
-591 -169 0
-591 -170 0
-591 -171 0
-591 -172 0
-591 -173 0
-591 -174 0
-591 -175 0
-591 -176 0
-591 -177 0
-591 -178 0
-591 -179 0
-591 -180 0
-591 -181 0
-591 -185 0
-591 -186 0
-591 -187 0
-591 -188 0
-591 -189 0
-591 -190 0
-591 -191 0
-591 -192 0
-591 -193 0
-591 -194 0
-591 -195 0
-591 -196 0
-591 -197 0
-591 -201 0
-591 -202 0
-591 -203 0
-591 -204 0
-591 -205 0
-591 -206 0
-591 -207 0
-591 -208 0
-592 -161 0
-592 -162 0
-592 -163 0
-592 -164 0
-592 -165 0
-592 -166 0
-592 -170 0
-592 -171 0
-592 -172 0
-592 -173 0
-592 -174 0
-592 -175 0
-592 -176 0
-592 -177 0
-592 -178 0
-592 -179 0
-592 -180 0
-592 -181 0
-592 -182 0
-592 -186 0
-592 -187 0
-592 -188 0
-592 -189 0
-592 -190 0
-592 -191 0
-592 -192 0
-592 -193 0
-592 -194 0
-592 -195 0
-592 -196 0
-592 -197 0
-592 -198 0
-592 -202 0
-592 -203 0
-592 -204 0
-592 -205 0
-592 -206 0
-592 -207 0
-592 -208 0
-593 -161 0
-593 -162 0
-593 -163 0
-593 -164 0
-593 -165 0
-593 -166 0
-593 -167 0
-593 -171 0
-593 -172 0
-593 -173 0
-593 -174 0
-593 -175 0
-593 -176 0
-593 -177 0
-593 -178 0
-593 -179 0
-593 -180 0
-593 -181 0
-593 -182 0
-593 -183 0
-593 -187 0
-593 -188 0
-593 -189 0
-593 -190 0
-593 -191 0
-593 -192 0
-593 -193 0
-593 -194 0
-593 -195 0
-593 -196 0
-593 -197 0
-593 -198 0
-593 -199 0
-593 -203 0
-593 -204 0
-593 -205 0
-593 -206 0
-593 -207 0
-593 -208 0
-594 -161 0
-594 -162 0
-594 -163 0
-594 -164 0
-594 -165 0
-594 -166 0
-594 -167 0
-594 -168 0
-594 -172 0
-594 -173 0
-594 -174 0
-594 -175 0
-594 -176 0
-594 -177 0
-594 -178 0
-594 -179 0
-594 -180 0
-594 -181 0
-594 -182 0
-594 -183 0
-594 -184 0
-594 -188 0
-594 -189 0
-594 -190 0
-594 -191 0
-594 -192 0
-594 -193 0
-594 -194 0
-594 -195 0
-594 -196 0
-594 -197 0
-594 -198 0
-594 -199 0
-594 -200 0
-594 -204 0
-594 -205 0
-594 -206 0
-594 -207 0
-594 -208 0
-595 -161 0
-595 -162 0
-595 -163 0
-595 -164 0
-595 -165 0
-595 -166 0
-595 -167 0
-595 -168 0
-595 -169 0
-595 -173 0
-595 -174 0
-595 -175 0
-595 -176 0
-595 -177 0
-595 -178 0
-595 -179 0
-595 -180 0
-595 -181 0
-595 -182 0
-595 -183 0
-595 -184 0
-595 -185 0
-595 -189 0
-595 -190 0
-595 -191 0
-595 -192 0
-595 -193 0
-595 -194 0
-595 -195 0
-595 -196 0
-595 -197 0
-595 -198 0
-595 -199 0
-595 -200 0
-595 -201 0
-595 -205 0
-595 -206 0
-595 -207 0
-595 -208 0
-596 -161 0
-596 -162 0
-596 -163 0
-596 -164 0
-596 -165 0
-596 -166 0
-596 -167 0
-596 -168 0
-596 -169 0
-596 -170 0
-596 -174 0
-596 -175 0
-596 -176 0
-596 -177 0
-596 -178 0
-596 -179 0
-596 -180 0
-596 -181 0
-596 -182 0
-596 -183 0
-596 -184 0
-596 -185 0
-596 -186 0
-596 -190 0
-596 -191 0
-596 -192 0
-596 -193 0
-596 -194 0
-596 -195 0
-596 -196 0
-596 -197 0
-596 -198 0
-596 -199 0
-596 -200 0
-596 -201 0
-596 -202 0
-596 -206 0
-596 -207 0
-596 -208 0
-597 -161 0
-597 -162 0
-597 -163 0
-597 -164 0
-597 -165 0
-597 -166 0
-597 -167 0
-597 -168 0
-597 -169 0
-597 -170 0
-597 -171 0
-597 -175 0
-597 -176 0
-597 -177 0
-597 -178 0
-597 -179 0
-597 -180 0
-597 -181 0
-597 -182 0
-597 -183 0
-597 -184 0
-597 -185 0
-597 -186 0
-597 -187 0
-597 -191 0
-597 -192 0
-597 -193 0
-597 -194 0
-597 -195 0
-597 -196 0
-597 -197 0
-597 -198 0
-597 -199 0
-597 -200 0
-597 -201 0
-597 -202 0
-597 -203 0
-597 -207 0
-597 -208 0
-598 -161 0
-598 -162 0
-598 -163 0
-598 -164 0
-598 -165 0
-598 -166 0
-598 -167 0
-598 -168 0
-598 -169 0
-598 -170 0
-598 -171 0
-598 -172 0
-598 -176 0
-598 -177 0
-598 -178 0
-598 -179 0
-598 -180 0
-598 -181 0
-598 -182 0
-598 -183 0
-598 -184 0
-598 -185 0
-598 -186 0
-598 -187 0
-598 -188 0
-598 -192 0
-598 -193 0
-598 -194 0
-598 -195 0
-598 -196 0
-598 -197 0
-598 -198 0
-598 -199 0
-598 -200 0
-598 -201 0
-598 -202 0
-598 -203 0
-598 -204 0
-598 -208 0
-599 -161 0
-599 -162 0
-599 -163 0
-599 -164 0
-599 -165 0
-599 -166 0
-599 -167 0
-599 -168 0
-599 -169 0
-599 -170 0
-599 -171 0
-599 -172 0
-599 -173 0
-599 -177 0
-599 -178 0
-599 -179 0
-599 -180 0
-599 -181 0
-599 -182 0
-599 -183 0
-599 -184 0
-599 -185 0
-599 -186 0
-599 -187 0
-599 -188 0
-599 -189 0
-599 -193 0
-599 -194 0
-599 -195 0
-599 -196 0
-599 -197 0
-599 -198 0
-599 -199 0
-599 -200 0
-599 -201 0
-599 -202 0
-599 -203 0
-599 -204 0
-599 -205 0
-209 -225 0
-209 -241 0
-225 -241 0
-210 -226 0
-210 -242 0
-226 -242 0
-211 -227 0
-211 -243 0
-227 -243 0
-212 -228 0
-212 -244 0
-228 -244 0
-213 -229 0
-213 -245 0
-229 -245 0
-214 -230 0
-214 -246 0
-230 -246 0
-215 -231 0
-215 -247 0
-231 -247 0
-216 -232 0
-216 -248 0
-232 -248 0
-217 -233 0
-217 -249 0
-233 -249 0
-218 -234 0
-218 -250 0
-234 -250 0
-219 -235 0
-219 -251 0
-235 -251 0
-220 -236 0
-220 -252 0
-236 -252 0
-221 -237 0
-221 -253 0
-237 -253 0
-222 -238 0
-222 -254 0
-238 -254 0
-223 -239 0
-223 -255 0
-239 -255 0
-224 -240 0
-224 -256 0
-240 -256 0
600 601 602 603 604 605 606 607 608 609 610 611 612 613 0
-600 -601 0
-600 -602 0
-600 -603 0
-600 -604 0
-600 -605 0
-600 -606 0
-600 -607 0
-600 -608 0
-600 -609 0
-600 -610 0
-600 -611 0
-600 -612 0
-600 -613 0
-601 -602 0
-601 -603 0
-601 -604 0
-601 -605 0
-601 -606 0
-601 -607 0
-601 -608 0
-601 -609 0
-601 -610 0
-601 -611 0
-601 -612 0
-601 -613 0
-602 -603 0
-602 -604 0
-602 -605 0
-602 -606 0
-602 -607 0
-602 -608 0
-602 -609 0
-602 -610 0
-602 -611 0
-602 -612 0
-602 -613 0
-603 -604 0
-603 -605 0
-603 -606 0
-603 -607 0
-603 -608 0
-603 -609 0
-603 -610 0
-603 -611 0
-603 -612 0
-603 -613 0
-604 -605 0
-604 -606 0
-604 -607 0
-604 -608 0
-604 -609 0
-604 -610 0
-604 -611 0
-604 -612 0
-604 -613 0
-605 -606 0
-605 -607 0
-605 -608 0
-605 -609 0
-605 -610 0
-605 -611 0
-605 -612 0
-605 -613 0
-606 -607 0
-606 -608 0
-606 -609 0
-606 -610 0
-606 -611 0
-606 -612 0
-606 -613 0
-607 -608 0
-607 -609 0
-607 -610 0
-607 -611 0
-607 -612 0
-607 -613 0
-608 -609 0
-608 -610 0
-608 -611 0
-608 -612 0
-608 -613 0
-609 -610 0
-609 -611 0
-609 -612 0
-609 -613 0
-610 -611 0
-610 -612 0
-610 -613 0
-611 -612 0
-611 -613 0
-612 -613 0
-209 600 0
-210 600 601 0
-211 600 601 602 0
-212 601 602 603 0
-213 602 603 604 0
-214 603 604 605 0
-215 604 605 606 0
-216 605 606 607 0
-217 606 607 608 0
-218 607 608 609 0
-219 608 609 610 0
-220 609 610 611 0
-221 610 611 612 0
-222 611 612 613 0
-223 612 613 0
-224 613 0
-225 600 0
-226 600 601 0
-227 600 601 602 0
-228 601 602 603 0
-229 602 603 604 0
-230 603 604 605 0
-231 604 605 606 0
-232 605 606 607 0
-233 606 607 608 0
-234 607 608 609 0
-235 608 609 610 0
-236 609 610 611 0
-237 610 611 612 0
-238 611 612 613 0
-239 612 613 0
-240 613 0
-241 600 0
-242 600 601 0
-243 600 601 602 0
-244 601 602 603 0
-245 602 603 604 0
-246 603 604 605 0
-247 604 605 606 0
-248 605 606 607 0
-249 606 607 608 0
-250 607 608 609 0
-251 608 609 610 0
-252 609 610 611 0
-253 610 611 612 0
-254 611 612 613 0
-255 612 613 0
-256 613 0
-600 -212 0
-600 -213 0
-600 -214 0
-600 -215 0
-600 -216 0
-600 -217 0
-600 -218 0
-600 -219 0
-600 -220 0
-600 -221 0
-600 -222 0
-600 -223 0
-600 -224 0
-600 -228 0
-600 -229 0
-600 -230 0
-600 -231 0
-600 -232 0
-600 -233 0
-600 -234 0
-600 -235 0
-600 -236 0
-600 -237 0
-600 -238 0
-600 -239 0
-600 -240 0
-600 -244 0
-600 -245 0
-600 -246 0
-600 -247 0
-600 -248 0
-600 -249 0
-600 -250 0
-600 -251 0
-600 -252 0
-600 -253 0
-600 -254 0
-600 -255 0
-600 -256 0
-601 -209 0
-601 -213 0
-601 -214 0
-601 -215 0
-601 -216 0
-601 -217 0
-601 -218 0
-601 -219 0
-601 -220 0
-601 -221 0
-601 -222 0
-601 -223 0
-601 -224 0
-601 -225 0
-601 -229 0
-601 -230 0
-601 -231 0
-601 -232 0
-601 -233 0
-601 -234 0
-601 -235 0
-601 -236 0
-601 -237 0
-601 -238 0
-601 -239 0
-601 -240 0
-601 -241 0
-601 -245 0
-601 -246 0
-601 -247 0
-601 -248 0
-601 -249 0
-601 -250 0
-601 -251 0
-601 -252 0
-601 -253 0
-601 -254 0
-601 -255 0
-601 -256 0
-602 -209 0
-602 -210 0
-602 -214 0
-602 -215 0
-602 -216 0
-602 -217 0
-602 -218 0
-602 -219 0
-602 -220 0
-602 -221 0
-602 -222 0
-602 -223 0
-602 -224 0
-602 -225 0
-602 -226 0
-602 -230 0
-602 -231 0
-602 -232 0
-602 -233 0
-602 -234 0
-602 -235 0
-602 -236 0
-602 -237 0
-602 -238 0
-602 -239 0
-602 -240 0
-602 -241 0
-602 -242 0
-602 -246 0
-602 -247 0
-602 -248 0
-602 -249 0
-602 -250 0
-602 -251 0
-602 -252 0
-602 -253 0
-602 -254 0
-602 -255 0
-602 -256 0
-603 -209 0
-603 -210 0
-603 -211 0
-603 -215 0
-603 -216 0
-603 -217 0
-603 -218 0
-603 -219 0
-603 -220 0
-603 -221 0
-603 -222 0
-603 -223 0
-603 -224 0
-603 -225 0
-603 -226 0
-603 -227 0
-603 -231 0
-603 -232 0
-603 -233 0
-603 -234 0
-603 -235 0
-603 -236 0
-603 -237 0
-603 -238 0
-603 -239 0
-603 -240 0
-603 -241 0
-603 -242 0
-603 -243 0
-603 -247 0
-603 -248 0
-603 -249 0
-603 -250 0
-603 -251 0
-603 -252 0
-603 -253 0
-603 -254 0
-603 -255 0
-603 -256 0
-604 -209 0
-604 -210 0
-604 -211 0
-604 -212 0
-604 -216 0
-604 -217 0
-604 -218 0
-604 -219 0
-604 -220 0
-604 -221 0
-604 -222 0
-604 -223 0
-604 -224 0
-604 -225 0
-604 -226 0
-604 -227 0
-604 -228 0
-604 -232 0
-604 -233 0
-604 -234 0
-604 -235 0
-604 -236 0
-604 -237 0
-604 -238 0
-604 -239 0
-604 -240 0
-604 -241 0
-604 -242 0
-604 -243 0
-604 -244 0
-604 -248 0
-604 -249 0
-604 -250 0
-604 -251 0
-604 -252 0
-604 -253 0
-604 -254 0
-604 -255 0
-604 -256 0
-605 -209 0
-605 -210 0
-605 -211 0
-605 -212 0
-605 -213 0
-605 -217 0
-605 -218 0
-605 -219 0
-605 -220 0
-605 -221 0
-605 -222 0
-605 -223 0
-605 -224 0
-605 -225 0
-605 -226 0
-605 -227 0
-605 -228 0
-605 -229 0
-605 -233 0
-605 -234 0
-605 -235 0
-605 -236 0
-605 -237 0
-605 -238 0
-605 -239 0
-605 -240 0
-605 -241 0
-605 -242 0
-605 -243 0
-605 -244 0
-605 -245 0
-605 -249 0
-605 -250 0
-605 -251 0
-605 -252 0
-605 -253 0
-605 -254 0
-605 -255 0
-605 -256 0
-606 -209 0
-606 -210 0
-606 -211 0
-606 -212 0
-606 -213 0
-606 -214 0
-606 -218 0
-606 -219 0
-606 -220 0
-606 -221 0
-606 -222 0
-606 -223 0
-606 -224 0
-606 -225 0
-606 -226 0
-606 -227 0
-606 -228 0
-606 -229 0
-606 -230 0
-606 -234 0
-606 -235 0
-606 -236 0
-606 -237 0
-606 -238 0
-606 -239 0
-606 -240 0
-606 -241 0
-606 -242 0
-606 -243 0
-606 -244 0
-606 -245 0
-606 -246 0
-606 -250 0
-606 -251 0
-606 -252 0
-606 -253 0
-606 -254 0
-606 -255 0
-606 -256 0
-607 -209 0
-607 -210 0
-607 -211 0
-607 -212 0
-607 -213 0
-607 -214 0
-607 -215 0
-607 -219 0
-607 -220 0
-607 -221 0
-607 -222 0
-607 -223 0
-607 -224 0
-607 -225 0
-607 -226 0
-607 -227 0
-607 -228 0
-607 -229 0
-607 -230 0
-607 -231 0
-607 -235 0
-607 -236 0
-607 -237 0
-607 -238 0
-607 -239 0
-607 -240 0
-607 -241 0
-607 -242 0
-607 -243 0
-607 -244 0
-607 -245 0
-607 -246 0
-607 -247 0
-607 -251 0
-607 -252 0
-607 -253 0
-607 -254 0
-607 -255 0
-607 -256 0
-608 -209 0
-608 -210 0
-608 -211 0
-608 -212 0
-608 -213 0
-608 -214 0
-608 -215 0
-608 -216 0
-608 -220 0
-608 -221 0
-608 -222 0
-608 -223 0
-608 -224 0
-608 -225 0
-608 -226 0
-608 -227 0
-608 -228 0
-608 -229 0
-608 -230 0
-608 -231 0
-608 -232 0
-608 -236 0
-608 -237 0
-608 -238 0
-608 -239 0
-608 -240 0
-608 -241 0
-608 -242 0
-608 -243 0
-608 -244 0
-608 -245 0
-608 -246 0
-608 -247 0
-608 -248 0
-608 -252 0
-608 -253 0
-608 -254 0
-608 -255 0
-608 -256 0
-609 -209 0
-609 -210 0
-609 -211 0
-609 -212 0
-609 -213 0
-609 -214 0
-609 -215 0
-609 -216 0
-609 -217 0
-609 -221 0
-609 -222 0
-609 -223 0
-609 -224 0
-609 -225 0
-609 -226 0
-609 -227 0
-609 -228 0
-609 -229 0
-609 -230 0
-609 -231 0
-609 -232 0
-609 -233 0
-609 -237 0
-609 -238 0
-609 -239 0
-609 -240 0
-609 -241 0
-609 -242 0
-609 -243 0
-609 -244 0
-609 -245 0
-609 -246 0
-609 -247 0
-609 -248 0
-609 -249 0
-609 -253 0
-609 -254 0
-609 -255 0
-609 -256 0
-610 -209 0
-610 -210 0
-610 -211 0
-610 -212 0
-610 -213 0
-610 -214 0
-610 -215 0
-610 -216 0
-610 -217 0
-610 -218 0
-610 -222 0
-610 -223 0
-610 -224 0
-610 -225 0
-610 -226 0
-610 -227 0
-610 -228 0
-610 -229 0
-610 -230 0
-610 -231 0
-610 -232 0
-610 -233 0
-610 -234 0
-610 -238 0
-610 -239 0
-610 -240 0
-610 -241 0
-610 -242 0
-610 -243 0
-610 -244 0
-610 -245 0
-610 -246 0
-610 -247 0
-610 -248 0
-610 -249 0
-610 -250 0
-610 -254 0
-610 -255 0
-610 -256 0
-611 -209 0
-611 -210 0
-611 -211 0
-611 -212 0
-611 -213 0
-611 -214 0
-611 -215 0
-611 -216 0
-611 -217 0
-611 -218 0
-611 -219 0
-611 -223 0
-611 -224 0
-611 -225 0
-611 -226 0
-611 -227 0
-611 -228 0
-611 -229 0
-611 -230 0
-611 -231 0
-611 -232 0
-611 -233 0
-611 -234 0
-611 -235 0
-611 -239 0
-611 -240 0
-611 -241 0
-611 -242 0
-611 -243 0
-611 -244 0
-611 -245 0
-611 -246 0
-611 -247 0
-611 -248 0
-611 -249 0
-611 -250 0
-611 -251 0
-611 -255 0
-611 -256 0
-612 -209 0
-612 -210 0
-612 -211 0
-612 -212 0
-612 -213 0
-612 -214 0
-612 -215 0
-612 -216 0
-612 -217 0
-612 -218 0
-612 -219 0
-612 -220 0
-612 -224 0
-612 -225 0
-612 -226 0
-612 -227 0
-612 -228 0
-612 -229 0
-612 -230 0
-612 -231 0
-612 -232 0
-612 -233 0
-612 -234 0
-612 -235 0
-612 -236 0
-612 -240 0
-612 -241 0
-612 -242 0
-612 -243 0
-612 -244 0
-612 -245 0
-612 -246 0
-612 -247 0
-612 -248 0
-612 -249 0
-612 -250 0
-612 -251 0
-612 -252 0
-612 -256 0
-613 -209 0
-613 -210 0
-613 -211 0
-613 -212 0
-613 -213 0
-613 -214 0
-613 -215 0
-613 -216 0
-613 -217 0
-613 -218 0
-613 -219 0
-613 -220 0
-613 -221 0
-613 -225 0
-613 -226 0
-613 -227 0
-613 -228 0
-613 -229 0
-613 -230 0
-613 -231 0
-613 -232 0
-613 -233 0
-613 -234 0
-613 -235 0
-613 -236 0
-613 -237 0
-613 -241 0
-613 -242 0
-613 -243 0
-613 -244 0
-613 -245 0
-613 -246 0
-613 -247 0
-613 -248 0
-613 -249 0
-613 -250 0
-613 -251 0
-613 -252 0
-613 -253 0
-257 -273 0
-257 -289 0
-273 -289 0
-258 -274 0
-258 -290 0
-274 -290 0
-259 -275 0
-259 -291 0
-275 -291 0
-260 -276 0
-260 -292 0
-276 -292 0
-261 -277 0
-261 -293 0
-277 -293 0
-262 -278 0
-262 -294 0
-278 -294 0
-263 -279 0
-263 -295 0
-279 -295 0
-264 -280 0
-264 -296 0
-280 -296 0
-265 -281 0
-265 -297 0
-281 -297 0
-266 -282 0
-266 -298 0
-282 -298 0
-267 -283 0
-267 -299 0
-283 -299 0
-268 -284 0
-268 -300 0
-284 -300 0
-269 -285 0
-269 -301 0
-285 -301 0
-270 -286 0
-270 -302 0
-286 -302 0
-271 -287 0
-271 -303 0
-287 -303 0
-272 -288 0
-272 -304 0
-288 -304 0
614 615 616 617 618 619 620 621 622 623 624 625 626 627 0
-614 -615 0
-614 -616 0
-614 -617 0
-614 -618 0
-614 -619 0
-614 -620 0
-614 -621 0
-614 -622 0
-614 -623 0
-614 -624 0
-614 -625 0
-614 -626 0
-614 -627 0
-615 -616 0
-615 -617 0
-615 -618 0
-615 -619 0
-615 -620 0
-615 -621 0
-615 -622 0
-615 -623 0
-615 -624 0
-615 -625 0
-615 -626 0
-615 -627 0
-616 -617 0
-616 -618 0
-616 -619 0
-616 -620 0
-616 -621 0
-616 -622 0
-616 -623 0
-616 -624 0
-616 -625 0
-616 -626 0
-616 -627 0
-617 -618 0
-617 -619 0
-617 -620 0
-617 -621 0
-617 -622 0
-617 -623 0
-617 -624 0
-617 -625 0
-617 -626 0
-617 -627 0
-618 -619 0
-618 -620 0
-618 -621 0
-618 -622 0
-618 -623 0
-618 -624 0
-618 -625 0
-618 -626 0
-618 -627 0
-619 -620 0
-619 -621 0
-619 -622 0
-619 -623 0
-619 -624 0
-619 -625 0
-619 -626 0
-619 -627 0
-620 -621 0
-620 -622 0
-620 -623 0
-620 -624 0
-620 -625 0
-620 -626 0
-620 -627 0
-621 -622 0
-621 -623 0
-621 -624 0
-621 -625 0
-621 -626 0
-621 -627 0
-622 -623 0
-622 -624 0
-622 -625 0
-622 -626 0
-622 -627 0
-623 -624 0
-623 -625 0
-623 -626 0
-623 -627 0
-624 -625 0
-624 -626 0
-624 -627 0
-625 -626 0
-625 -627 0
-626 -627 0
-257 614 0
-258 614 615 0
-259 614 615 616 0
-260 615 616 617 0
-261 616 617 618 0
-262 617 618 619 0
-263 618 619 620 0
-264 619 620 621 0
-265 620 621 622 0
-266 621 622 623 0
-267 622 623 624 0
-268 623 624 625 0
-269 624 625 626 0
-270 625 626 627 0
-271 626 627 0
-272 627 0
-273 614 0
-274 614 615 0
-275 614 615 616 0
-276 615 616 617 0
-277 616 617 618 0
-278 617 618 619 0
-279 618 619 620 0
-280 619 620 621 0
-281 620 621 622 0
-282 621 622 623 0
-283 622 623 624 0
-284 623 624 625 0
-285 624 625 626 0
-286 625 626 627 0
-287 626 627 0
-288 627 0
-289 614 0
-290 614 615 0
-291 614 615 616 0
-292 615 616 617 0
-293 616 617 618 0
-294 617 618 619 0
-295 618 619 620 0
-296 619 620 621 0
-297 620 621 622 0
-298 621 622 623 0
-299 622 623 624 0
-300 623 624 625 0
-301 624 625 626 0
-302 625 626 627 0
-303 626 627 0
-304 627 0
-614 -260 0
-614 -261 0
-614 -262 0
-614 -263 0
-614 -264 0
-614 -265 0
-614 -266 0
-614 -267 0
-614 -268 0
-614 -269 0
-614 -270 0
-614 -271 0
-614 -272 0
-614 -276 0
-614 -277 0
-614 -278 0
-614 -279 0
-614 -280 0
-614 -281 0
-614 -282 0
-614 -283 0
-614 -284 0
-614 -285 0
-614 -286 0
-614 -287 0
-614 -288 0
-614 -292 0
-614 -293 0
-614 -294 0
-614 -295 0
-614 -296 0
-614 -297 0
-614 -298 0
-614 -299 0
-614 -300 0
-614 -301 0
-614 -302 0
-614 -303 0
-614 -304 0
-615 -257 0
-615 -261 0
-615 -262 0
-615 -263 0
-615 -264 0
-615 -265 0
-615 -266 0
-615 -267 0
-615 -268 0
-615 -269 0
-615 -270 0
-615 -271 0
-615 -272 0
-615 -273 0
-615 -277 0
-615 -278 0
-615 -279 0
-615 -280 0
-615 -281 0
-615 -282 0
-615 -283 0
-615 -284 0
-615 -285 0
-615 -286 0
-615 -287 0
-615 -288 0
-615 -289 0
-615 -293 0
-615 -294 0
-615 -295 0
-615 -296 0
-615 -297 0
-615 -298 0
-615 -299 0
-615 -300 0
-615 -301 0
-615 -302 0
-615 -303 0
-615 -304 0
-616 -257 0
-616 -258 0
-616 -262 0
-616 -263 0
-616 -264 0
-616 -265 0
-616 -266 0
-616 -267 0
-616 -268 0
-616 -269 0
-616 -270 0
-616 -271 0
-616 -272 0
-616 -273 0
-616 -274 0
-616 -278 0
-616 -279 0
-616 -280 0
-616 -281 0
-616 -282 0
-616 -283 0
-616 -284 0
-616 -285 0
-616 -286 0
-616 -287 0
-616 -288 0
-616 -289 0
-616 -290 0
-616 -294 0
-616 -295 0
-616 -296 0
-616 -297 0
-616 -298 0
-616 -299 0
-616 -300 0
-616 -301 0
-616 -302 0
-616 -303 0
-616 -304 0
-617 -257 0
-617 -258 0
-617 -259 0
-617 -263 0
-617 -264 0
-617 -265 0
-617 -266 0
-617 -267 0
-617 -268 0
-617 -269 0
-617 -270 0
-617 -271 0
-617 -272 0
-617 -273 0
-617 -274 0
-617 -275 0
-617 -279 0
-617 -280 0
-617 -281 0
-617 -282 0
-617 -283 0
-617 -284 0
-617 -285 0
-617 -286 0
-617 -287 0
-617 -288 0
-617 -289 0
-617 -290 0
-617 -291 0
-617 -295 0
-617 -296 0
-617 -297 0
-617 -298 0
-617 -299 0
-617 -300 0
-617 -301 0
-617 -302 0
-617 -303 0
-617 -304 0
-618 -257 0
-618 -258 0
-618 -259 0
-618 -260 0
-618 -264 0
-618 -265 0
-618 -266 0
-618 -267 0
-618 -268 0
-618 -269 0
-618 -270 0
-618 -271 0
-618 -272 0
-618 -273 0
-618 -274 0
-618 -275 0
-618 -276 0
-618 -280 0
-618 -281 0
-618 -282 0
-618 -283 0
-618 -284 0
-618 -285 0
-618 -286 0
-618 -287 0
-618 -288 0
-618 -289 0
-618 -290 0
-618 -291 0
-618 -292 0
-618 -296 0
-618 -297 0
-618 -298 0
-618 -299 0
-618 -300 0
-618 -301 0
-618 -302 0
-618 -303 0
-618 -304 0
-619 -257 0
-619 -258 0
-619 -259 0
-619 -260 0
-619 -261 0
-619 -265 0
-619 -266 0
-619 -267 0
-619 -268 0
-619 -269 0
-619 -270 0
-619 -271 0
-619 -272 0
-619 -273 0
-619 -274 0
-619 -275 0
-619 -276 0
-619 -277 0
-619 -281 0
-619 -282 0
-619 -283 0
-619 -284 0
-619 -285 0
-619 -286 0
-619 -287 0
-619 -288 0
-619 -289 0
-619 -290 0
-619 -291 0
-619 -292 0
-619 -293 0
-619 -297 0
-619 -298 0
-619 -299 0
-619 -300 0
-619 -301 0
-619 -302 0
-619 -303 0
-619 -304 0
-620 -257 0
-620 -258 0
-620 -259 0
-620 -260 0
-620 -261 0
-620 -262 0
-620 -266 0
-620 -267 0
-620 -268 0
-620 -269 0
-620 -270 0
-620 -271 0
-620 -272 0
-620 -273 0
-620 -274 0
-620 -275 0
-620 -276 0
-620 -277 0
-620 -278 0
-620 -282 0
-620 -283 0
-620 -284 0
-620 -285 0
-620 -286 0
-620 -287 0
-620 -288 0
-620 -289 0
-620 -290 0
-620 -291 0
-620 -292 0
-620 -293 0
-620 -294 0
-620 -298 0
-620 -299 0
-620 -300 0
-620 -301 0
-620 -302 0
-620 -303 0
-620 -304 0
-621 -257 0
-621 -258 0
-621 -259 0
-621 -260 0
-621 -261 0
-621 -262 0
-621 -263 0
-621 -267 0
-621 -268 0
-621 -269 0
-621 -270 0
-621 -271 0
-621 -272 0
-621 -273 0
-621 -274 0
-621 -275 0
-621 -276 0
-621 -277 0
-621 -278 0
-621 -279 0
-621 -283 0
-621 -284 0
-621 -285 0
-621 -286 0
-621 -287 0
-621 -288 0
-621 -289 0
-621 -290 0
-621 -291 0
-621 -292 0
-621 -293 0
-621 -294 0
-621 -295 0
-621 -299 0
-621 -300 0
-621 -301 0
-621 -302 0
-621 -303 0
-621 -304 0
-622 -257 0
-622 -258 0
-622 -259 0
-622 -260 0
-622 -261 0
-622 -262 0
-622 -263 0
-622 -264 0
-622 -268 0
-622 -269 0
-622 -270 0
-622 -271 0
-622 -272 0
-622 -273 0
-622 -274 0
-622 -275 0
-622 -276 0
-622 -277 0
-622 -278 0
-622 -279 0
-622 -280 0
-622 -284 0
-622 -285 0
-622 -286 0
-622 -287 0
-622 -288 0
-622 -289 0
-622 -290 0
-622 -291 0
-622 -292 0
-622 -293 0
-622 -294 0
-622 -295 0
-622 -296 0
-622 -300 0
-622 -301 0
-622 -302 0
-622 -303 0
-622 -304 0
-623 -257 0
-623 -258 0
-623 -259 0
-623 -260 0
-623 -261 0
-623 -262 0
-623 -263 0
-623 -264 0
-623 -265 0
-623 -269 0
-623 -270 0
-623 -271 0
-623 -272 0
-623 -273 0
-623 -274 0
-623 -275 0
-623 -276 0
-623 -277 0
-623 -278 0
-623 -279 0
-623 -280 0
-623 -281 0
-623 -285 0
-623 -286 0
-623 -287 0
-623 -288 0
-623 -289 0
-623 -290 0
-623 -291 0
-623 -292 0
-623 -293 0
-623 -294 0
-623 -295 0
-623 -296 0
-623 -297 0
-623 -301 0
-623 -302 0
-623 -303 0
-623 -304 0
-624 -257 0
-624 -258 0
-624 -259 0
-624 -260 0
-624 -261 0
-624 -262 0
-624 -263 0
-624 -264 0
-624 -265 0
-624 -266 0
-624 -270 0
-624 -271 0
-624 -272 0
-624 -273 0
-624 -274 0
-624 -275 0
-624 -276 0
-624 -277 0
-624 -278 0
-624 -279 0
-624 -280 0
-624 -281 0
-624 -282 0
-624 -286 0
-624 -287 0
-624 -288 0
-624 -289 0
-624 -290 0
-624 -291 0
-624 -292 0
-624 -293 0
-624 -294 0
-624 -295 0
-624 -296 0
-624 -297 0
-624 -298 0
-624 -302 0
-624 -303 0
-624 -304 0
-625 -257 0
-625 -258 0
-625 -259 0
-625 -260 0
-625 -261 0
-625 -262 0
-625 -263 0
-625 -264 0
-625 -265 0
-625 -266 0
-625 -267 0
-625 -271 0
-625 -272 0
-625 -273 0
-625 -274 0
-625 -275 0
-625 -276 0
-625 -277 0
-625 -278 0
-625 -279 0
-625 -280 0
-625 -281 0
-625 -282 0
-625 -283 0
-625 -287 0
-625 -288 0
-625 -289 0
-625 -290 0
-625 -291 0
-625 -292 0
-625 -293 0
-625 -294 0
-625 -295 0
-625 -296 0
-625 -297 0
-625 -298 0
-625 -299 0
-625 -303 0
-625 -304 0
-626 -257 0
-626 -258 0
-626 -259 0
-626 -260 0
-626 -261 0
-626 -262 0
-626 -263 0
-626 -264 0
-626 -265 0
-626 -266 0
-626 -267 0
-626 -268 0
-626 -272 0
-626 -273 0
-626 -274 0
-626 -275 0
-626 -276 0
-626 -277 0
-626 -278 0
-626 -279 0
-626 -280 0
-626 -281 0
-626 -282 0
-626 -283 0
-626 -284 0
-626 -288 0
-626 -289 0
-626 -290 0
-626 -291 0
-626 -292 0
-626 -293 0
-626 -294 0
-626 -295 0
-626 -296 0
-626 -297 0
-626 -298 0
-626 -299 0
-626 -300 0
-626 -304 0
-627 -257 0
-627 -258 0
-627 -259 0
-627 -260 0
-627 -261 0
-627 -262 0
-627 -263 0
-627 -264 0
-627 -265 0
-627 -266 0
-627 -267 0
-627 -268 0
-627 -269 0
-627 -273 0
-627 -274 0
-627 -275 0
-627 -276 0
-627 -277 0
-627 -278 0
-627 -279 0
-627 -280 0
-627 -281 0
-627 -282 0
-627 -283 0
-627 -284 0
-627 -285 0
-627 -289 0
-627 -290 0
-627 -291 0
-627 -292 0
-627 -293 0
-627 -294 0
-627 -295 0
-627 -296 0
-627 -297 0
-627 -298 0
-627 -299 0
-627 -300 0
-627 -301 0
-305 -321 0
-305 -337 0
-321 -337 0
-306 -322 0
-306 -338 0
-322 -338 0
-307 -323 0
-307 -339 0
-323 -339 0
-308 -324 0
-308 -340 0
-324 -340 0
-309 -325 0
-309 -341 0
-325 -341 0
-310 -326 0
-310 -342 0
-326 -342 0
-311 -327 0
-311 -343 0
-327 -343 0
-312 -328 0
-312 -344 0
-328 -344 0
-313 -329 0
-313 -345 0
-329 -345 0
-314 -330 0
-314 -346 0
-330 -346 0
-315 -331 0
-315 -347 0
-331 -347 0
-316 -332 0
-316 -348 0
-332 -348 0
-317 -333 0
-317 -349 0
-333 -349 0
-318 -334 0
-318 -350 0
-334 -350 0
-319 -335 0
-319 -351 0
-335 -351 0
-320 -336 0
-320 -352 0
-336 -352 0
628 629 630 631 632 633 634 635 636 637 638 639 640 641 0
-628 -629 0
-628 -630 0
-628 -631 0
-628 -632 0
-628 -633 0
-628 -634 0
-628 -635 0
-628 -636 0
-628 -637 0
-628 -638 0
-628 -639 0
-628 -640 0
-628 -641 0
-629 -630 0
-629 -631 0
-629 -632 0
-629 -633 0
-629 -634 0
-629 -635 0
-629 -636 0
-629 -637 0
-629 -638 0
-629 -639 0
-629 -640 0
-629 -641 0
-630 -631 0
-630 -632 0
-630 -633 0
-630 -634 0
-630 -635 0
-630 -636 0
-630 -637 0
-630 -638 0
-630 -639 0
-630 -640 0
-630 -641 0
-631 -632 0
-631 -633 0
-631 -634 0
-631 -635 0
-631 -636 0
-631 -637 0
-631 -638 0
-631 -639 0
-631 -640 0
-631 -641 0
-632 -633 0
-632 -634 0
-632 -635 0
-632 -636 0
-632 -637 0
-632 -638 0
-632 -639 0
-632 -640 0
-632 -641 0
-633 -634 0
-633 -635 0
-633 -636 0
-633 -637 0
-633 -638 0
-633 -639 0
-633 -640 0
-633 -641 0
-634 -635 0
-634 -636 0
-634 -637 0
-634 -638 0
-634 -639 0
-634 -640 0
-634 -641 0
-635 -636 0
-635 -637 0
-635 -638 0
-635 -639 0
-635 -640 0
-635 -641 0
-636 -637 0
-636 -638 0
-636 -639 0
-636 -640 0
-636 -641 0
-637 -638 0
-637 -639 0
-637 -640 0
-637 -641 0
-638 -639 0
-638 -640 0
-638 -641 0
-639 -640 0
-639 -641 0
-640 -641 0
-305 628 0
-306 628 629 0
-307 628 629 630 0
-308 629 630 631 0
-309 630 631 632 0
-310 631 632 633 0
-311 632 633 634 0
-312 633 634 635 0
-313 634 635 636 0
-314 635 636 637 0
-315 636 637 638 0
-316 637 638 639 0
-317 638 639 640 0
-318 639 640 641 0
-319 640 641 0
-320 641 0
-321 628 0
-322 628 629 0
-323 628 629 630 0
-324 629 630 631 0
-325 630 631 632 0
-326 631 632 633 0
-327 632 633 634 0
-328 633 634 635 0
-329 634 635 636 0
-330 635 636 637 0
-331 636 637 638 0
-332 637 638 639 0
-333 638 639 640 0
-334 639 640 641 0
-335 640 641 0
-336 641 0
-337 628 0
-338 628 629 0
-339 628 629 630 0
-340 629 630 631 0
-341 630 631 632 0
-342 631 632 633 0
-343 632 633 634 0
-344 633 634 635 0
-345 634 635 636 0
-346 635 636 637 0
-347 636 637 638 0
-348 637 638 639 0
-349 638 639 640 0
-350 639 640 641 0
-351 640 641 0
-352 641 0
-628 -308 0
-628 -309 0
-628 -310 0
-628 -311 0
-628 -312 0
-628 -313 0
-628 -314 0
-628 -315 0
-628 -316 0
-628 -317 0
-628 -318 0
-628 -319 0
-628 -320 0
-628 -324 0
-628 -325 0
-628 -326 0
-628 -327 0
-628 -328 0
-628 -329 0
-628 -330 0
-628 -331 0
-628 -332 0
-628 -333 0
-628 -334 0
-628 -335 0
-628 -336 0
-628 -340 0
-628 -341 0
-628 -342 0
-628 -343 0
-628 -344 0
-628 -345 0
-628 -346 0
-628 -347 0
-628 -348 0
-628 -349 0
-628 -350 0
-628 -351 0
-628 -352 0
-629 -305 0
-629 -309 0
-629 -310 0
-629 -311 0
-629 -312 0
-629 -313 0
-629 -314 0
-629 -315 0
-629 -316 0
-629 -317 0
-629 -318 0
-629 -319 0
-629 -320 0
-629 -321 0
-629 -325 0
-629 -326 0
-629 -327 0
-629 -328 0
-629 -329 0
-629 -330 0
-629 -331 0
-629 -332 0
-629 -333 0
-629 -334 0
-629 -335 0
-629 -336 0
-629 -337 0
-629 -341 0
-629 -342 0
-629 -343 0
-629 -344 0
-629 -345 0
-629 -346 0
-629 -347 0
-629 -348 0
-629 -349 0
-629 -350 0
-629 -351 0
-629 -352 0
-630 -305 0
-630 -306 0
-630 -310 0
-630 -311 0
-630 -312 0
-630 -313 0
-630 -314 0
-630 -315 0
-630 -316 0
-630 -317 0
-630 -318 0
-630 -319 0
-630 -320 0
-630 -321 0
-630 -322 0
-630 -326 0
-630 -327 0
-630 -328 0
-630 -329 0
-630 -330 0
-630 -331 0
-630 -332 0
-630 -333 0
-630 -334 0
-630 -335 0
-630 -336 0
-630 -337 0
-630 -338 0
-630 -342 0
-630 -343 0
-630 -344 0
-630 -345 0
-630 -346 0
-630 -347 0
-630 -348 0
-630 -349 0
-630 -350 0
-630 -351 0
-630 -352 0
-631 -305 0
-631 -306 0
-631 -307 0
-631 -311 0
-631 -312 0
-631 -313 0
-631 -314 0
-631 -315 0
-631 -316 0
-631 -317 0
-631 -318 0
-631 -319 0
-631 -320 0
-631 -321 0
-631 -322 0
-631 -323 0
-631 -327 0
-631 -328 0
-631 -329 0
-631 -330 0
-631 -331 0
-631 -332 0
-631 -333 0
-631 -334 0
-631 -335 0
-631 -336 0
-631 -337 0
-631 -338 0
-631 -339 0
-631 -343 0
-631 -344 0
-631 -345 0
-631 -346 0
-631 -347 0
-631 -348 0
-631 -349 0
-631 -350 0
-631 -351 0
-631 -352 0
-632 -305 0
-632 -306 0
-632 -307 0
-632 -308 0
-632 -312 0
-632 -313 0
-632 -314 0
-632 -315 0
-632 -316 0
-632 -317 0
-632 -318 0
-632 -319 0
-632 -320 0
-632 -321 0
-632 -322 0
-632 -323 0
-632 -324 0
-632 -328 0
-632 -329 0
-632 -330 0
-632 -331 0
-632 -332 0
-632 -333 0
-632 -334 0
-632 -335 0
-632 -336 0
-632 -337 0
-632 -338 0
-632 -339 0
-632 -340 0
-632 -344 0
-632 -345 0
-632 -346 0
-632 -347 0
-632 -348 0
-632 -349 0
-632 -350 0
-632 -351 0
-632 -352 0
-633 -305 0
-633 -306 0
-633 -307 0
-633 -308 0
-633 -309 0
-633 -313 0
-633 -314 0
-633 -315 0
-633 -316 0
-633 -317 0
-633 -318 0
-633 -319 0
-633 -320 0
-633 -321 0
-633 -322 0
-633 -323 0
-633 -324 0
-633 -325 0
-633 -329 0
-633 -330 0
-633 -331 0
-633 -332 0
-633 -333 0
-633 -334 0
-633 -335 0
-633 -336 0
-633 -337 0
-633 -338 0
-633 -339 0
-633 -340 0
-633 -341 0
-633 -345 0
-633 -346 0
-633 -347 0
-633 -348 0
-633 -349 0
-633 -350 0
-633 -351 0
-633 -352 0
-634 -305 0
-634 -306 0
-634 -307 0
-634 -308 0
-634 -309 0
-634 -310 0
-634 -314 0
-634 -315 0
-634 -316 0
-634 -317 0
-634 -318 0
-634 -319 0
-634 -320 0
-634 -321 0
-634 -322 0
-634 -323 0
-634 -324 0
-634 -325 0
-634 -326 0
-634 -330 0
-634 -331 0
-634 -332 0
-634 -333 0
-634 -334 0
-634 -335 0
-634 -336 0
-634 -337 0
-634 -338 0
-634 -339 0
-634 -340 0
-634 -341 0
-634 -342 0
-634 -346 0
-634 -347 0
-634 -348 0
-634 -349 0
-634 -350 0
-634 -351 0
-634 -352 0
-635 -305 0
-635 -306 0
-635 -307 0
-635 -308 0
-635 -309 0
-635 -310 0
-635 -311 0
-635 -315 0
-635 -316 0
-635 -317 0
-635 -318 0
-635 -319 0
-635 -320 0
-635 -321 0
-635 -322 0
-635 -323 0
-635 -324 0
-635 -325 0
-635 -326 0
-635 -327 0
-635 -331 0
-635 -332 0
-635 -333 0
-635 -334 0
-635 -335 0
-635 -336 0
-635 -337 0
-635 -338 0
-635 -339 0
-635 -340 0
-635 -341 0
-635 -342 0
-635 -343 0
-635 -347 0
-635 -348 0
-635 -349 0
-635 -350 0
-635 -351 0
-635 -352 0
-636 -305 0
-636 -306 0
-636 -307 0
-636 -308 0
-636 -309 0
-636 -310 0
-636 -311 0
-636 -312 0
-636 -316 0
-636 -317 0
-636 -318 0
-636 -319 0
-636 -320 0
-636 -321 0
-636 -322 0
-636 -323 0
-636 -324 0
-636 -325 0
-636 -326 0
-636 -327 0
-636 -328 0
-636 -332 0
-636 -333 0
-636 -334 0
-636 -335 0
-636 -336 0
-636 -337 0
-636 -338 0
-636 -339 0
-636 -340 0
-636 -341 0
-636 -342 0
-636 -343 0
-636 -344 0
-636 -348 0
-636 -349 0
-636 -350 0
-636 -351 0
-636 -352 0
-637 -305 0
-637 -306 0
-637 -307 0
-637 -308 0
-637 -309 0
-637 -310 0
-637 -311 0
-637 -312 0
-637 -313 0
-637 -317 0
-637 -318 0
-637 -319 0
-637 -320 0
-637 -321 0
-637 -322 0
-637 -323 0
-637 -324 0
-637 -325 0
-637 -326 0
-637 -327 0
-637 -328 0
-637 -329 0
-637 -333 0
-637 -334 0
-637 -335 0
-637 -336 0
-637 -337 0
-637 -338 0
-637 -339 0
-637 -340 0
-637 -341 0
-637 -342 0
-637 -343 0
-637 -344 0
-637 -345 0
-637 -349 0
-637 -350 0
-637 -351 0
-637 -352 0
-638 -305 0
-638 -306 0
-638 -307 0
-638 -308 0
-638 -309 0
-638 -310 0
-638 -311 0
-638 -312 0
-638 -313 0
-638 -314 0
-638 -318 0
-638 -319 0
-638 -320 0
-638 -321 0
-638 -322 0
-638 -323 0
-638 -324 0
-638 -325 0
-638 -326 0
-638 -327 0
-638 -328 0
-638 -329 0
-638 -330 0
-638 -334 0
-638 -335 0
-638 -336 0
-638 -337 0
-638 -338 0
-638 -339 0
-638 -340 0
-638 -341 0
-638 -342 0
-638 -343 0
-638 -344 0
-638 -345 0
-638 -346 0
-638 -350 0
-638 -351 0
-638 -352 0
-639 -305 0
-639 -306 0
-639 -307 0
-639 -308 0
-639 -309 0
-639 -310 0
-639 -311 0
-639 -312 0
-639 -313 0
-639 -314 0
-639 -315 0
-639 -319 0
-639 -320 0
-639 -321 0
-639 -322 0
-639 -323 0
-639 -324 0
-639 -325 0
-639 -326 0
-639 -327 0
-639 -328 0
-639 -329 0
-639 -330 0
-639 -331 0
-639 -335 0
-639 -336 0
-639 -337 0
-639 -338 0
-639 -339 0
-639 -340 0
-639 -341 0
-639 -342 0
-639 -343 0
-639 -344 0
-639 -345 0
-639 -346 0
-639 -347 0
-639 -351 0
-639 -352 0
-640 -305 0
-640 -306 0
-640 -307 0
-640 -308 0
-640 -309 0
-640 -310 0
-640 -311 0
-640 -312 0
-640 -313 0
-640 -314 0
-640 -315 0
-640 -316 0
-640 -320 0
-640 -321 0
-640 -322 0
-640 -323 0
-640 -324 0
-640 -325 0
-640 -326 0
-640 -327 0
-640 -328 0
-640 -329 0
-640 -330 0
-640 -331 0
-640 -332 0
-640 -336 0
-640 -337 0
-640 -338 0
-640 -339 0
-640 -340 0
-640 -341 0
-640 -342 0
-640 -343 0
-640 -344 0
-640 -345 0
-640 -346 0
-640 -347 0
-640 -348 0
-640 -352 0
-641 -305 0
-641 -306 0
-641 -307 0
-641 -308 0
-641 -309 0
-641 -310 0
-641 -311 0
-641 -312 0
-641 -313 0
-641 -314 0
-641 -315 0
-641 -316 0
-641 -317 0
-641 -321 0
-641 -322 0
-641 -323 0
-641 -324 0
-641 -325 0
-641 -326 0
-641 -327 0
-641 -328 0
-641 -329 0
-641 -330 0
-641 -331 0
-641 -332 0
-641 -333 0
-641 -337 0
-641 -338 0
-641 -339 0
-641 -340 0
-641 -341 0
-641 -342 0
-641 -343 0
-641 -344 0
-641 -345 0
-641 -346 0
-641 -347 0
-641 -348 0
-641 -349 0
-353 -369 0
-353 -385 0
-369 -385 0
-354 -370 0
-354 -386 0
-370 -386 0
-355 -371 0
-355 -387 0
-371 -387 0
-356 -372 0
-356 -388 0
-372 -388 0
-357 -373 0
-357 -389 0
-373 -389 0
-358 -374 0
-358 -390 0
-374 -390 0
-359 -375 0
-359 -391 0
-375 -391 0
-360 -376 0
-360 -392 0
-376 -392 0
-361 -377 0
-361 -393 0
-377 -393 0
-362 -378 0
-362 -394 0
-378 -394 0
-363 -379 0
-363 -395 0
-379 -395 0
-364 -380 0
-364 -396 0
-380 -396 0
-365 -381 0
-365 -397 0
-381 -397 0
-366 -382 0
-366 -398 0
-382 -398 0
-367 -383 0
-367 -399 0
-383 -399 0
-368 -384 0
-368 -400 0
-384 -400 0
642 643 644 645 646 647 648 649 650 651 652 653 654 655 0
-642 -643 0
-642 -644 0
-642 -645 0
-642 -646 0
-642 -647 0
-642 -648 0
-642 -649 0
-642 -650 0
-642 -651 0
-642 -652 0
-642 -653 0
-642 -654 0
-642 -655 0
-643 -644 0
-643 -645 0
-643 -646 0
-643 -647 0
-643 -648 0
-643 -649 0
-643 -650 0
-643 -651 0
-643 -652 0
-643 -653 0
-643 -654 0
-643 -655 0
-644 -645 0
-644 -646 0
-644 -647 0
-644 -648 0
-644 -649 0
-644 -650 0
-644 -651 0
-644 -652 0
-644 -653 0
-644 -654 0
-644 -655 0
-645 -646 0
-645 -647 0
-645 -648 0
-645 -649 0
-645 -650 0
-645 -651 0
-645 -652 0
-645 -653 0
-645 -654 0
-645 -655 0
-646 -647 0
-646 -648 0
-646 -649 0
-646 -650 0
-646 -651 0
-646 -652 0
-646 -653 0
-646 -654 0
-646 -655 0
-647 -648 0
-647 -649 0
-647 -650 0
-647 -651 0
-647 -652 0
-647 -653 0
-647 -654 0
-647 -655 0
-648 -649 0
-648 -650 0
-648 -651 0
-648 -652 0
-648 -653 0
-648 -654 0
-648 -655 0
-649 -650 0
-649 -651 0
-649 -652 0
-649 -653 0
-649 -654 0
-649 -655 0
-650 -651 0
-650 -652 0
-650 -653 0
-650 -654 0
-650 -655 0
-651 -652 0
-651 -653 0
-651 -654 0
-651 -655 0
-652 -653 0
-652 -654 0
-652 -655 0
-653 -654 0
-653 -655 0
-654 -655 0
-353 642 0
-354 642 643 0
-355 642 643 644 0
-356 643 644 645 0
-357 644 645 646 0
-358 645 646 647 0
-359 646 647 648 0
-360 647 648 649 0
-361 648 649 650 0
-362 649 650 651 0
-363 650 651 652 0
-364 651 652 653 0
-365 652 653 654 0
-366 653 654 655 0
-367 654 655 0
-368 655 0
-369 642 0
-370 642 643 0
-371 642 643 644 0
-372 643 644 645 0
-373 644 645 646 0
-374 645 646 647 0
-375 646 647 648 0
-376 647 648 649 0
-377 648 649 650 0
-378 649 650 651 0
-379 650 651 652 0
-380 651 652 653 0
-381 652 653 654 0
-382 653 654 655 0
-383 654 655 0
-384 655 0
-385 642 0
-386 642 643 0
-387 642 643 644 0
-388 643 644 645 0
-389 644 645 646 0
-390 645 646 647 0
-391 646 647 648 0
-392 647 648 649 0
-393 648 649 650 0
-394 649 650 651 0
-395 650 651 652 0
-396 651 652 653 0
-397 652 653 654 0
-398 653 654 655 0
-399 654 655 0
-400 655 0
-642 -356 0
-642 -357 0
-642 -358 0
-642 -359 0
-642 -360 0
-642 -361 0
-642 -362 0
-642 -363 0
-642 -364 0
-642 -365 0
-642 -366 0
-642 -367 0
-642 -368 0
-642 -372 0
-642 -373 0
-642 -374 0
-642 -375 0
-642 -376 0
-642 -377 0
-642 -378 0
-642 -379 0
-642 -380 0
-642 -381 0
-642 -382 0
-642 -383 0
-642 -384 0
-642 -388 0
-642 -389 0
-642 -390 0
-642 -391 0
-642 -392 0
-642 -393 0
-642 -394 0
-642 -395 0
-642 -396 0
-642 -397 0
-642 -398 0
-642 -399 0
-642 -400 0
-643 -353 0
-643 -357 0
-643 -358 0
-643 -359 0
-643 -360 0
-643 -361 0
-643 -362 0
-643 -363 0
-643 -364 0
-643 -365 0
-643 -366 0
-643 -367 0
-643 -368 0
-643 -369 0
-643 -373 0
-643 -374 0
-643 -375 0
-643 -376 0
-643 -377 0
-643 -378 0
-643 -379 0
-643 -380 0
-643 -381 0
-643 -382 0
-643 -383 0
-643 -384 0
-643 -385 0
-643 -389 0
-643 -390 0
-643 -391 0
-643 -392 0
-643 -393 0
-643 -394 0
-643 -395 0
-643 -396 0
-643 -397 0
-643 -398 0
-643 -399 0
-643 -400 0
-644 -353 0
-644 -354 0
-644 -358 0
-644 -359 0
-644 -360 0
-644 -361 0
-644 -362 0
-644 -363 0
-644 -364 0
-644 -365 0
-644 -366 0
-644 -367 0
-644 -368 0
-644 -369 0
-644 -370 0
-644 -374 0
-644 -375 0
-644 -376 0
-644 -377 0
-644 -378 0
-644 -379 0
-644 -380 0
-644 -381 0
-644 -382 0
-644 -383 0
-644 -384 0
-644 -385 0
-644 -386 0
-644 -390 0
-644 -391 0
-644 -392 0
-644 -393 0
-644 -394 0
-644 -395 0
-644 -396 0
-644 -397 0
-644 -398 0
-644 -399 0
-644 -400 0
-645 -353 0
-645 -354 0
-645 -355 0
-645 -359 0
-645 -360 0
-645 -361 0
-645 -362 0
-645 -363 0
-645 -364 0
-645 -365 0
-645 -366 0
-645 -367 0
-645 -368 0
-645 -369 0
-645 -370 0
-645 -371 0
-645 -375 0
-645 -376 0
-645 -377 0
-645 -378 0
-645 -379 0
-645 -380 0
-645 -381 0
-645 -382 0
-645 -383 0
-645 -384 0
-645 -385 0
-645 -386 0
-645 -387 0
-645 -391 0
-645 -392 0
-645 -393 0
-645 -394 0
-645 -395 0
-645 -396 0
-645 -397 0
-645 -398 0
-645 -399 0
-645 -400 0
-646 -353 0
-646 -354 0
-646 -355 0
-646 -356 0
-646 -360 0
-646 -361 0
-646 -362 0
-646 -363 0
-646 -364 0
-646 -365 0
-646 -366 0
-646 -367 0
-646 -368 0
-646 -369 0
-646 -370 0
-646 -371 0
-646 -372 0
-646 -376 0
-646 -377 0
-646 -378 0
-646 -379 0
-646 -380 0
-646 -381 0
-646 -382 0
-646 -383 0
-646 -384 0
-646 -385 0
-646 -386 0
-646 -387 0
-646 -388 0
-646 -392 0
-646 -393 0
-646 -394 0
-646 -395 0
-646 -396 0
-646 -397 0
-646 -398 0
-646 -399 0
-646 -400 0
-647 -353 0
-647 -354 0
-647 -355 0
-647 -356 0
-647 -357 0
-647 -361 0
-647 -362 0
-647 -363 0
-647 -364 0
-647 -365 0
-647 -366 0
-647 -367 0
-647 -368 0
-647 -369 0
-647 -370 0
-647 -371 0
-647 -372 0
-647 -373 0
-647 -377 0
-647 -378 0
-647 -379 0
-647 -380 0
-647 -381 0
-647 -382 0
-647 -383 0
-647 -384 0
-647 -385 0
-647 -386 0
-647 -387 0
-647 -388 0
-647 -389 0
-647 -393 0
-647 -394 0
-647 -395 0
-647 -396 0
-647 -397 0
-647 -398 0
-647 -399 0
-647 -400 0
-648 -353 0
-648 -354 0
-648 -355 0
-648 -356 0
-648 -357 0
-648 -358 0
-648 -362 0
-648 -363 0
-648 -364 0
-648 -365 0
-648 -366 0
-648 -367 0
-648 -368 0
-648 -369 0
-648 -370 0
-648 -371 0
-648 -372 0
-648 -373 0
-648 -374 0
-648 -378 0
-648 -379 0
-648 -380 0
-648 -381 0
-648 -382 0
-648 -383 0
-648 -384 0
-648 -385 0
-648 -386 0
-648 -387 0
-648 -388 0
-648 -389 0
-648 -390 0
-648 -394 0
-648 -395 0
-648 -396 0
-648 -397 0
-648 -398 0
-648 -399 0
-648 -400 0
-649 -353 0
-649 -354 0
-649 -355 0
-649 -356 0
-649 -357 0
-649 -358 0
-649 -359 0
-649 -363 0
-649 -364 0
-649 -365 0
-649 -366 0
-649 -367 0
-649 -368 0
-649 -369 0
-649 -370 0
-649 -371 0
-649 -372 0
-649 -373 0
-649 -374 0
-649 -375 0
-649 -379 0
-649 -380 0
-649 -381 0
-649 -382 0
-649 -383 0
-649 -384 0
-649 -385 0
-649 -386 0
-649 -387 0
-649 -388 0
-649 -389 0
-649 -390 0
-649 -391 0
-649 -395 0
-649 -396 0
-649 -397 0
-649 -398 0
-649 -399 0
-649 -400 0
-650 -353 0
-650 -354 0
-650 -355 0
-650 -356 0
-650 -357 0
-650 -358 0
-650 -359 0
-650 -360 0
-650 -364 0
-650 -365 0
-650 -366 0
-650 -367 0
-650 -368 0
-650 -369 0
-650 -370 0
-650 -371 0
-650 -372 0
-650 -373 0
-650 -374 0
-650 -375 0
-650 -376 0
-650 -380 0
-650 -381 0
-650 -382 0
-650 -383 0
-650 -384 0
-650 -385 0
-650 -386 0
-650 -387 0
-650 -388 0
-650 -389 0
-650 -390 0
-650 -391 0
-650 -392 0
-650 -396 0
-650 -397 0
-650 -398 0
-650 -399 0
-650 -400 0
-651 -353 0
-651 -354 0
-651 -355 0
-651 -356 0
-651 -357 0
-651 -358 0
-651 -359 0
-651 -360 0
-651 -361 0
-651 -365 0
-651 -366 0
-651 -367 0
-651 -368 0
-651 -369 0
-651 -370 0
-651 -371 0
-651 -372 0
-651 -373 0
-651 -374 0
-651 -375 0
-651 -376 0
-651 -377 0
-651 -381 0
-651 -382 0
-651 -383 0
-651 -384 0
-651 -385 0
-651 -386 0
-651 -387 0
-651 -388 0
-651 -389 0
-651 -390 0
-651 -391 0
-651 -392 0
-651 -393 0
-651 -397 0
-651 -398 0
-651 -399 0
-651 -400 0
-652 -353 0
-652 -354 0
-652 -355 0
-652 -356 0
-652 -357 0
-652 -358 0
-652 -359 0
-652 -360 0
-652 -361 0
-652 -362 0
-652 -366 0
-652 -367 0
-652 -368 0
-652 -369 0
-652 -370 0
-652 -371 0
-652 -372 0
-652 -373 0
-652 -374 0
-652 -375 0
-652 -376 0
-652 -377 0
-652 -378 0
-652 -382 0
-652 -383 0
-652 -384 0
-652 -385 0
-652 -386 0
-652 -387 0
-652 -388 0
-652 -389 0
-652 -390 0
-652 -391 0
-652 -392 0
-652 -393 0
-652 -394 0
-652 -398 0
-652 -399 0
-652 -400 0
-653 -353 0
-653 -354 0
-653 -355 0
-653 -356 0
-653 -357 0
-653 -358 0
-653 -359 0
-653 -360 0
-653 -361 0
-653 -362 0
-653 -363 0
-653 -367 0
-653 -368 0
-653 -369 0
-653 -370 0
-653 -371 0
-653 -372 0
-653 -373 0
-653 -374 0
-653 -375 0
-653 -376 0
-653 -377 0
-653 -378 0
-653 -379 0
-653 -383 0
-653 -384 0
-653 -385 0
-653 -386 0
-653 -387 0
-653 -388 0
-653 -389 0
-653 -390 0
-653 -391 0
-653 -392 0
-653 -393 0
-653 -394 0
-653 -395 0
-653 -399 0
-653 -400 0
-654 -353 0
-654 -354 0
-654 -355 0
-654 -356 0
-654 -357 0
-654 -358 0
-654 -359 0
-654 -360 0
-654 -361 0
-654 -362 0
-654 -363 0
-654 -364 0
-654 -368 0
-654 -369 0
-654 -370 0
-654 -371 0
-654 -372 0
-654 -373 0
-654 -374 0
-654 -375 0
-654 -376 0
-654 -377 0
-654 -378 0
-654 -379 0
-654 -380 0
-654 -384 0
-654 -385 0
-654 -386 0
-654 -387 0
-654 -388 0
-654 -389 0
-654 -390 0
-654 -391 0
-654 -392 0
-654 -393 0
-654 -394 0
-654 -395 0
-654 -396 0
-654 -400 0
-655 -353 0
-655 -354 0
-655 -355 0
-655 -356 0
-655 -357 0
-655 -358 0
-655 -359 0
-655 -360 0
-655 -361 0
-655 -362 0
-655 -363 0
-655 -364 0
-655 -365 0
-655 -369 0
-655 -370 0
-655 -371 0
-655 -372 0
-655 -373 0
-655 -374 0
-655 -375 0
-655 -376 0
-655 -377 0
-655 -378 0
-655 -379 0
-655 -380 0
-655 -381 0
-655 -385 0
-655 -386 0
-655 -387 0
-655 -388 0
-655 -389 0
-655 -390 0
-655 -391 0
-655 -392 0
-655 -393 0
-655 -394 0
-655 -395 0
-655 -396 0
-655 -397 0
-401 -417 0
-401 -433 0
-417 -433 0
-402 -418 0
-402 -434 0
-418 -434 0
-403 -419 0
-403 -435 0
-419 -435 0
-404 -420 0
-404 -436 0
-420 -436 0
-405 -421 0
-405 -437 0
-421 -437 0
-406 -422 0
-406 -438 0
-422 -438 0
-407 -423 0
-407 -439 0
-423 -439 0
-408 -424 0
-408 -440 0
-424 -440 0
-409 -425 0
-409 -441 0
-425 -441 0
-410 -426 0
-410 -442 0
-426 -442 0
-411 -427 0
-411 -443 0
-427 -443 0
-412 -428 0
-412 -444 0
-428 -444 0
-413 -429 0
-413 -445 0
-429 -445 0
-414 -430 0
-414 -446 0
-430 -446 0
-415 -431 0
-415 -447 0
-431 -447 0
-416 -432 0
-416 -448 0
-432 -448 0
656 657 658 659 660 661 662 663 664 665 666 667 668 669 0
-656 -657 0
-656 -658 0
-656 -659 0
-656 -660 0
-656 -661 0
-656 -662 0
-656 -663 0
-656 -664 0
-656 -665 0
-656 -666 0
-656 -667 0
-656 -668 0
-656 -669 0
-657 -658 0
-657 -659 0
-657 -660 0
-657 -661 0
-657 -662 0
-657 -663 0
-657 -664 0
-657 -665 0
-657 -666 0
-657 -667 0
-657 -668 0
-657 -669 0
-658 -659 0
-658 -660 0
-658 -661 0
-658 -662 0
-658 -663 0
-658 -664 0
-658 -665 0
-658 -666 0
-658 -667 0
-658 -668 0
-658 -669 0
-659 -660 0
-659 -661 0
-659 -662 0
-659 -663 0
-659 -664 0
-659 -665 0
-659 -666 0
-659 -667 0
-659 -668 0
-659 -669 0
-660 -661 0
-660 -662 0
-660 -663 0
-660 -664 0
-660 -665 0
-660 -666 0
-660 -667 0
-660 -668 0
-660 -669 0
-661 -662 0
-661 -663 0
-661 -664 0
-661 -665 0
-661 -666 0
-661 -667 0
-661 -668 0
-661 -669 0
-662 -663 0
-662 -664 0
-662 -665 0
-662 -666 0
-662 -667 0
-662 -668 0
-662 -669 0
-663 -664 0
-663 -665 0
-663 -666 0
-663 -667 0
-663 -668 0
-663 -669 0
-664 -665 0
-664 -666 0
-664 -667 0
-664 -668 0
-664 -669 0
-665 -666 0
-665 -667 0
-665 -668 0
-665 -669 0
-666 -667 0
-666 -668 0
-666 -669 0
-667 -668 0
-667 -669 0
-668 -669 0
-401 656 0
-402 656 657 0
-403 656 657 658 0
-404 657 658 659 0
-405 658 659 660 0
-406 659 660 661 0
-407 660 661 662 0
-408 661 662 663 0
-409 662 663 664 0
-410 663 664 665 0
-411 664 665 666 0
-412 665 666 667 0
-413 666 667 668 0
-414 667 668 669 0
-415 668 669 0
-416 669 0
-417 656 0
-418 656 657 0
-419 656 657 658 0
-420 657 658 659 0
-421 658 659 660 0
-422 659 660 661 0
-423 660 661 662 0
-424 661 662 663 0
-425 662 663 664 0
-426 663 664 665 0
-427 664 665 666 0
-428 665 666 667 0
-429 666 667 668 0
-430 667 668 669 0
-431 668 669 0
-432 669 0
-433 656 0
-434 656 657 0
-435 656 657 658 0
-436 657 658 659 0
-437 658 659 660 0
-438 659 660 661 0
-439 660 661 662 0
-440 661 662 663 0
-441 662 663 664 0
-442 663 664 665 0
-443 664 665 666 0
-444 665 666 667 0
-445 666 667 668 0
-446 667 668 669 0
-447 668 669 0
-448 669 0
-656 -404 0
-656 -405 0
-656 -406 0
-656 -407 0
-656 -408 0
-656 -409 0
-656 -410 0
-656 -411 0
-656 -412 0
-656 -413 0
-656 -414 0
-656 -415 0
-656 -416 0
-656 -420 0
-656 -421 0
-656 -422 0
-656 -423 0
-656 -424 0
-656 -425 0
-656 -426 0
-656 -427 0
-656 -428 0
-656 -429 0
-656 -430 0
-656 -431 0
-656 -432 0
-656 -436 0
-656 -437 0
-656 -438 0
-656 -439 0
-656 -440 0
-656 -441 0
-656 -442 0
-656 -443 0
-656 -444 0
-656 -445 0
-656 -446 0
-656 -447 0
-656 -448 0
-657 -401 0
-657 -405 0
-657 -406 0
-657 -407 0
-657 -408 0
-657 -409 0
-657 -410 0
-657 -411 0
-657 -412 0
-657 -413 0
-657 -414 0
-657 -415 0
-657 -416 0
-657 -417 0
-657 -421 0
-657 -422 0
-657 -423 0
-657 -424 0
-657 -425 0
-657 -426 0
-657 -427 0
-657 -428 0
-657 -429 0
-657 -430 0
-657 -431 0
-657 -432 0
-657 -433 0
-657 -437 0
-657 -438 0
-657 -439 0
-657 -440 0
-657 -441 0
-657 -442 0
-657 -443 0
-657 -444 0
-657 -445 0
-657 -446 0
-657 -447 0
-657 -448 0
-658 -401 0
-658 -402 0
-658 -406 0
-658 -407 0
-658 -408 0
-658 -409 0
-658 -410 0
-658 -411 0
-658 -412 0
-658 -413 0
-658 -414 0
-658 -415 0
-658 -416 0
-658 -417 0
-658 -418 0
-658 -422 0
-658 -423 0
-658 -424 0
-658 -425 0
-658 -426 0
-658 -427 0
-658 -428 0
-658 -429 0
-658 -430 0
-658 -431 0
-658 -432 0
-658 -433 0
-658 -434 0
-658 -438 0
-658 -439 0
-658 -440 0
-658 -441 0
-658 -442 0
-658 -443 0
-658 -444 0
-658 -445 0
-658 -446 0
-658 -447 0
-658 -448 0
-659 -401 0
-659 -402 0
-659 -403 0
-659 -407 0
-659 -408 0
-659 -409 0
-659 -410 0
-659 -411 0
-659 -412 0
-659 -413 0
-659 -414 0
-659 -415 0
-659 -416 0
-659 -417 0
-659 -418 0
-659 -419 0
-659 -423 0
-659 -424 0
-659 -425 0
-659 -426 0
-659 -427 0
-659 -428 0
-659 -429 0
-659 -430 0
-659 -431 0
-659 -432 0
-659 -433 0
-659 -434 0
-659 -435 0
-659 -439 0
-659 -440 0
-659 -441 0
-659 -442 0
-659 -443 0
-659 -444 0
-659 -445 0
-659 -446 0
-659 -447 0
-659 -448 0
-660 -401 0
-660 -402 0
-660 -403 0
-660 -404 0
-660 -408 0
-660 -409 0
-660 -410 0
-660 -411 0
-660 -412 0
-660 -413 0
-660 -414 0
-660 -415 0
-660 -416 0
-660 -417 0
-660 -418 0
-660 -419 0
-660 -420 0
-660 -424 0
-660 -425 0
-660 -426 0
-660 -427 0
-660 -428 0
-660 -429 0
-660 -430 0
-660 -431 0
-660 -432 0
-660 -433 0
-660 -434 0
-660 -435 0
-660 -436 0
-660 -440 0
-660 -441 0
-660 -442 0
-660 -443 0
-660 -444 0
-660 -445 0
-660 -446 0
-660 -447 0
-660 -448 0
-661 -401 0
-661 -402 0
-661 -403 0
-661 -404 0
-661 -405 0
-661 -409 0
-661 -410 0
-661 -411 0
-661 -412 0
-661 -413 0
-661 -414 0
-661 -415 0
-661 -416 0
-661 -417 0
-661 -418 0
-661 -419 0
-661 -420 0
-661 -421 0
-661 -425 0
-661 -426 0
-661 -427 0
-661 -428 0
-661 -429 0
-661 -430 0
-661 -431 0
-661 -432 0
-661 -433 0
-661 -434 0
-661 -435 0
-661 -436 0
-661 -437 0
-661 -441 0
-661 -442 0
-661 -443 0
-661 -444 0
-661 -445 0
-661 -446 0
-661 -447 0
-661 -448 0
-662 -401 0
-662 -402 0
-662 -403 0
-662 -404 0
-662 -405 0
-662 -406 0
-662 -410 0
-662 -411 0
-662 -412 0
-662 -413 0
-662 -414 0
-662 -415 0
-662 -416 0
-662 -417 0
-662 -418 0
-662 -419 0
-662 -420 0
-662 -421 0
-662 -422 0
-662 -426 0
-662 -427 0
-662 -428 0
-662 -429 0
-662 -430 0
-662 -431 0
-662 -432 0
-662 -433 0
-662 -434 0
-662 -435 0
-662 -436 0
-662 -437 0
-662 -438 0
-662 -442 0
-662 -443 0
-662 -444 0
-662 -445 0
-662 -446 0
-662 -447 0
-662 -448 0
-663 -401 0
-663 -402 0
-663 -403 0
-663 -404 0
-663 -405 0
-663 -406 0
-663 -407 0
-663 -411 0
-663 -412 0
-663 -413 0
-663 -414 0
-663 -415 0
-663 -416 0
-663 -417 0
-663 -418 0
-663 -419 0
-663 -420 0
-663 -421 0
-663 -422 0
-663 -423 0
-663 -427 0
-663 -428 0
-663 -429 0
-663 -430 0
-663 -431 0
-663 -432 0
-663 -433 0
-663 -434 0
-663 -435 0
-663 -436 0
-663 -437 0
-663 -438 0
-663 -439 0
-663 -443 0
-663 -444 0
-663 -445 0
-663 -446 0
-663 -447 0
-663 -448 0
-664 -401 0
-664 -402 0
-664 -403 0
-664 -404 0
-664 -405 0
-664 -406 0
-664 -407 0
-664 -408 0
-664 -412 0
-664 -413 0
-664 -414 0
-664 -415 0
-664 -416 0
-664 -417 0
-664 -418 0
-664 -419 0
-664 -420 0
-664 -421 0
-664 -422 0
-664 -423 0
-664 -424 0
-664 -428 0
-664 -429 0
-664 -430 0
-664 -431 0
-664 -432 0
-664 -433 0
-664 -434 0
-664 -435 0
-664 -436 0
-664 -437 0
-664 -438 0
-664 -439 0
-664 -440 0
-664 -444 0
-664 -445 0
-664 -446 0
-664 -447 0
-664 -448 0
-665 -401 0
-665 -402 0
-665 -403 0
-665 -404 0
-665 -405 0
-665 -406 0
-665 -407 0
-665 -408 0
-665 -409 0
-665 -413 0
-665 -414 0
-665 -415 0
-665 -416 0
-665 -417 0
-665 -418 0
-665 -419 0
-665 -420 0
-665 -421 0
-665 -422 0
-665 -423 0
-665 -424 0
-665 -425 0
-665 -429 0
-665 -430 0
-665 -431 0
-665 -432 0
-665 -433 0
-665 -434 0
-665 -435 0
-665 -436 0
-665 -437 0
-665 -438 0
-665 -439 0
-665 -440 0
-665 -441 0
-665 -445 0
-665 -446 0
-665 -447 0
-665 -448 0
-666 -401 0
-666 -402 0
-666 -403 0
-666 -404 0
-666 -405 0
-666 -406 0
-666 -407 0
-666 -408 0
-666 -409 0
-666 -410 0
-666 -414 0
-666 -415 0
-666 -416 0
-666 -417 0
-666 -418 0
-666 -419 0
-666 -420 0
-666 -421 0
-666 -422 0
-666 -423 0
-666 -424 0
-666 -425 0
-666 -426 0
-666 -430 0
-666 -431 0
-666 -432 0
-666 -433 0
-666 -434 0
-666 -435 0
-666 -436 0
-666 -437 0
-666 -438 0
-666 -439 0
-666 -440 0
-666 -441 0
-666 -442 0
-666 -446 0
-666 -447 0
-666 -448 0
-667 -401 0
-667 -402 0
-667 -403 0
-667 -404 0
-667 -405 0
-667 -406 0
-667 -407 0
-667 -408 0
-667 -409 0
-667 -410 0
-667 -411 0
-667 -415 0
-667 -416 0
-667 -417 0
-667 -418 0
-667 -419 0
-667 -420 0
-667 -421 0
-667 -422 0
-667 -423 0
-667 -424 0
-667 -425 0
-667 -426 0
-667 -427 0
-667 -431 0
-667 -432 0
-667 -433 0
-667 -434 0
-667 -435 0
-667 -436 0
-667 -437 0
-667 -438 0
-667 -439 0
-667 -440 0
-667 -441 0
-667 -442 0
-667 -443 0
-667 -447 0
-667 -448 0
-668 -401 0
-668 -402 0
-668 -403 0
-668 -404 0
-668 -405 0
-668 -406 0
-668 -407 0
-668 -408 0
-668 -409 0
-668 -410 0
-668 -411 0
-668 -412 0
-668 -416 0
-668 -417 0
-668 -418 0
-668 -419 0
-668 -420 0
-668 -421 0
-668 -422 0
-668 -423 0
-668 -424 0
-668 -425 0
-668 -426 0
-668 -427 0
-668 -428 0
-668 -432 0
-668 -433 0
-668 -434 0
-668 -435 0
-668 -436 0
-668 -437 0
-668 -438 0
-668 -439 0
-668 -440 0
-668 -441 0
-668 -442 0
-668 -443 0
-668 -444 0
-668 -448 0
-669 -401 0
-669 -402 0
-669 -403 0
-669 -404 0
-669 -405 0
-669 -406 0
-669 -407 0
-669 -408 0
-669 -409 0
-669 -410 0
-669 -411 0
-669 -412 0
-669 -413 0
-669 -417 0
-669 -418 0
-669 -419 0
-669 -420 0
-669 -421 0
-669 -422 0
-669 -423 0
-669 -424 0
-669 -425 0
-669 -426 0
-669 -427 0
-669 -428 0
-669 -429 0
-669 -433 0
-669 -434 0
-669 -435 0
-669 -436 0
-669 -437 0
-669 -438 0
-669 -439 0
-669 -440 0
-669 -441 0
-669 -442 0
-669 -443 0
-669 -444 0
-669 -445 0
-449 -465 0
-449 -481 0
-465 -481 0
-450 -466 0
-450 -482 0
-466 -482 0
-451 -467 0
-451 -483 0
-467 -483 0
-452 -468 0
-452 -484 0
-468 -484 0
-453 -469 0
-453 -485 0
-469 -485 0
-454 -470 0
-454 -486 0
-470 -486 0
-455 -471 0
-455 -487 0
-471 -487 0
-456 -472 0
-456 -488 0
-472 -488 0
-457 -473 0
-457 -489 0
-473 -489 0
-458 -474 0
-458 -490 0
-474 -490 0
-459 -475 0
-459 -491 0
-475 -491 0
-460 -476 0
-460 -492 0
-476 -492 0
-461 -477 0
-461 -493 0
-477 -493 0
-462 -478 0
-462 -494 0
-478 -494 0
-463 -479 0
-463 -495 0
-479 -495 0
-464 -480 0
-464 -496 0
-480 -496 0
670 671 672 673 674 675 676 677 678 679 680 681 682 683 0
-670 -671 0
-670 -672 0
-670 -673 0
-670 -674 0
-670 -675 0
-670 -676 0
-670 -677 0
-670 -678 0
-670 -679 0
-670 -680 0
-670 -681 0
-670 -682 0
-670 -683 0
-671 -672 0
-671 -673 0
-671 -674 0
-671 -675 0
-671 -676 0
-671 -677 0
-671 -678 0
-671 -679 0
-671 -680 0
-671 -681 0
-671 -682 0
-671 -683 0
-672 -673 0
-672 -674 0
-672 -675 0
-672 -676 0
-672 -677 0
-672 -678 0
-672 -679 0
-672 -680 0
-672 -681 0
-672 -682 0
-672 -683 0
-673 -674 0
-673 -675 0
-673 -676 0
-673 -677 0
-673 -678 0
-673 -679 0
-673 -680 0
-673 -681 0
-673 -682 0
-673 -683 0
-674 -675 0
-674 -676 0
-674 -677 0
-674 -678 0
-674 -679 0
-674 -680 0
-674 -681 0
-674 -682 0
-674 -683 0
-675 -676 0
-675 -677 0
-675 -678 0
-675 -679 0
-675 -680 0
-675 -681 0
-675 -682 0
-675 -683 0
-676 -677 0
-676 -678 0
-676 -679 0
-676 -680 0
-676 -681 0
-676 -682 0
-676 -683 0
-677 -678 0
-677 -679 0
-677 -680 0
-677 -681 0
-677 -682 0
-677 -683 0
-678 -679 0
-678 -680 0
-678 -681 0
-678 -682 0
-678 -683 0
-679 -680 0
-679 -681 0
-679 -682 0
-679 -683 0
-680 -681 0
-680 -682 0
-680 -683 0
-681 -682 0
-681 -683 0
-682 -683 0
-449 670 0
-450 670 671 0
-451 670 671 672 0
-452 671 672 673 0
-453 672 673 674 0
-454 673 674 675 0
-455 674 675 676 0
-456 675 676 677 0
-457 676 677 678 0
-458 677 678 679 0
-459 678 679 680 0
-460 679 680 681 0
-461 680 681 682 0
-462 681 682 683 0
-463 682 683 0
-464 683 0
-465 670 0
-466 670 671 0
-467 670 671 672 0
-468 671 672 673 0
-469 672 673 674 0
-470 673 674 675 0
-471 674 675 676 0
-472 675 676 677 0
-473 676 677 678 0
-474 677 678 679 0
-475 678 679 680 0
-476 679 680 681 0
-477 680 681 682 0
-478 681 682 683 0
-479 682 683 0
-480 683 0
-481 670 0
-482 670 671 0
-483 670 671 672 0
-484 671 672 673 0
-485 672 673 674 0
-486 673 674 675 0
-487 674 675 676 0
-488 675 676 677 0
-489 676 677 678 0
-490 677 678 679 0
-491 678 679 680 0
-492 679 680 681 0
-493 680 681 682 0
-494 681 682 683 0
-495 682 683 0
-496 683 0
-670 -452 0
-670 -453 0
-670 -454 0
-670 -455 0
-670 -456 0
-670 -457 0
-670 -458 0
-670 -459 0
-670 -460 0
-670 -461 0
-670 -462 0
-670 -463 0
-670 -464 0
-670 -468 0
-670 -469 0
-670 -470 0
-670 -471 0
-670 -472 0
-670 -473 0
-670 -474 0
-670 -475 0
-670 -476 0
-670 -477 0
-670 -478 0
-670 -479 0
-670 -480 0
-670 -484 0
-670 -485 0
-670 -486 0
-670 -487 0
-670 -488 0
-670 -489 0
-670 -490 0
-670 -491 0
-670 -492 0
-670 -493 0
-670 -494 0
-670 -495 0
-670 -496 0
-671 -449 0
-671 -453 0
-671 -454 0
-671 -455 0
-671 -456 0
-671 -457 0
-671 -458 0
-671 -459 0
-671 -460 0
-671 -461 0
-671 -462 0
-671 -463 0
-671 -464 0
-671 -465 0
-671 -469 0
-671 -470 0
-671 -471 0
-671 -472 0
-671 -473 0
-671 -474 0
-671 -475 0
-671 -476 0
-671 -477 0
-671 -478 0
-671 -479 0
-671 -480 0
-671 -481 0
-671 -485 0
-671 -486 0
-671 -487 0
-671 -488 0
-671 -489 0
-671 -490 0
-671 -491 0
-671 -492 0
-671 -493 0
-671 -494 0
-671 -495 0
-671 -496 0
-672 -449 0
-672 -450 0
-672 -454 0
-672 -455 0
-672 -456 0
-672 -457 0
-672 -458 0
-672 -459 0
-672 -460 0
-672 -461 0
-672 -462 0
-672 -463 0
-672 -464 0
-672 -465 0
-672 -466 0
-672 -470 0
-672 -471 0
-672 -472 0
-672 -473 0
-672 -474 0
-672 -475 0
-672 -476 0
-672 -477 0
-672 -478 0
-672 -479 0
-672 -480 0
-672 -481 0
-672 -482 0
-672 -486 0
-672 -487 0
-672 -488 0
-672 -489 0
-672 -490 0
-672 -491 0
-672 -492 0
-672 -493 0
-672 -494 0
-672 -495 0
-672 -496 0
-673 -449 0
-673 -450 0
-673 -451 0
-673 -455 0
-673 -456 0
-673 -457 0
-673 -458 0
-673 -459 0
-673 -460 0
-673 -461 0
-673 -462 0
-673 -463 0
-673 -464 0
-673 -465 0
-673 -466 0
-673 -467 0
-673 -471 0
-673 -472 0
-673 -473 0
-673 -474 0
-673 -475 0
-673 -476 0
-673 -477 0
-673 -478 0
-673 -479 0
-673 -480 0
-673 -481 0
-673 -482 0
-673 -483 0
-673 -487 0
-673 -488 0
-673 -489 0
-673 -490 0
-673 -491 0
-673 -492 0
-673 -493 0
-673 -494 0
-673 -495 0
-673 -496 0
-674 -449 0
-674 -450 0
-674 -451 0
-674 -452 0
-674 -456 0
-674 -457 0
-674 -458 0
-674 -459 0
-674 -460 0
-674 -461 0
-674 -462 0
-674 -463 0
-674 -464 0
-674 -465 0
-674 -466 0
-674 -467 0
-674 -468 0
-674 -472 0
-674 -473 0
-674 -474 0
-674 -475 0
-674 -476 0
-674 -477 0
-674 -478 0
-674 -479 0
-674 -480 0
-674 -481 0
-674 -482 0
-674 -483 0
-674 -484 0
-674 -488 0
-674 -489 0
-674 -490 0
-674 -491 0
-674 -492 0
-674 -493 0
-674 -494 0
-674 -495 0
-674 -496 0
-675 -449 0
-675 -450 0
-675 -451 0
-675 -452 0
-675 -453 0
-675 -457 0
-675 -458 0
-675 -459 0
-675 -460 0
-675 -461 0
-675 -462 0
-675 -463 0
-675 -464 0
-675 -465 0
-675 -466 0
-675 -467 0
-675 -468 0
-675 -469 0
-675 -473 0
-675 -474 0
-675 -475 0
-675 -476 0
-675 -477 0
-675 -478 0
-675 -479 0
-675 -480 0
-675 -481 0
-675 -482 0
-675 -483 0
-675 -484 0
-675 -485 0
-675 -489 0
-675 -490 0
-675 -491 0
-675 -492 0
-675 -493 0
-675 -494 0
-675 -495 0
-675 -496 0
-676 -449 0
-676 -450 0
-676 -451 0
-676 -452 0
-676 -453 0
-676 -454 0
-676 -458 0
-676 -459 0
-676 -460 0
-676 -461 0
-676 -462 0
-676 -463 0
-676 -464 0
-676 -465 0
-676 -466 0
-676 -467 0
-676 -468 0
-676 -469 0
-676 -470 0
-676 -474 0
-676 -475 0
-676 -476 0
-676 -477 0
-676 -478 0
-676 -479 0
-676 -480 0
-676 -481 0
-676 -482 0
-676 -483 0
-676 -484 0
-676 -485 0
-676 -486 0
-676 -490 0
-676 -491 0
-676 -492 0
-676 -493 0
-676 -494 0
-676 -495 0
-676 -496 0
-677 -449 0
-677 -450 0
-677 -451 0
-677 -452 0
-677 -453 0
-677 -454 0
-677 -455 0
-677 -459 0
-677 -460 0
-677 -461 0
-677 -462 0
-677 -463 0
-677 -464 0
-677 -465 0
-677 -466 0
-677 -467 0
-677 -468 0
-677 -469 0
-677 -470 0
-677 -471 0
-677 -475 0
-677 -476 0
-677 -477 0
-677 -478 0
-677 -479 0
-677 -480 0
-677 -481 0
-677 -482 0
-677 -483 0
-677 -484 0
-677 -485 0
-677 -486 0
-677 -487 0
-677 -491 0
-677 -492 0
-677 -493 0
-677 -494 0
-677 -495 0
-677 -496 0
-678 -449 0
-678 -450 0
-678 -451 0
-678 -452 0
-678 -453 0
-678 -454 0
-678 -455 0
-678 -456 0
-678 -460 0
-678 -461 0
-678 -462 0
-678 -463 0
-678 -464 0
-678 -465 0
-678 -466 0
-678 -467 0
-678 -468 0
-678 -469 0
-678 -470 0
-678 -471 0
-678 -472 0
-678 -476 0
-678 -477 0
-678 -478 0
-678 -479 0
-678 -480 0
-678 -481 0
-678 -482 0
-678 -483 0
-678 -484 0
-678 -485 0
-678 -486 0
-678 -487 0
-678 -488 0
-678 -492 0
-678 -493 0
-678 -494 0
-678 -495 0
-678 -496 0
-679 -449 0
-679 -450 0
-679 -451 0
-679 -452 0
-679 -453 0
-679 -454 0
-679 -455 0
-679 -456 0
-679 -457 0
-679 -461 0
-679 -462 0
-679 -463 0
-679 -464 0
-679 -465 0
-679 -466 0
-679 -467 0
-679 -468 0
-679 -469 0
-679 -470 0
-679 -471 0
-679 -472 0
-679 -473 0
-679 -477 0
-679 -478 0
-679 -479 0
-679 -480 0
-679 -481 0
-679 -482 0
-679 -483 0
-679 -484 0
-679 -485 0
-679 -486 0
-679 -487 0
-679 -488 0
-679 -489 0
-679 -493 0
-679 -494 0
-679 -495 0
-679 -496 0
-680 -449 0
-680 -450 0
-680 -451 0
-680 -452 0
-680 -453 0
-680 -454 0
-680 -455 0
-680 -456 0
-680 -457 0
-680 -458 0
-680 -462 0
-680 -463 0
-680 -464 0
-680 -465 0
-680 -466 0
-680 -467 0
-680 -468 0
-680 -469 0
-680 -470 0
-680 -471 0
-680 -472 0
-680 -473 0
-680 -474 0
-680 -478 0
-680 -479 0
-680 -480 0
-680 -481 0
-680 -482 0
-680 -483 0
-680 -484 0
-680 -485 0
-680 -486 0
-680 -487 0
-680 -488 0
-680 -489 0
-680 -490 0
-680 -494 0
-680 -495 0
-680 -496 0
-681 -449 0
-681 -450 0
-681 -451 0
-681 -452 0
-681 -453 0
-681 -454 0
-681 -455 0
-681 -456 0
-681 -457 0
-681 -458 0
-681 -459 0
-681 -463 0
-681 -464 0
-681 -465 0
-681 -466 0
-681 -467 0
-681 -468 0
-681 -469 0
-681 -470 0
-681 -471 0
-681 -472 0
-681 -473 0
-681 -474 0
-681 -475 0
-681 -479 0
-681 -480 0
-681 -481 0
-681 -482 0
-681 -483 0
-681 -484 0
-681 -485 0
-681 -486 0
-681 -487 0
-681 -488 0
-681 -489 0
-681 -490 0
-681 -491 0
-681 -495 0
-681 -496 0
-682 -449 0
-682 -450 0
-682 -451 0
-682 -452 0
-682 -453 0
-682 -454 0
-682 -455 0
-682 -456 0
-682 -457 0
-682 -458 0
-682 -459 0
-682 -460 0
-682 -464 0
-682 -465 0
-682 -466 0
-682 -467 0
-682 -468 0
-682 -469 0
-682 -470 0
-682 -471 0
-682 -472 0
-682 -473 0
-682 -474 0
-682 -475 0
-682 -476 0
-682 -480 0
-682 -481 0
-682 -482 0
-682 -483 0
-682 -484 0
-682 -485 0
-682 -486 0
-682 -487 0
-682 -488 0
-682 -489 0
-682 -490 0
-682 -491 0
-682 -492 0
-682 -496 0
-683 -449 0
-683 -450 0
-683 -451 0
-683 -452 0
-683 -453 0
-683 -454 0
-683 -455 0
-683 -456 0
-683 -457 0
-683 -458 0
-683 -459 0
-683 -460 0
-683 -461 0
-683 -465 0
-683 -466 0
-683 -467 0
-683 -468 0
-683 -469 0
-683 -470 0
-683 -471 0
-683 -472 0
-683 -473 0
-683 -474 0
-683 -475 0
-683 -476 0
-683 -477 0
-683 -481 0
-683 -482 0
-683 -483 0
-683 -484 0
-683 -485 0
-683 -486 0
-683 -487 0
-683 -488 0
-683 -489 0
-683 -490 0
-683 -491 0
-683 -492 0
-683 -493 0
-497 -513 0
-497 -529 0
-513 -529 0
-498 -514 0
-498 -530 0
-514 -530 0
-499 -515 0
-499 -531 0
-515 -531 0
-500 -516 0
-500 -532 0
-516 -532 0
-501 -517 0
-501 -533 0
-517 -533 0
-502 -518 0
-502 -534 0
-518 -534 0
-503 -519 0
-503 -535 0
-519 -535 0
-504 -520 0
-504 -536 0
-520 -536 0
-505 -521 0
-505 -537 0
-521 -537 0
-506 -522 0
-506 -538 0
-522 -538 0
-507 -523 0
-507 -539 0
-523 -539 0
-508 -524 0
-508 -540 0
-524 -540 0
-509 -525 0
-509 -541 0
-525 -541 0
-510 -526 0
-510 -542 0
-526 -542 0
-511 -527 0
-511 -543 0
-527 -543 0
-512 -528 0
-512 -544 0
-528 -544 0
684 685 686 687 688 689 690 691 692 693 694 695 696 697 0
-684 -685 0
-684 -686 0
-684 -687 0
-684 -688 0
-684 -689 0
-684 -690 0
-684 -691 0
-684 -692 0
-684 -693 0
-684 -694 0
-684 -695 0
-684 -696 0
-684 -697 0
-685 -686 0
-685 -687 0
-685 -688 0
-685 -689 0
-685 -690 0
-685 -691 0
-685 -692 0
-685 -693 0
-685 -694 0
-685 -695 0
-685 -696 0
-685 -697 0
-686 -687 0
-686 -688 0
-686 -689 0
-686 -690 0
-686 -691 0
-686 -692 0
-686 -693 0
-686 -694 0
-686 -695 0
-686 -696 0
-686 -697 0
-687 -688 0
-687 -689 0
-687 -690 0
-687 -691 0
-687 -692 0
-687 -693 0
-687 -694 0
-687 -695 0
-687 -696 0
-687 -697 0
-688 -689 0
-688 -690 0
-688 -691 0
-688 -692 0
-688 -693 0
-688 -694 0
-688 -695 0
-688 -696 0
-688 -697 0
-689 -690 0
-689 -691 0
-689 -692 0
-689 -693 0
-689 -694 0
-689 -695 0
-689 -696 0
-689 -697 0
-690 -691 0
-690 -692 0
-690 -693 0
-690 -694 0
-690 -695 0
-690 -696 0
-690 -697 0
-691 -692 0
-691 -693 0
-691 -694 0
-691 -695 0
-691 -696 0
-691 -697 0
-692 -693 0
-692 -694 0
-692 -695 0
-692 -696 0
-692 -697 0
-693 -694 0
-693 -695 0
-693 -696 0
-693 -697 0
-694 -695 0
-694 -696 0
-694 -697 0
-695 -696 0
-695 -697 0
-696 -697 0
-497 684 0
-498 684 685 0
-499 684 685 686 0
-500 685 686 687 0
-501 686 687 688 0
-502 687 688 689 0
-503 688 689 690 0
-504 689 690 691 0
-505 690 691 692 0
-506 691 692 693 0
-507 692 693 694 0
-508 693 694 695 0
-509 694 695 696 0
-510 695 696 697 0
-511 696 697 0
-512 697 0
-513 684 0
-514 684 685 0
-515 684 685 686 0
-516 685 686 687 0
-517 686 687 688 0
-518 687 688 689 0
-519 688 689 690 0
-520 689 690 691 0
-521 690 691 692 0
-522 691 692 693 0
-523 692 693 694 0
-524 693 694 695 0
-525 694 695 696 0
-526 695 696 697 0
-527 696 697 0
-528 697 0
-529 684 0
-530 684 685 0
-531 684 685 686 0
-532 685 686 687 0
-533 686 687 688 0
-534 687 688 689 0
-535 688 689 690 0
-536 689 690 691 0
-537 690 691 692 0
-538 691 692 693 0
-539 692 693 694 0
-540 693 694 695 0
-541 694 695 696 0
-542 695 696 697 0
-543 696 697 0
-544 697 0
-684 -500 0
-684 -501 0
-684 -502 0
-684 -503 0
-684 -504 0
-684 -505 0
-684 -506 0
-684 -507 0
-684 -508 0
-684 -509 0
-684 -510 0
-684 -511 0
-684 -512 0
-684 -516 0
-684 -517 0
-684 -518 0
-684 -519 0
-684 -520 0
-684 -521 0
-684 -522 0
-684 -523 0
-684 -524 0
-684 -525 0
-684 -526 0
-684 -527 0
-684 -528 0
-684 -532 0
-684 -533 0
-684 -534 0
-684 -535 0
-684 -536 0
-684 -537 0
-684 -538 0
-684 -539 0
-684 -540 0
-684 -541 0
-684 -542 0
-684 -543 0
-684 -544 0
-685 -497 0
-685 -501 0
-685 -502 0
-685 -503 0
-685 -504 0
-685 -505 0
-685 -506 0
-685 -507 0
-685 -508 0
-685 -509 0
-685 -510 0
-685 -511 0
-685 -512 0
-685 -513 0
-685 -517 0
-685 -518 0
-685 -519 0
-685 -520 0
-685 -521 0
-685 -522 0
-685 -523 0
-685 -524 0
-685 -525 0
-685 -526 0
-685 -527 0
-685 -528 0
-685 -529 0
-685 -533 0
-685 -534 0
-685 -535 0
-685 -536 0
-685 -537 0
-685 -538 0
-685 -539 0
-685 -540 0
-685 -541 0
-685 -542 0
-685 -543 0
-685 -544 0
-686 -497 0
-686 -498 0
-686 -502 0
-686 -503 0
-686 -504 0
-686 -505 0
-686 -506 0
-686 -507 0
-686 -508 0
-686 -509 0
-686 -510 0
-686 -511 0
-686 -512 0
-686 -513 0
-686 -514 0
-686 -518 0
-686 -519 0
-686 -520 0
-686 -521 0
-686 -522 0
-686 -523 0
-686 -524 0
-686 -525 0
-686 -526 0
-686 -527 0
-686 -528 0
-686 -529 0
-686 -530 0
-686 -534 0
-686 -535 0
-686 -536 0
-686 -537 0
-686 -538 0
-686 -539 0
-686 -540 0
-686 -541 0
-686 -542 0
-686 -543 0
-686 -544 0
-687 -497 0
-687 -498 0
-687 -499 0
-687 -503 0
-687 -504 0
-687 -505 0
-687 -506 0
-687 -507 0
-687 -508 0
-687 -509 0
-687 -510 0
-687 -511 0
-687 -512 0
-687 -513 0
-687 -514 0
-687 -515 0
-687 -519 0
-687 -520 0
-687 -521 0
-687 -522 0
-687 -523 0
-687 -524 0
-687 -525 0
-687 -526 0
-687 -527 0
-687 -528 0
-687 -529 0
-687 -530 0
-687 -531 0
-687 -535 0
-687 -536 0
-687 -537 0
-687 -538 0
-687 -539 0
-687 -540 0
-687 -541 0
-687 -542 0
-687 -543 0
-687 -544 0
-688 -497 0
-688 -498 0
-688 -499 0
-688 -500 0
-688 -504 0
-688 -505 0
-688 -506 0
-688 -507 0
-688 -508 0
-688 -509 0
-688 -510 0
-688 -511 0
-688 -512 0
-688 -513 0
-688 -514 0
-688 -515 0
-688 -516 0
-688 -520 0
-688 -521 0
-688 -522 0
-688 -523 0
-688 -524 0
-688 -525 0
-688 -526 0
-688 -527 0
-688 -528 0
-688 -529 0
-688 -530 0
-688 -531 0
-688 -532 0
-688 -536 0
-688 -537 0
-688 -538 0
-688 -539 0
-688 -540 0
-688 -541 0
-688 -542 0
-688 -543 0
-688 -544 0
-689 -497 0
-689 -498 0
-689 -499 0
-689 -500 0
-689 -501 0
-689 -505 0
-689 -506 0
-689 -507 0
-689 -508 0
-689 -509 0
-689 -510 0
-689 -511 0
-689 -512 0
-689 -513 0
-689 -514 0
-689 -515 0
-689 -516 0
-689 -517 0
-689 -521 0
-689 -522 0
-689 -523 0
-689 -524 0
-689 -525 0
-689 -526 0
-689 -527 0
-689 -528 0
-689 -529 0
-689 -530 0
-689 -531 0
-689 -532 0
-689 -533 0
-689 -537 0
-689 -538 0
-689 -539 0
-689 -540 0
-689 -541 0
-689 -542 0
-689 -543 0
-689 -544 0
-690 -497 0
-690 -498 0
-690 -499 0
-690 -500 0
-690 -501 0
-690 -502 0
-690 -506 0
-690 -507 0
-690 -508 0
-690 -509 0
-690 -510 0
-690 -511 0
-690 -512 0
-690 -513 0
-690 -514 0
-690 -515 0
-690 -516 0
-690 -517 0
-690 -518 0
-690 -522 0
-690 -523 0
-690 -524 0
-690 -525 0
-690 -526 0
-690 -527 0
-690 -528 0
-690 -529 0
-690 -530 0
-690 -531 0
-690 -532 0
-690 -533 0
-690 -534 0
-690 -538 0
-690 -539 0
-690 -540 0
-690 -541 0
-690 -542 0
-690 -543 0
-690 -544 0
-691 -497 0
-691 -498 0
-691 -499 0
-691 -500 0
-691 -501 0
-691 -502 0
-691 -503 0
-691 -507 0
-691 -508 0
-691 -509 0
-691 -510 0
-691 -511 0
-691 -512 0
-691 -513 0
-691 -514 0
-691 -515 0
-691 -516 0
-691 -517 0
-691 -518 0
-691 -519 0
-691 -523 0
-691 -524 0
-691 -525 0
-691 -526 0
-691 -527 0
-691 -528 0
-691 -529 0
-691 -530 0
-691 -531 0
-691 -532 0
-691 -533 0
-691 -534 0
-691 -535 0
-691 -539 0
-691 -540 0
-691 -541 0
-691 -542 0
-691 -543 0
-691 -544 0
-692 -497 0
-692 -498 0
-692 -499 0
-692 -500 0
-692 -501 0
-692 -502 0
-692 -503 0
-692 -504 0
-692 -508 0
-692 -509 0
-692 -510 0
-692 -511 0
-692 -512 0
-692 -513 0
-692 -514 0
-692 -515 0
-692 -516 0
-692 -517 0
-692 -518 0
-692 -519 0
-692 -520 0
-692 -524 0
-692 -525 0
-692 -526 0
-692 -527 0
-692 -528 0
-692 -529 0
-692 -530 0
-692 -531 0
-692 -532 0
-692 -533 0
-692 -534 0
-692 -535 0
-692 -536 0
-692 -540 0
-692 -541 0
-692 -542 0
-692 -543 0
-692 -544 0
-693 -497 0
-693 -498 0
-693 -499 0
-693 -500 0
-693 -501 0
-693 -502 0
-693 -503 0
-693 -504 0
-693 -505 0
-693 -509 0
-693 -510 0
-693 -511 0
-693 -512 0
-693 -513 0
-693 -514 0
-693 -515 0
-693 -516 0
-693 -517 0
-693 -518 0
-693 -519 0
-693 -520 0
-693 -521 0
-693 -525 0
-693 -526 0
-693 -527 0
-693 -528 0
-693 -529 0
-693 -530 0
-693 -531 0
-693 -532 0
-693 -533 0
-693 -534 0
-693 -535 0
-693 -536 0
-693 -537 0
-693 -541 0
-693 -542 0
-693 -543 0
-693 -544 0
-694 -497 0
-694 -498 0
-694 -499 0
-694 -500 0
-694 -501 0
-694 -502 0
-694 -503 0
-694 -504 0
-694 -505 0
-694 -506 0
-694 -510 0
-694 -511 0
-694 -512 0
-694 -513 0
-694 -514 0
-694 -515 0
-694 -516 0
-694 -517 0
-694 -518 0
-694 -519 0
-694 -520 0
-694 -521 0
-694 -522 0
-694 -526 0
-694 -527 0
-694 -528 0
-694 -529 0
-694 -530 0
-694 -531 0
-694 -532 0
-694 -533 0
-694 -534 0
-694 -535 0
-694 -536 0
-694 -537 0
-694 -538 0
-694 -542 0
-694 -543 0
-694 -544 0
-695 -497 0
-695 -498 0
-695 -499 0
-695 -500 0
-695 -501 0
-695 -502 0
-695 -503 0
-695 -504 0
-695 -505 0
-695 -506 0
-695 -507 0
-695 -511 0
-695 -512 0
-695 -513 0
-695 -514 0
-695 -515 0
-695 -516 0
-695 -517 0
-695 -518 0
-695 -519 0
-695 -520 0
-695 -521 0
-695 -522 0
-695 -523 0
-695 -527 0
-695 -528 0
-695 -529 0
-695 -530 0
-695 -531 0
-695 -532 0
-695 -533 0
-695 -534 0
-695 -535 0
-695 -536 0
-695 -537 0
-695 -538 0
-695 -539 0
-695 -543 0
-695 -544 0
-696 -497 0
-696 -498 0
-696 -499 0
-696 -500 0
-696 -501 0
-696 -502 0
-696 -503 0
-696 -504 0
-696 -505 0
-696 -506 0
-696 -507 0
-696 -508 0
-696 -512 0
-696 -513 0
-696 -514 0
-696 -515 0
-696 -516 0
-696 -517 0
-696 -518 0
-696 -519 0
-696 -520 0
-696 -521 0
-696 -522 0
-696 -523 0
-696 -524 0
-696 -528 0
-696 -529 0
-696 -530 0
-696 -531 0
-696 -532 0
-696 -533 0
-696 -534 0
-696 -535 0
-696 -536 0
-696 -537 0
-696 -538 0
-696 -539 0
-696 -540 0
-696 -544 0
-697 -497 0
-697 -498 0
-697 -499 0
-697 -500 0
-697 -501 0
-697 -502 0
-697 -503 0
-697 -504 0
-697 -505 0
-697 -506 0
-697 -507 0
-697 -508 0
-697 -509 0
-697 -513 0
-697 -514 0
-697 -515 0
-697 -516 0
-697 -517 0
-697 -518 0
-697 -519 0
-697 -520 0
-697 -521 0
-697 -522 0
-697 -523 0
-697 -524 0
-697 -525 0
-697 -529 0
-697 -530 0
-697 -531 0
-697 -532 0
-697 -533 0
-697 -534 0
-697 -535 0
-697 -536 0
-697 -537 0
-697 -538 0
-697 -539 0
-697 -540 0
-697 -541 0
-49 -97 0
-49 -145 0
-49 -193 0
-49 -241 0
-49 -289 0
-49 -337 0
-49 -385 0
-49 -433 0
-49 -481 0
-49 -529 0
-97 -145 0
-97 -193 0
-97 -241 0
-97 -289 0
-97 -337 0
-97 -385 0
-97 -433 0
-97 -481 0
-97 -529 0
-145 -193 0
-145 -241 0
-145 -289 0
-145 -337 0
-145 -385 0
-145 -433 0
-145 -481 0
-145 -529 0
-193 -241 0
-193 -289 0
-193 -337 0
-193 -385 0
-193 -433 0
-193 -481 0
-193 -529 0
-241 -289 0
-241 -337 0
-241 -385 0
-241 -433 0
-241 -481 0
-241 -529 0
-289 -337 0
-289 -385 0
-289 -433 0
-289 -481 0
-289 -529 0
-337 -385 0
-337 -433 0
-337 -481 0
-337 -529 0
-385 -433 0
-385 -481 0
-385 -529 0
-433 -481 0
-433 -529 0
-481 -529 0
-50 -98 0
-50 -146 0
-50 -194 0
-50 -242 0
-50 -290 0
-50 -338 0
-50 -386 0
-50 -434 0
-50 -482 0
-50 -530 0
-98 -146 0
-98 -194 0
-98 -242 0
-98 -290 0
-98 -338 0
-98 -386 0
-98 -434 0
-98 -482 0
-98 -530 0
-146 -194 0
-146 -242 0
-146 -290 0
-146 -338 0
-146 -386 0
-146 -434 0
-146 -482 0
-146 -530 0
-194 -242 0
-194 -290 0
-194 -338 0
-194 -386 0
-194 -434 0
-194 -482 0
-194 -530 0
-242 -290 0
-242 -338 0
-242 -386 0
-242 -434 0
-242 -482 0
-242 -530 0
-290 -338 0
-290 -386 0
-290 -434 0
-290 -482 0
-290 -530 0
-338 -386 0
-338 -434 0
-338 -482 0
-338 -530 0
-386 -434 0
-386 -482 0
-386 -530 0
-434 -482 0
-434 -530 0
-482 -530 0
-51 -99 0
-51 -147 0
-51 -195 0
-51 -243 0
-51 -291 0
-51 -339 0
-51 -387 0
-51 -435 0
-51 -483 0
-51 -531 0
-99 -147 0
-99 -195 0
-99 -243 0
-99 -291 0
-99 -339 0
-99 -387 0
-99 -435 0
-99 -483 0
-99 -531 0
-147 -195 0
-147 -243 0
-147 -291 0
-147 -339 0
-147 -387 0
-147 -435 0
-147 -483 0
-147 -531 0
-195 -243 0
-195 -291 0
-195 -339 0
-195 -387 0
-195 -435 0
-195 -483 0
-195 -531 0
-243 -291 0
-243 -339 0
-243 -387 0
-243 -435 0
-243 -483 0
-243 -531 0
-291 -339 0
-291 -387 0
-291 -435 0
-291 -483 0
-291 -531 0
-339 -387 0
-339 -435 0
-339 -483 0
-339 -531 0
-387 -435 0
-387 -483 0
-387 -531 0
-435 -483 0
-435 -531 0
-483 -531 0
-52 -100 0
-52 -148 0
-52 -196 0
-52 -244 0
-52 -292 0
-52 -340 0
-52 -388 0
-52 -436 0
-52 -484 0
-52 -532 0
-100 -148 0
-100 -196 0
-100 -244 0
-100 -292 0
-100 -340 0
-100 -388 0
-100 -436 0
-100 -484 0
-100 -532 0
-148 -196 0
-148 -244 0
-148 -292 0
-148 -340 0
-148 -388 0
-148 -436 0
-148 -484 0
-148 -532 0
-196 -244 0
-196 -292 0
-196 -340 0
-196 -388 0
-196 -436 0
-196 -484 0
-196 -532 0
-244 -292 0
-244 -340 0
-244 -388 0
-244 -436 0
-244 -484 0
-244 -532 0
-292 -340 0
-292 -388 0
-292 -436 0
-292 -484 0
-292 -532 0
-340 -388 0
-340 -436 0
-340 -484 0
-340 -532 0
-388 -436 0
-388 -484 0
-388 -532 0
-436 -484 0
-436 -532 0
-484 -532 0
-53 -101 0
-53 -149 0
-53 -197 0
-53 -245 0
-53 -293 0
-53 -341 0
-53 -389 0
-53 -437 0
-53 -485 0
-53 -533 0
-101 -149 0
-101 -197 0
-101 -245 0
-101 -293 0
-101 -341 0
-101 -389 0
-101 -437 0
-101 -485 0
-101 -533 0
-149 -197 0
-149 -245 0
-149 -293 0
-149 -341 0
-149 -389 0
-149 -437 0
-149 -485 0
-149 -533 0
-197 -245 0
-197 -293 0
-197 -341 0
-197 -389 0
-197 -437 0
-197 -485 0
-197 -533 0
-245 -293 0
-245 -341 0
-245 -389 0
-245 -437 0
-245 -485 0
-245 -533 0
-293 -341 0
-293 -389 0
-293 -437 0
-293 -485 0
-293 -533 0
-341 -389 0
-341 -437 0
-341 -485 0
-341 -533 0
-389 -437 0
-389 -485 0
-389 -533 0
-437 -485 0
-437 -533 0
-485 -533 0
-54 -102 0
-54 -150 0
-54 -198 0
-54 -246 0
-54 -294 0
-54 -342 0
-54 -390 0
-54 -438 0
-54 -486 0
-54 -534 0
-102 -150 0
-102 -198 0
-102 -246 0
-102 -294 0
-102 -342 0
-102 -390 0
-102 -438 0
-102 -486 0
-102 -534 0
-150 -198 0
-150 -246 0
-150 -294 0
-150 -342 0
-150 -390 0
-150 -438 0
-150 -486 0
-150 -534 0
-198 -246 0
-198 -294 0
-198 -342 0
-198 -390 0
-198 -438 0
-198 -486 0
-198 -534 0
-246 -294 0
-246 -342 0
-246 -390 0
-246 -438 0
-246 -486 0
-246 -534 0
-294 -342 0
-294 -390 0
-294 -438 0
-294 -486 0
-294 -534 0
-342 -390 0
-342 -438 0
-342 -486 0
-342 -534 0
-390 -438 0
-390 -486 0
-390 -534 0
-438 -486 0
-438 -534 0
-486 -534 0
-55 -103 0
-55 -151 0
-55 -199 0
-55 -247 0
-55 -295 0
-55 -343 0
-55 -391 0
-55 -439 0
-55 -487 0
-55 -535 0
-103 -151 0
-103 -199 0
-103 -247 0
-103 -295 0
-103 -343 0
-103 -391 0
-103 -439 0
-103 -487 0
-103 -535 0
-151 -199 0
-151 -247 0
-151 -295 0
-151 -343 0
-151 -391 0
-151 -439 0
-151 -487 0
-151 -535 0
-199 -247 0
-199 -295 0
-199 -343 0
-199 -391 0
-199 -439 0
-199 -487 0
-199 -535 0
-247 -295 0
-247 -343 0
-247 -391 0
-247 -439 0
-247 -487 0
-247 -535 0
-295 -343 0
-295 -391 0
-295 -439 0
-295 -487 0
-295 -535 0
-343 -391 0
-343 -439 0
-343 -487 0
-343 -535 0
-391 -439 0
-391 -487 0
-391 -535 0
-439 -487 0
-439 -535 0
-487 -535 0
-56 -104 0
-56 -152 0
-56 -200 0
-56 -248 0
-56 -296 0
-56 -344 0
-56 -392 0
-56 -440 0
-56 -488 0
-56 -536 0
-104 -152 0
-104 -200 0
-104 -248 0
-104 -296 0
-104 -344 0
-104 -392 0
-104 -440 0
-104 -488 0
-104 -536 0
-152 -200 0
-152 -248 0
-152 -296 0
-152 -344 0
-152 -392 0
-152 -440 0
-152 -488 0
-152 -536 0
-200 -248 0
-200 -296 0
-200 -344 0
-200 -392 0
-200 -440 0
-200 -488 0
-200 -536 0
-248 -296 0
-248 -344 0
-248 -392 0
-248 -440 0
-248 -488 0
-248 -536 0
-296 -344 0
-296 -392 0
-296 -440 0
-296 -488 0
-296 -536 0
-344 -392 0
-344 -440 0
-344 -488 0
-344 -536 0
-392 -440 0
-392 -488 0
-392 -536 0
-440 -488 0
-440 -536 0
-488 -536 0
-57 -105 0
-57 -153 0
-57 -201 0
-57 -249 0
-57 -297 0
-57 -345 0
-57 -393 0
-57 -441 0
-57 -489 0
-57 -537 0
-105 -153 0
-105 -201 0
-105 -249 0
-105 -297 0
-105 -345 0
-105 -393 0
-105 -441 0
-105 -489 0
-105 -537 0
-153 -201 0
-153 -249 0
-153 -297 0
-153 -345 0
-153 -393 0
-153 -441 0
-153 -489 0
-153 -537 0
-201 -249 0
-201 -297 0
-201 -345 0
-201 -393 0
-201 -441 0
-201 -489 0
-201 -537 0
-249 -297 0
-249 -345 0
-249 -393 0
-249 -441 0
-249 -489 0
-249 -537 0
-297 -345 0
-297 -393 0
-297 -441 0
-297 -489 0
-297 -537 0
-345 -393 0
-345 -441 0
-345 -489 0
-345 -537 0
-393 -441 0
-393 -489 0
-393 -537 0
-441 -489 0
-441 -537 0
-489 -537 0
-58 -106 0
-58 -154 0
-58 -202 0
-58 -250 0
-58 -298 0
-58 -346 0
-58 -394 0
-58 -442 0
-58 -490 0
-58 -538 0
-106 -154 0
-106 -202 0
-106 -250 0
-106 -298 0
-106 -346 0
-106 -394 0
-106 -442 0
-106 -490 0
-106 -538 0
-154 -202 0
-154 -250 0
-154 -298 0
-154 -346 0
-154 -394 0
-154 -442 0
-154 -490 0
-154 -538 0
-202 -250 0
-202 -298 0
-202 -346 0
-202 -394 0
-202 -442 0
-202 -490 0
-202 -538 0
-250 -298 0
-250 -346 0
-250 -394 0
-250 -442 0
-250 -490 0
-250 -538 0
-298 -346 0
-298 -394 0
-298 -442 0
-298 -490 0
-298 -538 0
-346 -394 0
-346 -442 0
-346 -490 0
-346 -538 0
-394 -442 0
-394 -490 0
-394 -538 0
-442 -490 0
-442 -538 0
-490 -538 0
-59 -107 0
-59 -155 0
-59 -203 0
-59 -251 0
-59 -299 0
-59 -347 0
-59 -395 0
-59 -443 0
-59 -491 0
-59 -539 0
-107 -155 0
-107 -203 0
-107 -251 0
-107 -299 0
-107 -347 0
-107 -395 0
-107 -443 0
-107 -491 0
-107 -539 0
-155 -203 0
-155 -251 0
-155 -299 0
-155 -347 0
-155 -395 0
-155 -443 0
-155 -491 0
-155 -539 0
-203 -251 0
-203 -299 0
-203 -347 0
-203 -395 0
-203 -443 0
-203 -491 0
-203 -539 0
-251 -299 0
-251 -347 0
-251 -395 0
-251 -443 0
-251 -491 0
-251 -539 0
-299 -347 0
-299 -395 0
-299 -443 0
-299 -491 0
-299 -539 0
-347 -395 0
-347 -443 0
-347 -491 0
-347 -539 0
-395 -443 0
-395 -491 0
-395 -539 0
-443 -491 0
-443 -539 0
-491 -539 0
-60 -108 0
-60 -156 0
-60 -204 0
-60 -252 0
-60 -300 0
-60 -348 0
-60 -396 0
-60 -444 0
-60 -492 0
-60 -540 0
-108 -156 0
-108 -204 0
-108 -252 0
-108 -300 0
-108 -348 0
-108 -396 0
-108 -444 0
-108 -492 0
-108 -540 0
-156 -204 0
-156 -252 0
-156 -300 0
-156 -348 0
-156 -396 0
-156 -444 0
-156 -492 0
-156 -540 0
-204 -252 0
-204 -300 0
-204 -348 0
-204 -396 0
-204 -444 0
-204 -492 0
-204 -540 0
-252 -300 0
-252 -348 0
-252 -396 0
-252 -444 0
-252 -492 0
-252 -540 0
-300 -348 0
-300 -396 0
-300 -444 0
-300 -492 0
-300 -540 0
-348 -396 0
-348 -444 0
-348 -492 0
-348 -540 0
-396 -444 0
-396 -492 0
-396 -540 0
-444 -492 0
-444 -540 0
-492 -540 0
-61 -109 0
-61 -157 0
-61 -205 0
-61 -253 0
-61 -301 0
-61 -349 0
-61 -397 0
-61 -445 0
-61 -493 0
-61 -541 0
-109 -157 0
-109 -205 0
-109 -253 0
-109 -301 0
-109 -349 0
-109 -397 0
-109 -445 0
-109 -493 0
-109 -541 0
-157 -205 0
-157 -253 0
-157 -301 0
-157 -349 0
-157 -397 0
-157 -445 0
-157 -493 0
-157 -541 0
-205 -253 0
-205 -301 0
-205 -349 0
-205 -397 0
-205 -445 0
-205 -493 0
-205 -541 0
-253 -301 0
-253 -349 0
-253 -397 0
-253 -445 0
-253 -493 0
-253 -541 0
-301 -349 0
-301 -397 0
-301 -445 0
-301 -493 0
-301 -541 0
-349 -397 0
-349 -445 0
-349 -493 0
-349 -541 0
-397 -445 0
-397 -493 0
-397 -541 0
-445 -493 0
-445 -541 0
-493 -541 0
-62 -110 0
-62 -158 0
-62 -206 0
-62 -254 0
-62 -302 0
-62 -350 0
-62 -398 0
-62 -446 0
-62 -494 0
-62 -542 0
-110 -158 0
-110 -206 0
-110 -254 0
-110 -302 0
-110 -350 0
-110 -398 0
-110 -446 0
-110 -494 0
-110 -542 0
-158 -206 0
-158 -254 0
-158 -302 0
-158 -350 0
-158 -398 0
-158 -446 0
-158 -494 0
-158 -542 0
-206 -254 0
-206 -302 0
-206 -350 0
-206 -398 0
-206 -446 0
-206 -494 0
-206 -542 0
-254 -302 0
-254 -350 0
-254 -398 0
-254 -446 0
-254 -494 0
-254 -542 0
-302 -350 0
-302 -398 0
-302 -446 0
-302 -494 0
-302 -542 0
-350 -398 0
-350 -446 0
-350 -494 0
-350 -542 0
-398 -446 0
-398 -494 0
-398 -542 0
-446 -494 0
-446 -542 0
-494 -542 0
-63 -111 0
-63 -159 0
-63 -207 0
-63 -255 0
-63 -303 0
-63 -351 0
-63 -399 0
-63 -447 0
-63 -495 0
-63 -543 0
-111 -159 0
-111 -207 0
-111 -255 0
-111 -303 0
-111 -351 0
-111 -399 0
-111 -447 0
-111 -495 0
-111 -543 0
-159 -207 0
-159 -255 0
-159 -303 0
-159 -351 0
-159 -399 0
-159 -447 0
-159 -495 0
-159 -543 0
-207 -255 0
-207 -303 0
-207 -351 0
-207 -399 0
-207 -447 0
-207 -495 0
-207 -543 0
-255 -303 0
-255 -351 0
-255 -399 0
-255 -447 0
-255 -495 0
-255 -543 0
-303 -351 0
-303 -399 0
-303 -447 0
-303 -495 0
-303 -543 0
-351 -399 0
-351 -447 0
-351 -495 0
-351 -543 0
-399 -447 0
-399 -495 0
-399 -543 0
-447 -495 0
-447 -543 0
-495 -543 0
-64 -112 0
-64 -160 0
-64 -208 0
-64 -256 0
-64 -304 0
-64 -352 0
-64 -400 0
-64 -448 0
-64 -496 0
-64 -544 0
-112 -160 0
-112 -208 0
-112 -256 0
-112 -304 0
-112 -352 0
-112 -400 0
-112 -448 0
-112 -496 0
-112 -544 0
-160 -208 0
-160 -256 0
-160 -304 0
-160 -352 0
-160 -400 0
-160 -448 0
-160 -496 0
-160 -544 0
-208 -256 0
-208 -304 0
-208 -352 0
-208 -400 0
-208 -448 0
-208 -496 0
-208 -544 0
-256 -304 0
-256 -352 0
-256 -400 0
-256 -448 0
-256 -496 0
-256 -544 0
-304 -352 0
-304 -400 0
-304 -448 0
-304 -496 0
-304 -544 0
-352 -400 0
-352 -448 0
-352 -496 0
-352 -544 0
-400 -448 0
-400 -496 0
-400 -544 0
-448 -496 0
-448 -544 0
-496 -544 0
698 699 700 701 702 703 0
-698 -699 0
-698 -700 0
-698 -701 0
-698 -702 0
-698 -703 0
-699 -700 0
-699 -701 0
-699 -702 0
-699 -703 0
-700 -701 0
-700 -702 0
-700 -703 0
-701 -702 0
-701 -703 0
-702 -703 0
-49 698 0
-50 698 699 0
-51 698 699 700 0
-52 698 699 700 701 0
-53 698 699 700 701 702 0
-54 698 699 700 701 702 703 0
-55 698 699 700 701 702 703 0
-56 698 699 700 701 702 703 0
-57 698 699 700 701 702 703 0
-58 698 699 700 701 702 703 0
-59 698 699 700 701 702 703 0
-60 699 700 701 702 703 0
-61 700 701 702 703 0
-62 701 702 703 0
-63 702 703 0
-64 703 0
-97 698 0
-98 698 699 0
-99 698 699 700 0
-100 698 699 700 701 0
-101 698 699 700 701 702 0
-102 698 699 700 701 702 703 0
-103 698 699 700 701 702 703 0
-104 698 699 700 701 702 703 0
-105 698 699 700 701 702 703 0
-106 698 699 700 701 702 703 0
-107 698 699 700 701 702 703 0
-108 699 700 701 702 703 0
-109 700 701 702 703 0
-110 701 702 703 0
-111 702 703 0
-112 703 0
-145 698 0
-146 698 699 0
-147 698 699 700 0
-148 698 699 700 701 0
-149 698 699 700 701 702 0
-150 698 699 700 701 702 703 0
-151 698 699 700 701 702 703 0
-152 698 699 700 701 702 703 0
-153 698 699 700 701 702 703 0
-154 698 699 700 701 702 703 0
-155 698 699 700 701 702 703 0
-156 699 700 701 702 703 0
-157 700 701 702 703 0
-158 701 702 703 0
-159 702 703 0
-160 703 0
-193 698 0
-194 698 699 0
-195 698 699 700 0
-196 698 699 700 701 0
-197 698 699 700 701 702 0
-198 698 699 700 701 702 703 0
-199 698 699 700 701 702 703 0
-200 698 699 700 701 702 703 0
-201 698 699 700 701 702 703 0
-202 698 699 700 701 702 703 0
-203 698 699 700 701 702 703 0
-204 699 700 701 702 703 0
-205 700 701 702 703 0
-206 701 702 703 0
-207 702 703 0
-208 703 0
-241 698 0
-242 698 699 0
-243 698 699 700 0
-244 698 699 700 701 0
-245 698 699 700 701 702 0
-246 698 699 700 701 702 703 0
-247 698 699 700 701 702 703 0
-248 698 699 700 701 702 703 0
-249 698 699 700 701 702 703 0
-250 698 699 700 701 702 703 0
-251 698 699 700 701 702 703 0
-252 699 700 701 702 703 0
-253 700 701 702 703 0
-254 701 702 703 0
-255 702 703 0
-256 703 0
-289 698 0
-290 698 699 0
-291 698 699 700 0
-292 698 699 700 701 0
-293 698 699 700 701 702 0
-294 698 699 700 701 702 703 0
-295 698 699 700 701 702 703 0
-296 698 699 700 701 702 703 0
-297 698 699 700 701 702 703 0
-298 698 699 700 701 702 703 0
-299 698 699 700 701 702 703 0
-300 699 700 701 702 703 0
-301 700 701 702 703 0
-302 701 702 703 0
-303 702 703 0
-304 703 0
-337 698 0
-338 698 699 0
-339 698 699 700 0
-340 698 699 700 701 0
-341 698 699 700 701 702 0
-342 698 699 700 701 702 703 0
-343 698 699 700 701 702 703 0
-344 698 699 700 701 702 703 0
-345 698 699 700 701 702 703 0
-346 698 699 700 701 702 703 0
-347 698 699 700 701 702 703 0
-348 699 700 701 702 703 0
-349 700 701 702 703 0
-350 701 702 703 0
-351 702 703 0
-352 703 0
-385 698 0
-386 698 699 0
-387 698 699 700 0
-388 698 699 700 701 0
-389 698 699 700 701 702 0
-390 698 699 700 701 702 703 0
-391 698 699 700 701 702 703 0
-392 698 699 700 701 702 703 0
-393 698 699 700 701 702 703 0
-394 698 699 700 701 702 703 0
-395 698 699 700 701 702 703 0
-396 699 700 701 702 703 0
-397 700 701 702 703 0
-398 701 702 703 0
-399 702 703 0
-400 703 0
-433 698 0
-434 698 699 0
-435 698 699 700 0
-436 698 699 700 701 0
-437 698 699 700 701 702 0
-438 698 699 700 701 702 703 0
-439 698 699 700 701 702 703 0
-440 698 699 700 701 702 703 0
-441 698 699 700 701 702 703 0
-442 698 699 700 701 702 703 0
-443 698 699 700 701 702 703 0
-444 699 700 701 702 703 0
-445 700 701 702 703 0
-446 701 702 703 0
-447 702 703 0
-448 703 0
-481 698 0
-482 698 699 0
-483 698 699 700 0
-484 698 699 700 701 0
-485 698 699 700 701 702 0
-486 698 699 700 701 702 703 0
-487 698 699 700 701 702 703 0
-488 698 699 700 701 702 703 0
-489 698 699 700 701 702 703 0
-490 698 699 700 701 702 703 0
-491 698 699 700 701 702 703 0
-492 699 700 701 702 703 0
-493 700 701 702 703 0
-494 701 702 703 0
-495 702 703 0
-496 703 0
-529 698 0
-530 698 699 0
-531 698 699 700 0
-532 698 699 700 701 0
-533 698 699 700 701 702 0
-534 698 699 700 701 702 703 0
-535 698 699 700 701 702 703 0
-536 698 699 700 701 702 703 0
-537 698 699 700 701 702 703 0
-538 698 699 700 701 702 703 0
-539 698 699 700 701 702 703 0
-540 699 700 701 702 703 0
-541 700 701 702 703 0
-542 701 702 703 0
-543 702 703 0
-544 703 0
-698 -60 0
-698 -61 0
-698 -62 0
-698 -63 0
-698 -64 0
-698 -108 0
-698 -109 0
-698 -110 0
-698 -111 0
-698 -112 0
-698 -156 0
-698 -157 0
-698 -158 0
-698 -159 0
-698 -160 0
-698 -204 0
-698 -205 0
-698 -206 0
-698 -207 0
-698 -208 0
-698 -252 0
-698 -253 0
-698 -254 0
-698 -255 0
-698 -256 0
-698 -300 0
-698 -301 0
-698 -302 0
-698 -303 0
-698 -304 0
-698 -348 0
-698 -349 0
-698 -350 0
-698 -351 0
-698 -352 0
-698 -396 0
-698 -397 0
-698 -398 0
-698 -399 0
-698 -400 0
-698 -444 0
-698 -445 0
-698 -446 0
-698 -447 0
-698 -448 0
-698 -492 0
-698 -493 0
-698 -494 0
-698 -495 0
-698 -496 0
-698 -540 0
-698 -541 0
-698 -542 0
-698 -543 0
-698 -544 0
-699 -49 0
-699 -61 0
-699 -62 0
-699 -63 0
-699 -64 0
-699 -97 0
-699 -109 0
-699 -110 0
-699 -111 0
-699 -112 0
-699 -145 0
-699 -157 0
-699 -158 0
-699 -159 0
-699 -160 0
-699 -193 0
-699 -205 0
-699 -206 0
-699 -207 0
-699 -208 0
-699 -241 0
-699 -253 0
-699 -254 0
-699 -255 0
-699 -256 0
-699 -289 0
-699 -301 0
-699 -302 0
-699 -303 0
-699 -304 0
-699 -337 0
-699 -349 0
-699 -350 0
-699 -351 0
-699 -352 0
-699 -385 0
-699 -397 0
-699 -398 0
-699 -399 0
-699 -400 0
-699 -433 0
-699 -445 0
-699 -446 0
-699 -447 0
-699 -448 0
-699 -481 0
-699 -493 0
-699 -494 0
-699 -495 0
-699 -496 0
-699 -529 0
-699 -541 0
-699 -542 0
-699 -543 0
-699 -544 0
-700 -49 0
-700 -50 0
-700 -62 0
-700 -63 0
-700 -64 0
-700 -97 0
-700 -98 0
-700 -110 0
-700 -111 0
-700 -112 0
-700 -145 0
-700 -146 0
-700 -158 0
-700 -159 0
-700 -160 0
-700 -193 0
-700 -194 0
-700 -206 0
-700 -207 0
-700 -208 0
-700 -241 0
-700 -242 0
-700 -254 0
-700 -255 0
-700 -256 0
-700 -289 0
-700 -290 0
-700 -302 0
-700 -303 0
-700 -304 0
-700 -337 0
-700 -338 0
-700 -350 0
-700 -351 0
-700 -352 0
-700 -385 0
-700 -386 0
-700 -398 0
-700 -399 0
-700 -400 0
-700 -433 0
-700 -434 0
-700 -446 0
-700 -447 0
-700 -448 0
-700 -481 0
-700 -482 0
-700 -494 0
-700 -495 0
-700 -496 0
-700 -529 0
-700 -530 0
-700 -542 0
-700 -543 0
-700 -544 0
-701 -49 0
-701 -50 0
-701 -51 0
-701 -63 0
-701 -64 0
-701 -97 0
-701 -98 0
-701 -99 0
-701 -111 0
-701 -112 0
-701 -145 0
-701 -146 0
-701 -147 0
-701 -159 0
-701 -160 0
-701 -193 0
-701 -194 0
-701 -195 0
-701 -207 0
-701 -208 0
-701 -241 0
-701 -242 0
-701 -243 0
-701 -255 0
-701 -256 0
-701 -289 0
-701 -290 0
-701 -291 0
-701 -303 0
-701 -304 0
-701 -337 0
-701 -338 0
-701 -339 0
-701 -351 0
-701 -352 0
-701 -385 0
-701 -386 0
-701 -387 0
-701 -399 0
-701 -400 0
-701 -433 0
-701 -434 0
-701 -435 0
-701 -447 0
-701 -448 0
-701 -481 0
-701 -482 0
-701 -483 0
-701 -495 0
-701 -496 0
-701 -529 0
-701 -530 0
-701 -531 0
-701 -543 0
-701 -544 0
-702 -49 0
-702 -50 0
-702 -51 0
-702 -52 0
-702 -64 0
-702 -97 0
-702 -98 0
-702 -99 0
-702 -100 0
-702 -112 0
-702 -145 0
-702 -146 0
-702 -147 0
-702 -148 0
-702 -160 0
-702 -193 0
-702 -194 0
-702 -195 0
-702 -196 0
-702 -208 0
-702 -241 0
-702 -242 0
-702 -243 0
-702 -244 0
-702 -256 0
-702 -289 0
-702 -290 0
-702 -291 0
-702 -292 0
-702 -304 0
-702 -337 0
-702 -338 0
-702 -339 0
-702 -340 0
-702 -352 0
-702 -385 0
-702 -386 0
-702 -387 0
-702 -388 0
-702 -400 0
-702 -433 0
-702 -434 0
-702 -435 0
-702 -436 0
-702 -448 0
-702 -481 0
-702 -482 0
-702 -483 0
-702 -484 0
-702 -496 0
-702 -529 0
-702 -530 0
-702 -531 0
-702 -532 0
-702 -544 0
-703 -49 0
-703 -50 0
-703 -51 0
-703 -52 0
-703 -53 0
-703 -97 0
-703 -98 0
-703 -99 0
-703 -100 0
-703 -101 0
-703 -145 0
-703 -146 0
-703 -147 0
-703 -148 0
-703 -149 0
-703 -193 0
-703 -194 0
-703 -195 0
-703 -196 0
-703 -197 0
-703 -241 0
-703 -242 0
-703 -243 0
-703 -244 0
-703 -245 0
-703 -289 0
-703 -290 0
-703 -291 0
-703 -292 0
-703 -293 0
-703 -337 0
-703 -338 0
-703 -339 0
-703 -340 0
-703 -341 0
-703 -385 0
-703 -386 0
-703 -387 0
-703 -388 0
-703 -389 0
-703 -433 0
-703 -434 0
-703 -435 0
-703 -436 0
-703 -437 0
-703 -481 0
-703 -482 0
-703 -483 0
-703 -484 0
-703 -485 0
-703 -529 0
-703 -530 0
-703 -531 0
-703 -532 0
-703 -533 0
-1 -161 0
-1 -209 0
-161 -209 0
-2 -162 0
-2 -210 0
-162 -210 0
-3 -163 0
-3 -211 0
-163 -211 0
-4 -164 0
-4 -212 0
-164 -212 0
-5 -165 0
-5 -213 0
-165 -213 0
-6 -166 0
-6 -214 0
-166 -214 0
-7 -167 0
-7 -215 0
-167 -215 0
-8 -168 0
-8 -216 0
-168 -216 0
-9 -169 0
-9 -217 0
-169 -217 0
-10 -170 0
-10 -218 0
-170 -218 0
-11 -171 0
-11 -219 0
-171 -219 0
-12 -172 0
-12 -220 0
-172 -220 0
-13 -173 0
-13 -221 0
-173 -221 0
-14 -174 0
-14 -222 0
-174 -222 0
-15 -175 0
-15 -223 0
-175 -223 0
-16 -176 0
-16 -224 0
-176 -224 0
704 705 706 707 708 709 710 711 712 713 714 715 716 717 0
-704 -705 0
-704 -706 0
-704 -707 0
-704 -708 0
-704 -709 0
-704 -710 0
-704 -711 0
-704 -712 0
-704 -713 0
-704 -714 0
-704 -715 0
-704 -716 0
-704 -717 0
-705 -706 0
-705 -707 0
-705 -708 0
-705 -709 0
-705 -710 0
-705 -711 0
-705 -712 0
-705 -713 0
-705 -714 0
-705 -715 0
-705 -716 0
-705 -717 0
-706 -707 0
-706 -708 0
-706 -709 0
-706 -710 0
-706 -711 0
-706 -712 0
-706 -713 0
-706 -714 0
-706 -715 0
-706 -716 0
-706 -717 0
-707 -708 0
-707 -709 0
-707 -710 0
-707 -711 0
-707 -712 0
-707 -713 0
-707 -714 0
-707 -715 0
-707 -716 0
-707 -717 0
-708 -709 0
-708 -710 0
-708 -711 0
-708 -712 0
-708 -713 0
-708 -714 0
-708 -715 0
-708 -716 0
-708 -717 0
-709 -710 0
-709 -711 0
-709 -712 0
-709 -713 0
-709 -714 0
-709 -715 0
-709 -716 0
-709 -717 0
-710 -711 0
-710 -712 0
-710 -713 0
-710 -714 0
-710 -715 0
-710 -716 0
-710 -717 0
-711 -712 0
-711 -713 0
-711 -714 0
-711 -715 0
-711 -716 0
-711 -717 0
-712 -713 0
-712 -714 0
-712 -715 0
-712 -716 0
-712 -717 0
-713 -714 0
-713 -715 0
-713 -716 0
-713 -717 0
-714 -715 0
-714 -716 0
-714 -717 0
-715 -716 0
-715 -717 0
-716 -717 0
-1 704 0
-2 704 705 0
-3 704 705 706 0
-4 705 706 707 0
-5 706 707 708 0
-6 707 708 709 0
-7 708 709 710 0
-8 709 710 711 0
-9 710 711 712 0
-10 711 712 713 0
-11 712 713 714 0
-12 713 714 715 0
-13 714 715 716 0
-14 715 716 717 0
-15 716 717 0
-16 717 0
-161 704 0
-162 704 705 0
-163 704 705 706 0
-164 705 706 707 0
-165 706 707 708 0
-166 707 708 709 0
-167 708 709 710 0
-168 709 710 711 0
-169 710 711 712 0
-170 711 712 713 0
-171 712 713 714 0
-172 713 714 715 0
-173 714 715 716 0
-174 715 716 717 0
-175 716 717 0
-176 717 0
-209 704 0
-210 704 705 0
-211 704 705 706 0
-212 705 706 707 0
-213 706 707 708 0
-214 707 708 709 0
-215 708 709 710 0
-216 709 710 711 0
-217 710 711 712 0
-218 711 712 713 0
-219 712 713 714 0
-220 713 714 715 0
-221 714 715 716 0
-222 715 716 717 0
-223 716 717 0
-224 717 0
-704 -4 0
-704 -5 0
-704 -6 0
-704 -7 0
-704 -8 0
-704 -9 0
-704 -10 0
-704 -11 0
-704 -12 0
-704 -13 0
-704 -14 0
-704 -15 0
-704 -16 0
-704 -164 0
-704 -165 0
-704 -166 0
-704 -167 0
-704 -168 0
-704 -169 0
-704 -170 0
-704 -171 0
-704 -172 0
-704 -173 0
-704 -174 0
-704 -175 0
-704 -176 0
-704 -212 0
-704 -213 0
-704 -214 0
-704 -215 0
-704 -216 0
-704 -217 0
-704 -218 0
-704 -219 0
-704 -220 0
-704 -221 0
-704 -222 0
-704 -223 0
-704 -224 0
-705 -1 0
-705 -5 0
-705 -6 0
-705 -7 0
-705 -8 0
-705 -9 0
-705 -10 0
-705 -11 0
-705 -12 0
-705 -13 0
-705 -14 0
-705 -15 0
-705 -16 0
-705 -161 0
-705 -165 0
-705 -166 0
-705 -167 0
-705 -168 0
-705 -169 0
-705 -170 0
-705 -171 0
-705 -172 0
-705 -173 0
-705 -174 0
-705 -175 0
-705 -176 0
-705 -209 0
-705 -213 0
-705 -214 0
-705 -215 0
-705 -216 0
-705 -217 0
-705 -218 0
-705 -219 0
-705 -220 0
-705 -221 0
-705 -222 0
-705 -223 0
-705 -224 0
-706 -1 0
-706 -2 0
-706 -6 0
-706 -7 0
-706 -8 0
-706 -9 0
-706 -10 0
-706 -11 0
-706 -12 0
-706 -13 0
-706 -14 0
-706 -15 0
-706 -16 0
-706 -161 0
-706 -162 0
-706 -166 0
-706 -167 0
-706 -168 0
-706 -169 0
-706 -170 0
-706 -171 0
-706 -172 0
-706 -173 0
-706 -174 0
-706 -175 0
-706 -176 0
-706 -209 0
-706 -210 0
-706 -214 0
-706 -215 0
-706 -216 0
-706 -217 0
-706 -218 0
-706 -219 0
-706 -220 0
-706 -221 0
-706 -222 0
-706 -223 0
-706 -224 0
-707 -1 0
-707 -2 0
-707 -3 0
-707 -7 0
-707 -8 0
-707 -9 0
-707 -10 0
-707 -11 0
-707 -12 0
-707 -13 0
-707 -14 0
-707 -15 0
-707 -16 0
-707 -161 0
-707 -162 0
-707 -163 0
-707 -167 0
-707 -168 0
-707 -169 0
-707 -170 0
-707 -171 0
-707 -172 0
-707 -173 0
-707 -174 0
-707 -175 0
-707 -176 0
-707 -209 0
-707 -210 0
-707 -211 0
-707 -215 0
-707 -216 0
-707 -217 0
-707 -218 0
-707 -219 0
-707 -220 0
-707 -221 0
-707 -222 0
-707 -223 0
-707 -224 0
-708 -1 0
-708 -2 0
-708 -3 0
-708 -4 0
-708 -8 0
-708 -9 0
-708 -10 0
-708 -11 0
-708 -12 0
-708 -13 0
-708 -14 0
-708 -15 0
-708 -16 0
-708 -161 0
-708 -162 0
-708 -163 0
-708 -164 0
-708 -168 0
-708 -169 0
-708 -170 0
-708 -171 0
-708 -172 0
-708 -173 0
-708 -174 0
-708 -175 0
-708 -176 0
-708 -209 0
-708 -210 0
-708 -211 0
-708 -212 0
-708 -216 0
-708 -217 0
-708 -218 0
-708 -219 0
-708 -220 0
-708 -221 0
-708 -222 0
-708 -223 0
-708 -224 0
-709 -1 0
-709 -2 0
-709 -3 0
-709 -4 0
-709 -5 0
-709 -9 0
-709 -10 0
-709 -11 0
-709 -12 0
-709 -13 0
-709 -14 0
-709 -15 0
-709 -16 0
-709 -161 0
-709 -162 0
-709 -163 0
-709 -164 0
-709 -165 0
-709 -169 0
-709 -170 0
-709 -171 0
-709 -172 0
-709 -173 0
-709 -174 0
-709 -175 0
-709 -176 0
-709 -209 0
-709 -210 0
-709 -211 0
-709 -212 0
-709 -213 0
-709 -217 0
-709 -218 0
-709 -219 0
-709 -220 0
-709 -221 0
-709 -222 0
-709 -223 0
-709 -224 0
-710 -1 0
-710 -2 0
-710 -3 0
-710 -4 0
-710 -5 0
-710 -6 0
-710 -10 0
-710 -11 0
-710 -12 0
-710 -13 0
-710 -14 0
-710 -15 0
-710 -16 0
-710 -161 0
-710 -162 0
-710 -163 0
-710 -164 0
-710 -165 0
-710 -166 0
-710 -170 0
-710 -171 0
-710 -172 0
-710 -173 0
-710 -174 0
-710 -175 0
-710 -176 0
-710 -209 0
-710 -210 0
-710 -211 0
-710 -212 0
-710 -213 0
-710 -214 0
-710 -218 0
-710 -219 0
-710 -220 0
-710 -221 0
-710 -222 0
-710 -223 0
-710 -224 0
-711 -1 0
-711 -2 0
-711 -3 0
-711 -4 0
-711 -5 0
-711 -6 0
-711 -7 0
-711 -11 0
-711 -12 0
-711 -13 0
-711 -14 0
-711 -15 0
-711 -16 0
-711 -161 0
-711 -162 0
-711 -163 0
-711 -164 0
-711 -165 0
-711 -166 0
-711 -167 0
-711 -171 0
-711 -172 0
-711 -173 0
-711 -174 0
-711 -175 0
-711 -176 0
-711 -209 0
-711 -210 0
-711 -211 0
-711 -212 0
-711 -213 0
-711 -214 0
-711 -215 0
-711 -219 0
-711 -220 0
-711 -221 0
-711 -222 0
-711 -223 0
-711 -224 0
-712 -1 0
-712 -2 0
-712 -3 0
-712 -4 0
-712 -5 0
-712 -6 0
-712 -7 0
-712 -8 0
-712 -12 0
-712 -13 0
-712 -14 0
-712 -15 0
-712 -16 0
-712 -161 0
-712 -162 0
-712 -163 0
-712 -164 0
-712 -165 0
-712 -166 0
-712 -167 0
-712 -168 0
-712 -172 0
-712 -173 0
-712 -174 0
-712 -175 0
-712 -176 0
-712 -209 0
-712 -210 0
-712 -211 0
-712 -212 0
-712 -213 0
-712 -214 0
-712 -215 0
-712 -216 0
-712 -220 0
-712 -221 0
-712 -222 0
-712 -223 0
-712 -224 0
-713 -1 0
-713 -2 0
-713 -3 0
-713 -4 0
-713 -5 0
-713 -6 0
-713 -7 0
-713 -8 0
-713 -9 0
-713 -13 0
-713 -14 0
-713 -15 0
-713 -16 0
-713 -161 0
-713 -162 0
-713 -163 0
-713 -164 0
-713 -165 0
-713 -166 0
-713 -167 0
-713 -168 0
-713 -169 0
-713 -173 0
-713 -174 0
-713 -175 0
-713 -176 0
-713 -209 0
-713 -210 0
-713 -211 0
-713 -212 0
-713 -213 0
-713 -214 0
-713 -215 0
-713 -216 0
-713 -217 0
-713 -221 0
-713 -222 0
-713 -223 0
-713 -224 0
-714 -1 0
-714 -2 0
-714 -3 0
-714 -4 0
-714 -5 0
-714 -6 0
-714 -7 0
-714 -8 0
-714 -9 0
-714 -10 0
-714 -14 0
-714 -15 0
-714 -16 0
-714 -161 0
-714 -162 0
-714 -163 0
-714 -164 0
-714 -165 0
-714 -166 0
-714 -167 0
-714 -168 0
-714 -169 0
-714 -170 0
-714 -174 0
-714 -175 0
-714 -176 0
-714 -209 0
-714 -210 0
-714 -211 0
-714 -212 0
-714 -213 0
-714 -214 0
-714 -215 0
-714 -216 0
-714 -217 0
-714 -218 0
-714 -222 0
-714 -223 0
-714 -224 0
-715 -1 0
-715 -2 0
-715 -3 0
-715 -4 0
-715 -5 0
-715 -6 0
-715 -7 0
-715 -8 0
-715 -9 0
-715 -10 0
-715 -11 0
-715 -15 0
-715 -16 0
-715 -161 0
-715 -162 0
-715 -163 0
-715 -164 0
-715 -165 0
-715 -166 0
-715 -167 0
-715 -168 0
-715 -169 0
-715 -170 0
-715 -171 0
-715 -175 0
-715 -176 0
-715 -209 0
-715 -210 0
-715 -211 0
-715 -212 0
-715 -213 0
-715 -214 0
-715 -215 0
-715 -216 0
-715 -217 0
-715 -218 0
-715 -219 0
-715 -223 0
-715 -224 0
-716 -1 0
-716 -2 0
-716 -3 0
-716 -4 0
-716 -5 0
-716 -6 0
-716 -7 0
-716 -8 0
-716 -9 0
-716 -10 0
-716 -11 0
-716 -12 0
-716 -16 0
-716 -161 0
-716 -162 0
-716 -163 0
-716 -164 0
-716 -165 0
-716 -166 0
-716 -167 0
-716 -168 0
-716 -169 0
-716 -170 0
-716 -171 0
-716 -172 0
-716 -176 0
-716 -209 0
-716 -210 0
-716 -211 0
-716 -212 0
-716 -213 0
-716 -214 0
-716 -215 0
-716 -216 0
-716 -217 0
-716 -218 0
-716 -219 0
-716 -220 0
-716 -224 0
-717 -1 0
-717 -2 0
-717 -3 0
-717 -4 0
-717 -5 0
-717 -6 0
-717 -7 0
-717 -8 0
-717 -9 0
-717 -10 0
-717 -11 0
-717 -12 0
-717 -13 0
-717 -161 0
-717 -162 0
-717 -163 0
-717 -164 0
-717 -165 0
-717 -166 0
-717 -167 0
-717 -168 0
-717 -169 0
-717 -170 0
-717 -171 0
-717 -172 0
-717 -173 0
-717 -209 0
-717 -210 0
-717 -211 0
-717 -212 0
-717 -213 0
-717 -214 0
-717 -215 0
-717 -216 0
-717 -217 0
-717 -218 0
-717 -219 0
-717 -220 0
-717 -221 0
-257 -305 0
-257 -353 0
-257 -401 0
-305 -353 0
-305 -401 0
-353 -401 0
-258 -306 0
-258 -354 0
-258 -402 0
-306 -354 0
-306 -402 0
-354 -402 0
-259 -307 0
-259 -355 0
-259 -403 0
-307 -355 0
-307 -403 0
-355 -403 0
-260 -308 0
-260 -356 0
-260 -404 0
-308 -356 0
-308 -404 0
-356 -404 0
-261 -309 0
-261 -357 0
-261 -405 0
-309 -357 0
-309 -405 0
-357 -405 0
-262 -310 0
-262 -358 0
-262 -406 0
-310 -358 0
-310 -406 0
-358 -406 0
-263 -311 0
-263 -359 0
-263 -407 0
-311 -359 0
-311 -407 0
-359 -407 0
-264 -312 0
-264 -360 0
-264 -408 0
-312 -360 0
-312 -408 0
-360 -408 0
-265 -313 0
-265 -361 0
-265 -409 0
-313 -361 0
-313 -409 0
-361 -409 0
-266 -314 0
-266 -362 0
-266 -410 0
-314 -362 0
-314 -410 0
-362 -410 0
-267 -315 0
-267 -363 0
-267 -411 0
-315 -363 0
-315 -411 0
-363 -411 0
-268 -316 0
-268 -364 0
-268 -412 0
-316 -364 0
-316 -412 0
-364 -412 0
-269 -317 0
-269 -365 0
-269 -413 0
-317 -365 0
-317 -413 0
-365 -413 0
-270 -318 0
-270 -366 0
-270 -414 0
-318 -366 0
-318 -414 0
-366 -414 0
-271 -319 0
-271 -367 0
-271 -415 0
-319 -367 0
-319 -415 0
-367 -415 0
-272 -320 0
-272 -368 0
-272 -416 0
-320 -368 0
-320 -416 0
-368 -416 0
718 719 720 721 722 723 724 725 726 727 728 729 730 0
-718 -719 0
-718 -720 0
-718 -721 0
-718 -722 0
-718 -723 0
-718 -724 0
-718 -725 0
-718 -726 0
-718 -727 0
-718 -728 0
-718 -729 0
-718 -730 0
-719 -720 0
-719 -721 0
-719 -722 0
-719 -723 0
-719 -724 0
-719 -725 0
-719 -726 0
-719 -727 0
-719 -728 0
-719 -729 0
-719 -730 0
-720 -721 0
-720 -722 0
-720 -723 0
-720 -724 0
-720 -725 0
-720 -726 0
-720 -727 0
-720 -728 0
-720 -729 0
-720 -730 0
-721 -722 0
-721 -723 0
-721 -724 0
-721 -725 0
-721 -726 0
-721 -727 0
-721 -728 0
-721 -729 0
-721 -730 0
-722 -723 0
-722 -724 0
-722 -725 0
-722 -726 0
-722 -727 0
-722 -728 0
-722 -729 0
-722 -730 0
-723 -724 0
-723 -725 0
-723 -726 0
-723 -727 0
-723 -728 0
-723 -729 0
-723 -730 0
-724 -725 0
-724 -726 0
-724 -727 0
-724 -728 0
-724 -729 0
-724 -730 0
-725 -726 0
-725 -727 0
-725 -728 0
-725 -729 0
-725 -730 0
-726 -727 0
-726 -728 0
-726 -729 0
-726 -730 0
-727 -728 0
-727 -729 0
-727 -730 0
-728 -729 0
-728 -730 0
-729 -730 0
-257 718 0
-258 718 719 0
-259 718 719 720 0
-260 718 719 720 721 0
-261 719 720 721 722 0
-262 720 721 722 723 0
-263 721 722 723 724 0
-264 722 723 724 725 0
-265 723 724 725 726 0
-266 724 725 726 727 0
-267 725 726 727 728 0
-268 726 727 728 729 0
-269 727 728 729 730 0
-270 728 729 730 0
-271 729 730 0
-272 730 0
-305 718 0
-306 718 719 0
-307 718 719 720 0
-308 718 719 720 721 0
-309 719 720 721 722 0
-310 720 721 722 723 0
-311 721 722 723 724 0
-312 722 723 724 725 0
-313 723 724 725 726 0
-314 724 725 726 727 0
-315 725 726 727 728 0
-316 726 727 728 729 0
-317 727 728 729 730 0
-318 728 729 730 0
-319 729 730 0
-320 730 0
-353 718 0
-354 718 719 0
-355 718 719 720 0
-356 718 719 720 721 0
-357 719 720 721 722 0
-358 720 721 722 723 0
-359 721 722 723 724 0
-360 722 723 724 725 0
-361 723 724 725 726 0
-362 724 725 726 727 0
-363 725 726 727 728 0
-364 726 727 728 729 0
-365 727 728 729 730 0
-366 728 729 730 0
-367 729 730 0
-368 730 0
-401 718 0
-402 718 719 0
-403 718 719 720 0
-404 718 719 720 721 0
-405 719 720 721 722 0
-406 720 721 722 723 0
-407 721 722 723 724 0
-408 722 723 724 725 0
-409 723 724 725 726 0
-410 724 725 726 727 0
-411 725 726 727 728 0
-412 726 727 728 729 0
-413 727 728 729 730 0
-414 728 729 730 0
-415 729 730 0
-416 730 0
-718 -261 0
-718 -262 0
-718 -263 0
-718 -264 0
-718 -265 0
-718 -266 0
-718 -267 0
-718 -268 0
-718 -269 0
-718 -270 0
-718 -271 0
-718 -272 0
-718 -309 0
-718 -310 0
-718 -311 0
-718 -312 0
-718 -313 0
-718 -314 0
-718 -315 0
-718 -316 0
-718 -317 0
-718 -318 0
-718 -319 0
-718 -320 0
-718 -357 0
-718 -358 0
-718 -359 0
-718 -360 0
-718 -361 0
-718 -362 0
-718 -363 0
-718 -364 0
-718 -365 0
-718 -366 0
-718 -367 0
-718 -368 0
-718 -405 0
-718 -406 0
-718 -407 0
-718 -408 0
-718 -409 0
-718 -410 0
-718 -411 0
-718 -412 0
-718 -413 0
-718 -414 0
-718 -415 0
-718 -416 0
-719 -257 0
-719 -262 0
-719 -263 0
-719 -264 0
-719 -265 0
-719 -266 0
-719 -267 0
-719 -268 0
-719 -269 0
-719 -270 0
-719 -271 0
-719 -272 0
-719 -305 0
-719 -310 0
-719 -311 0
-719 -312 0
-719 -313 0
-719 -314 0
-719 -315 0
-719 -316 0
-719 -317 0
-719 -318 0
-719 -319 0
-719 -320 0
-719 -353 0
-719 -358 0
-719 -359 0
-719 -360 0
-719 -361 0
-719 -362 0
-719 -363 0
-719 -364 0
-719 -365 0
-719 -366 0
-719 -367 0
-719 -368 0
-719 -401 0
-719 -406 0
-719 -407 0
-719 -408 0
-719 -409 0
-719 -410 0
-719 -411 0
-719 -412 0
-719 -413 0
-719 -414 0
-719 -415 0
-719 -416 0
-720 -257 0
-720 -258 0
-720 -263 0
-720 -264 0
-720 -265 0
-720 -266 0
-720 -267 0
-720 -268 0
-720 -269 0
-720 -270 0
-720 -271 0
-720 -272 0
-720 -305 0
-720 -306 0
-720 -311 0
-720 -312 0
-720 -313 0
-720 -314 0
-720 -315 0
-720 -316 0
-720 -317 0
-720 -318 0
-720 -319 0
-720 -320 0
-720 -353 0
-720 -354 0
-720 -359 0
-720 -360 0
-720 -361 0
-720 -362 0
-720 -363 0
-720 -364 0
-720 -365 0
-720 -366 0
-720 -367 0
-720 -368 0
-720 -401 0
-720 -402 0
-720 -407 0
-720 -408 0
-720 -409 0
-720 -410 0
-720 -411 0
-720 -412 0
-720 -413 0
-720 -414 0
-720 -415 0
-720 -416 0
-721 -257 0
-721 -258 0
-721 -259 0
-721 -264 0
-721 -265 0
-721 -266 0
-721 -267 0
-721 -268 0
-721 -269 0
-721 -270 0
-721 -271 0
-721 -272 0
-721 -305 0
-721 -306 0
-721 -307 0
-721 -312 0
-721 -313 0
-721 -314 0
-721 -315 0
-721 -316 0
-721 -317 0
-721 -318 0
-721 -319 0
-721 -320 0
-721 -353 0
-721 -354 0
-721 -355 0
-721 -360 0
-721 -361 0
-721 -362 0
-721 -363 0
-721 -364 0
-721 -365 0
-721 -366 0
-721 -367 0
-721 -368 0
-721 -401 0
-721 -402 0
-721 -403 0
-721 -408 0
-721 -409 0
-721 -410 0
-721 -411 0
-721 -412 0
-721 -413 0
-721 -414 0
-721 -415 0
-721 -416 0
-722 -257 0
-722 -258 0
-722 -259 0
-722 -260 0
-722 -265 0
-722 -266 0
-722 -267 0
-722 -268 0
-722 -269 0
-722 -270 0
-722 -271 0
-722 -272 0
-722 -305 0
-722 -306 0
-722 -307 0
-722 -308 0
-722 -313 0
-722 -314 0
-722 -315 0
-722 -316 0
-722 -317 0
-722 -318 0
-722 -319 0
-722 -320 0
-722 -353 0
-722 -354 0
-722 -355 0
-722 -356 0
-722 -361 0
-722 -362 0
-722 -363 0
-722 -364 0
-722 -365 0
-722 -366 0
-722 -367 0
-722 -368 0
-722 -401 0
-722 -402 0
-722 -403 0
-722 -404 0
-722 -409 0
-722 -410 0
-722 -411 0
-722 -412 0
-722 -413 0
-722 -414 0
-722 -415 0
-722 -416 0
-723 -257 0
-723 -258 0
-723 -259 0
-723 -260 0
-723 -261 0
-723 -266 0
-723 -267 0
-723 -268 0
-723 -269 0
-723 -270 0
-723 -271 0
-723 -272 0
-723 -305 0
-723 -306 0
-723 -307 0
-723 -308 0
-723 -309 0
-723 -314 0
-723 -315 0
-723 -316 0
-723 -317 0
-723 -318 0
-723 -319 0
-723 -320 0
-723 -353 0
-723 -354 0
-723 -355 0
-723 -356 0
-723 -357 0
-723 -362 0
-723 -363 0
-723 -364 0
-723 -365 0
-723 -366 0
-723 -367 0
-723 -368 0
-723 -401 0
-723 -402 0
-723 -403 0
-723 -404 0
-723 -405 0
-723 -410 0
-723 -411 0
-723 -412 0
-723 -413 0
-723 -414 0
-723 -415 0
-723 -416 0
-724 -257 0
-724 -258 0
-724 -259 0
-724 -260 0
-724 -261 0
-724 -262 0
-724 -267 0
-724 -268 0
-724 -269 0
-724 -270 0
-724 -271 0
-724 -272 0
-724 -305 0
-724 -306 0
-724 -307 0
-724 -308 0
-724 -309 0
-724 -310 0
-724 -315 0
-724 -316 0
-724 -317 0
-724 -318 0
-724 -319 0
-724 -320 0
-724 -353 0
-724 -354 0
-724 -355 0
-724 -356 0
-724 -357 0
-724 -358 0
-724 -363 0
-724 -364 0
-724 -365 0
-724 -366 0
-724 -367 0
-724 -368 0
-724 -401 0
-724 -402 0
-724 -403 0
-724 -404 0
-724 -405 0
-724 -406 0
-724 -411 0
-724 -412 0
-724 -413 0
-724 -414 0
-724 -415 0
-724 -416 0
-725 -257 0
-725 -258 0
-725 -259 0
-725 -260 0
-725 -261 0
-725 -262 0
-725 -263 0
-725 -268 0
-725 -269 0
-725 -270 0
-725 -271 0
-725 -272 0
-725 -305 0
-725 -306 0
-725 -307 0
-725 -308 0
-725 -309 0
-725 -310 0
-725 -311 0
-725 -316 0
-725 -317 0
-725 -318 0
-725 -319 0
-725 -320 0
-725 -353 0
-725 -354 0
-725 -355 0
-725 -356 0
-725 -357 0
-725 -358 0
-725 -359 0
-725 -364 0
-725 -365 0
-725 -366 0
-725 -367 0
-725 -368 0
-725 -401 0
-725 -402 0
-725 -403 0
-725 -404 0
-725 -405 0
-725 -406 0
-725 -407 0
-725 -412 0
-725 -413 0
-725 -414 0
-725 -415 0
-725 -416 0
-726 -257 0
-726 -258 0
-726 -259 0
-726 -260 0
-726 -261 0
-726 -262 0
-726 -263 0
-726 -264 0
-726 -269 0
-726 -270 0
-726 -271 0
-726 -272 0
-726 -305 0
-726 -306 0
-726 -307 0
-726 -308 0
-726 -309 0
-726 -310 0
-726 -311 0
-726 -312 0
-726 -317 0
-726 -318 0
-726 -319 0
-726 -320 0
-726 -353 0
-726 -354 0
-726 -355 0
-726 -356 0
-726 -357 0
-726 -358 0
-726 -359 0
-726 -360 0
-726 -365 0
-726 -366 0
-726 -367 0
-726 -368 0
-726 -401 0
-726 -402 0
-726 -403 0
-726 -404 0
-726 -405 0
-726 -406 0
-726 -407 0
-726 -408 0
-726 -413 0
-726 -414 0
-726 -415 0
-726 -416 0
-727 -257 0
-727 -258 0
-727 -259 0
-727 -260 0
-727 -261 0
-727 -262 0
-727 -263 0
-727 -264 0
-727 -265 0
-727 -270 0
-727 -271 0
-727 -272 0
-727 -305 0
-727 -306 0
-727 -307 0
-727 -308 0
-727 -309 0
-727 -310 0
-727 -311 0
-727 -312 0
-727 -313 0
-727 -318 0
-727 -319 0
-727 -320 0
-727 -353 0
-727 -354 0
-727 -355 0
-727 -356 0
-727 -357 0
-727 -358 0
-727 -359 0
-727 -360 0
-727 -361 0
-727 -366 0
-727 -367 0
-727 -368 0
-727 -401 0
-727 -402 0
-727 -403 0
-727 -404 0
-727 -405 0
-727 -406 0
-727 -407 0
-727 -408 0
-727 -409 0
-727 -414 0
-727 -415 0
-727 -416 0
-728 -257 0
-728 -258 0
-728 -259 0
-728 -260 0
-728 -261 0
-728 -262 0
-728 -263 0
-728 -264 0
-728 -265 0
-728 -266 0
-728 -271 0
-728 -272 0
-728 -305 0
-728 -306 0
-728 -307 0
-728 -308 0
-728 -309 0
-728 -310 0
-728 -311 0
-728 -312 0
-728 -313 0
-728 -314 0
-728 -319 0
-728 -320 0
-728 -353 0
-728 -354 0
-728 -355 0
-728 -356 0
-728 -357 0
-728 -358 0
-728 -359 0
-728 -360 0
-728 -361 0
-728 -362 0
-728 -367 0
-728 -368 0
-728 -401 0
-728 -402 0
-728 -403 0
-728 -404 0
-728 -405 0
-728 -406 0
-728 -407 0
-728 -408 0
-728 -409 0
-728 -410 0
-728 -415 0
-728 -416 0
-729 -257 0
-729 -258 0
-729 -259 0
-729 -260 0
-729 -261 0
-729 -262 0
-729 -263 0
-729 -264 0
-729 -265 0
-729 -266 0
-729 -267 0
-729 -272 0
-729 -305 0
-729 -306 0
-729 -307 0
-729 -308 0
-729 -309 0
-729 -310 0
-729 -311 0
-729 -312 0
-729 -313 0
-729 -314 0
-729 -315 0
-729 -320 0
-729 -353 0
-729 -354 0
-729 -355 0
-729 -356 0
-729 -357 0
-729 -358 0
-729 -359 0
-729 -360 0
-729 -361 0
-729 -362 0
-729 -363 0
-729 -368 0
-729 -401 0
-729 -402 0
-729 -403 0
-729 -404 0
-729 -405 0
-729 -406 0
-729 -407 0
-729 -408 0
-729 -409 0
-729 -410 0
-729 -411 0
-729 -416 0
-730 -257 0
-730 -258 0
-730 -259 0
-730 -260 0
-730 -261 0
-730 -262 0
-730 -263 0
-730 -264 0
-730 -265 0
-730 -266 0
-730 -267 0
-730 -268 0
-730 -305 0
-730 -306 0
-730 -307 0
-730 -308 0
-730 -309 0
-730 -310 0
-730 -311 0
-730 -312 0
-730 -313 0
-730 -314 0
-730 -315 0
-730 -316 0
-730 -353 0
-730 -354 0
-730 -355 0
-730 -356 0
-730 -357 0
-730 -358 0
-730 -359 0
-730 -360 0
-730 -361 0
-730 -362 0
-730 -363 0
-730 -364 0
-730 -401 0
-730 -402 0
-730 -403 0
-730 -404 0
-730 -405 0
-730 -406 0
-730 -407 0
-730 -408 0
-730 -409 0
-730 -410 0
-730 -411 0
-730 -412 0
-65 -113 0
-65 -449 0
-65 -497 0
-113 -449 0
-113 -497 0
-449 -497 0
-66 -114 0
-66 -450 0
-66 -498 0
-114 -450 0
-114 -498 0
-450 -498 0
-67 -115 0
-67 -451 0
-67 -499 0
-115 -451 0
-115 -499 0
-451 -499 0
-68 -116 0
-68 -452 0
-68 -500 0
-116 -452 0
-116 -500 0
-452 -500 0
-69 -117 0
-69 -453 0
-69 -501 0
-117 -453 0
-117 -501 0
-453 -501 0
-70 -118 0
-70 -454 0
-70 -502 0
-118 -454 0
-118 -502 0
-454 -502 0
-71 -119 0
-71 -455 0
-71 -503 0
-119 -455 0
-119 -503 0
-455 -503 0
-72 -120 0
-72 -456 0
-72 -504 0
-120 -456 0
-120 -504 0
-456 -504 0
-73 -121 0
-73 -457 0
-73 -505 0
-121 -457 0
-121 -505 0
-457 -505 0
-74 -122 0
-74 -458 0
-74 -506 0
-122 -458 0
-122 -506 0
-458 -506 0
-75 -123 0
-75 -459 0
-75 -507 0
-123 -459 0
-123 -507 0
-459 -507 0
-76 -124 0
-76 -460 0
-76 -508 0
-124 -460 0
-124 -508 0
-460 -508 0
-77 -125 0
-77 -461 0
-77 -509 0
-125 -461 0
-125 -509 0
-461 -509 0
-78 -126 0
-78 -462 0
-78 -510 0
-126 -462 0
-126 -510 0
-462 -510 0
-79 -127 0
-79 -463 0
-79 -511 0
-127 -463 0
-127 -511 0
-463 -511 0
-80 -128 0
-80 -464 0
-80 -512 0
-128 -464 0
-128 -512 0
-464 -512 0
731 732 733 734 735 736 737 738 739 740 741 742 743 0
-731 -732 0
-731 -733 0
-731 -734 0
-731 -735 0
-731 -736 0
-731 -737 0
-731 -738 0
-731 -739 0
-731 -740 0
-731 -741 0
-731 -742 0
-731 -743 0
-732 -733 0
-732 -734 0
-732 -735 0
-732 -736 0
-732 -737 0
-732 -738 0
-732 -739 0
-732 -740 0
-732 -741 0
-732 -742 0
-732 -743 0
-733 -734 0
-733 -735 0
-733 -736 0
-733 -737 0
-733 -738 0
-733 -739 0
-733 -740 0
-733 -741 0
-733 -742 0
-733 -743 0
-734 -735 0
-734 -736 0
-734 -737 0
-734 -738 0
-734 -739 0
-734 -740 0
-734 -741 0
-734 -742 0
-734 -743 0
-735 -736 0
-735 -737 0
-735 -738 0
-735 -739 0
-735 -740 0
-735 -741 0
-735 -742 0
-735 -743 0
-736 -737 0
-736 -738 0
-736 -739 0
-736 -740 0
-736 -741 0
-736 -742 0
-736 -743 0
-737 -738 0
-737 -739 0
-737 -740 0
-737 -741 0
-737 -742 0
-737 -743 0
-738 -739 0
-738 -740 0
-738 -741 0
-738 -742 0
-738 -743 0
-739 -740 0
-739 -741 0
-739 -742 0
-739 -743 0
-740 -741 0
-740 -742 0
-740 -743 0
-741 -742 0
-741 -743 0
-742 -743 0
-65 731 0
-66 731 732 0
-67 731 732 733 0
-68 731 732 733 734 0
-69 732 733 734 735 0
-70 733 734 735 736 0
-71 734 735 736 737 0
-72 735 736 737 738 0
-73 736 737 738 739 0
-74 737 738 739 740 0
-75 738 739 740 741 0
-76 739 740 741 742 0
-77 740 741 742 743 0
-78 741 742 743 0
-79 742 743 0
-80 743 0
-113 731 0
-114 731 732 0
-115 731 732 733 0
-116 731 732 733 734 0
-117 732 733 734 735 0
-118 733 734 735 736 0
-119 734 735 736 737 0
-120 735 736 737 738 0
-121 736 737 738 739 0
-122 737 738 739 740 0
-123 738 739 740 741 0
-124 739 740 741 742 0
-125 740 741 742 743 0
-126 741 742 743 0
-127 742 743 0
-128 743 0
-449 731 0
-450 731 732 0
-451 731 732 733 0
-452 731 732 733 734 0
-453 732 733 734 735 0
-454 733 734 735 736 0
-455 734 735 736 737 0
-456 735 736 737 738 0
-457 736 737 738 739 0
-458 737 738 739 740 0
-459 738 739 740 741 0
-460 739 740 741 742 0
-461 740 741 742 743 0
-462 741 742 743 0
-463 742 743 0
-464 743 0
-497 731 0
-498 731 732 0
-499 731 732 733 0
-500 731 732 733 734 0
-501 732 733 734 735 0
-502 733 734 735 736 0
-503 734 735 736 737 0
-504 735 736 737 738 0
-505 736 737 738 739 0
-506 737 738 739 740 0
-507 738 739 740 741 0
-508 739 740 741 742 0
-509 740 741 742 743 0
-510 741 742 743 0
-511 742 743 0
-512 743 0
-731 -69 0
-731 -70 0
-731 -71 0
-731 -72 0
-731 -73 0
-731 -74 0
-731 -75 0
-731 -76 0
-731 -77 0
-731 -78 0
-731 -79 0
-731 -80 0
-731 -117 0
-731 -118 0
-731 -119 0
-731 -120 0
-731 -121 0
-731 -122 0
-731 -123 0
-731 -124 0
-731 -125 0
-731 -126 0
-731 -127 0
-731 -128 0
-731 -453 0
-731 -454 0
-731 -455 0
-731 -456 0
-731 -457 0
-731 -458 0
-731 -459 0
-731 -460 0
-731 -461 0
-731 -462 0
-731 -463 0
-731 -464 0
-731 -501 0
-731 -502 0
-731 -503 0
-731 -504 0
-731 -505 0
-731 -506 0
-731 -507 0
-731 -508 0
-731 -509 0
-731 -510 0
-731 -511 0
-731 -512 0
-732 -65 0
-732 -70 0
-732 -71 0
-732 -72 0
-732 -73 0
-732 -74 0
-732 -75 0
-732 -76 0
-732 -77 0
-732 -78 0
-732 -79 0
-732 -80 0
-732 -113 0
-732 -118 0
-732 -119 0
-732 -120 0
-732 -121 0
-732 -122 0
-732 -123 0
-732 -124 0
-732 -125 0
-732 -126 0
-732 -127 0
-732 -128 0
-732 -449 0
-732 -454 0
-732 -455 0
-732 -456 0
-732 -457 0
-732 -458 0
-732 -459 0
-732 -460 0
-732 -461 0
-732 -462 0
-732 -463 0
-732 -464 0
-732 -497 0
-732 -502 0
-732 -503 0
-732 -504 0
-732 -505 0
-732 -506 0
-732 -507 0
-732 -508 0
-732 -509 0
-732 -510 0
-732 -511 0
-732 -512 0
-733 -65 0
-733 -66 0
-733 -71 0
-733 -72 0
-733 -73 0
-733 -74 0
-733 -75 0
-733 -76 0
-733 -77 0
-733 -78 0
-733 -79 0
-733 -80 0
-733 -113 0
-733 -114 0
-733 -119 0
-733 -120 0
-733 -121 0
-733 -122 0
-733 -123 0
-733 -124 0
-733 -125 0
-733 -126 0
-733 -127 0
-733 -128 0
-733 -449 0
-733 -450 0
-733 -455 0
-733 -456 0
-733 -457 0
-733 -458 0
-733 -459 0
-733 -460 0
-733 -461 0
-733 -462 0
-733 -463 0
-733 -464 0
-733 -497 0
-733 -498 0
-733 -503 0
-733 -504 0
-733 -505 0
-733 -506 0
-733 -507 0
-733 -508 0
-733 -509 0
-733 -510 0
-733 -511 0
-733 -512 0
-734 -65 0
-734 -66 0
-734 -67 0
-734 -72 0
-734 -73 0
-734 -74 0
-734 -75 0
-734 -76 0
-734 -77 0
-734 -78 0
-734 -79 0
-734 -80 0
-734 -113 0
-734 -114 0
-734 -115 0
-734 -120 0
-734 -121 0
-734 -122 0
-734 -123 0
-734 -124 0
-734 -125 0
-734 -126 0
-734 -127 0
-734 -128 0
-734 -449 0
-734 -450 0
-734 -451 0
-734 -456 0
-734 -457 0
-734 -458 0
-734 -459 0
-734 -460 0
-734 -461 0
-734 -462 0
-734 -463 0
-734 -464 0
-734 -497 0
-734 -498 0
-734 -499 0
-734 -504 0
-734 -505 0
-734 -506 0
-734 -507 0
-734 -508 0
-734 -509 0
-734 -510 0
-734 -511 0
-734 -512 0
-735 -65 0
-735 -66 0
-735 -67 0
-735 -68 0
-735 -73 0
-735 -74 0
-735 -75 0
-735 -76 0
-735 -77 0
-735 -78 0
-735 -79 0
-735 -80 0
-735 -113 0
-735 -114 0
-735 -115 0
-735 -116 0
-735 -121 0
-735 -122 0
-735 -123 0
-735 -124 0
-735 -125 0
-735 -126 0
-735 -127 0
-735 -128 0
-735 -449 0
-735 -450 0
-735 -451 0
-735 -452 0
-735 -457 0
-735 -458 0
-735 -459 0
-735 -460 0
-735 -461 0
-735 -462 0
-735 -463 0
-735 -464 0
-735 -497 0
-735 -498 0
-735 -499 0
-735 -500 0
-735 -505 0
-735 -506 0
-735 -507 0
-735 -508 0
-735 -509 0
-735 -510 0
-735 -511 0
-735 -512 0
-736 -65 0
-736 -66 0
-736 -67 0
-736 -68 0
-736 -69 0
-736 -74 0
-736 -75 0
-736 -76 0
-736 -77 0
-736 -78 0
-736 -79 0
-736 -80 0
-736 -113 0
-736 -114 0
-736 -115 0
-736 -116 0
-736 -117 0
-736 -122 0
-736 -123 0
-736 -124 0
-736 -125 0
-736 -126 0
-736 -127 0
-736 -128 0
-736 -449 0
-736 -450 0
-736 -451 0
-736 -452 0
-736 -453 0
-736 -458 0
-736 -459 0
-736 -460 0
-736 -461 0
-736 -462 0
-736 -463 0
-736 -464 0
-736 -497 0
-736 -498 0
-736 -499 0
-736 -500 0
-736 -501 0
-736 -506 0
-736 -507 0
-736 -508 0
-736 -509 0
-736 -510 0
-736 -511 0
-736 -512 0
-737 -65 0
-737 -66 0
-737 -67 0
-737 -68 0
-737 -69 0
-737 -70 0
-737 -75 0
-737 -76 0
-737 -77 0
-737 -78 0
-737 -79 0
-737 -80 0
-737 -113 0
-737 -114 0
-737 -115 0
-737 -116 0
-737 -117 0
-737 -118 0
-737 -123 0
-737 -124 0
-737 -125 0
-737 -126 0
-737 -127 0
-737 -128 0
-737 -449 0
-737 -450 0
-737 -451 0
-737 -452 0
-737 -453 0
-737 -454 0
-737 -459 0
-737 -460 0
-737 -461 0
-737 -462 0
-737 -463 0
-737 -464 0
-737 -497 0
-737 -498 0
-737 -499 0
-737 -500 0
-737 -501 0
-737 -502 0
-737 -507 0
-737 -508 0
-737 -509 0
-737 -510 0
-737 -511 0
-737 -512 0
-738 -65 0
-738 -66 0
-738 -67 0
-738 -68 0
-738 -69 0
-738 -70 0
-738 -71 0
-738 -76 0
-738 -77 0
-738 -78 0
-738 -79 0
-738 -80 0
-738 -113 0
-738 -114 0
-738 -115 0
-738 -116 0
-738 -117 0
-738 -118 0
-738 -119 0
-738 -124 0
-738 -125 0
-738 -126 0
-738 -127 0
-738 -128 0
-738 -449 0
-738 -450 0
-738 -451 0
-738 -452 0
-738 -453 0
-738 -454 0
-738 -455 0
-738 -460 0
-738 -461 0
-738 -462 0
-738 -463 0
-738 -464 0
-738 -497 0
-738 -498 0
-738 -499 0
-738 -500 0
-738 -501 0
-738 -502 0
-738 -503 0
-738 -508 0
-738 -509 0
-738 -510 0
-738 -511 0
-738 -512 0
-739 -65 0
-739 -66 0
-739 -67 0
-739 -68 0
-739 -69 0
-739 -70 0
-739 -71 0
-739 -72 0
-739 -77 0
-739 -78 0
-739 -79 0
-739 -80 0
-739 -113 0
-739 -114 0
-739 -115 0
-739 -116 0
-739 -117 0
-739 -118 0
-739 -119 0
-739 -120 0
-739 -125 0
-739 -126 0
-739 -127 0
-739 -128 0
-739 -449 0
-739 -450 0
-739 -451 0
-739 -452 0
-739 -453 0
-739 -454 0
-739 -455 0
-739 -456 0
-739 -461 0
-739 -462 0
-739 -463 0
-739 -464 0
-739 -497 0
-739 -498 0
-739 -499 0
-739 -500 0
-739 -501 0
-739 -502 0
-739 -503 0
-739 -504 0
-739 -509 0
-739 -510 0
-739 -511 0
-739 -512 0
-740 -65 0
-740 -66 0
-740 -67 0
-740 -68 0
-740 -69 0
-740 -70 0
-740 -71 0
-740 -72 0
-740 -73 0
-740 -78 0
-740 -79 0
-740 -80 0
-740 -113 0
-740 -114 0
-740 -115 0
-740 -116 0
-740 -117 0
-740 -118 0
-740 -119 0
-740 -120 0
-740 -121 0
-740 -126 0
-740 -127 0
-740 -128 0
-740 -449 0
-740 -450 0
-740 -451 0
-740 -452 0
-740 -453 0
-740 -454 0
-740 -455 0
-740 -456 0
-740 -457 0
-740 -462 0
-740 -463 0
-740 -464 0
-740 -497 0
-740 -498 0
-740 -499 0
-740 -500 0
-740 -501 0
-740 -502 0
-740 -503 0
-740 -504 0
-740 -505 0
-740 -510 0
-740 -511 0
-740 -512 0
-741 -65 0
-741 -66 0
-741 -67 0
-741 -68 0
-741 -69 0
-741 -70 0
-741 -71 0
-741 -72 0
-741 -73 0
-741 -74 0
-741 -79 0
-741 -80 0
-741 -113 0
-741 -114 0
-741 -115 0
-741 -116 0
-741 -117 0
-741 -118 0
-741 -119 0
-741 -120 0
-741 -121 0
-741 -122 0
-741 -127 0
-741 -128 0
-741 -449 0
-741 -450 0
-741 -451 0
-741 -452 0
-741 -453 0
-741 -454 0
-741 -455 0
-741 -456 0
-741 -457 0
-741 -458 0
-741 -463 0
-741 -464 0
-741 -497 0
-741 -498 0
-741 -499 0
-741 -500 0
-741 -501 0
-741 -502 0
-741 -503 0
-741 -504 0
-741 -505 0
-741 -506 0
-741 -511 0
-741 -512 0
-742 -65 0
-742 -66 0
-742 -67 0
-742 -68 0
-742 -69 0
-742 -70 0
-742 -71 0
-742 -72 0
-742 -73 0
-742 -74 0
-742 -75 0
-742 -80 0
-742 -113 0
-742 -114 0
-742 -115 0
-742 -116 0
-742 -117 0
-742 -118 0
-742 -119 0
-742 -120 0
-742 -121 0
-742 -122 0
-742 -123 0
-742 -128 0
-742 -449 0
-742 -450 0
-742 -451 0
-742 -452 0
-742 -453 0
-742 -454 0
-742 -455 0
-742 -456 0
-742 -457 0
-742 -458 0
-742 -459 0
-742 -464 0
-742 -497 0
-742 -498 0
-742 -499 0
-742 -500 0
-742 -501 0
-742 -502 0
-742 -503 0
-742 -504 0
-742 -505 0
-742 -506 0
-742 -507 0
-742 -512 0
-743 -65 0
-743 -66 0
-743 -67 0
-743 -68 0
-743 -69 0
-743 -70 0
-743 -71 0
-743 -72 0
-743 -73 0
-743 -74 0
-743 -75 0
-743 -76 0
-743 -113 0
-743 -114 0
-743 -115 0
-743 -116 0
-743 -117 0
-743 -118 0
-743 -119 0
-743 -120 0
-743 -121 0
-743 -122 0
-743 -123 0
-743 -124 0
-743 -449 0
-743 -450 0
-743 -451 0
-743 -452 0
-743 -453 0
-743 -454 0
-743 -455 0
-743 -456 0
-743 -457 0
-743 -458 0
-743 -459 0
-743 -460 0
-743 -497 0
-743 -498 0
-743 -499 0
-743 -500 0
-743 -501 0
-743 -502 0
-743 -503 0
-743 -504 0
-743 -505 0
-743 -506 0
-743 -507 0
-743 -508 0
-17 -273 0
-17 -465 0
-273 -465 0
-18 -274 0
-18 -466 0
-274 -466 0
-19 -275 0
-19 -467 0
-275 -467 0
-20 -276 0
-20 -468 0
-276 -468 0
-21 -277 0
-21 -469 0
-277 -469 0
-22 -278 0
-22 -470 0
-278 -470 0
-23 -279 0
-23 -471 0
-279 -471 0
-24 -280 0
-24 -472 0
-280 -472 0
-25 -281 0
-25 -473 0
-281 -473 0
-26 -282 0
-26 -474 0
-282 -474 0
-27 -283 0
-27 -475 0
-283 -475 0
-28 -284 0
-28 -476 0
-284 -476 0
-29 -285 0
-29 -477 0
-285 -477 0
-30 -286 0
-30 -478 0
-286 -478 0
-31 -287 0
-31 -479 0
-287 -479 0
-32 -288 0
-32 -480 0
-288 -480 0
744 745 746 747 748 749 750 751 752 753 754 755 756 757 0
-744 -745 0
-744 -746 0
-744 -747 0
-744 -748 0
-744 -749 0
-744 -750 0
-744 -751 0
-744 -752 0
-744 -753 0
-744 -754 0
-744 -755 0
-744 -756 0
-744 -757 0
-745 -746 0
-745 -747 0
-745 -748 0
-745 -749 0
-745 -750 0
-745 -751 0
-745 -752 0
-745 -753 0
-745 -754 0
-745 -755 0
-745 -756 0
-745 -757 0
-746 -747 0
-746 -748 0
-746 -749 0
-746 -750 0
-746 -751 0
-746 -752 0
-746 -753 0
-746 -754 0
-746 -755 0
-746 -756 0
-746 -757 0
-747 -748 0
-747 -749 0
-747 -750 0
-747 -751 0
-747 -752 0
-747 -753 0
-747 -754 0
-747 -755 0
-747 -756 0
-747 -757 0
-748 -749 0
-748 -750 0
-748 -751 0
-748 -752 0
-748 -753 0
-748 -754 0
-748 -755 0
-748 -756 0
-748 -757 0
-749 -750 0
-749 -751 0
-749 -752 0
-749 -753 0
-749 -754 0
-749 -755 0
-749 -756 0
-749 -757 0
-750 -751 0
-750 -752 0
-750 -753 0
-750 -754 0
-750 -755 0
-750 -756 0
-750 -757 0
-751 -752 0
-751 -753 0
-751 -754 0
-751 -755 0
-751 -756 0
-751 -757 0
-752 -753 0
-752 -754 0
-752 -755 0
-752 -756 0
-752 -757 0
-753 -754 0
-753 -755 0
-753 -756 0
-753 -757 0
-754 -755 0
-754 -756 0
-754 -757 0
-755 -756 0
-755 -757 0
-756 -757 0
-17 744 0
-18 744 745 0
-19 744 745 746 0
-20 745 746 747 0
-21 746 747 748 0
-22 747 748 749 0
-23 748 749 750 0
-24 749 750 751 0
-25 750 751 752 0
-26 751 752 753 0
-27 752 753 754 0
-28 753 754 755 0
-29 754 755 756 0
-30 755 756 757 0
-31 756 757 0
-32 757 0
-273 744 0
-274 744 745 0
-275 744 745 746 0
-276 745 746 747 0
-277 746 747 748 0
-278 747 748 749 0
-279 748 749 750 0
-280 749 750 751 0
-281 750 751 752 0
-282 751 752 753 0
-283 752 753 754 0
-284 753 754 755 0
-285 754 755 756 0
-286 755 756 757 0
-287 756 757 0
-288 757 0
-465 744 0
-466 744 745 0
-467 744 745 746 0
-468 745 746 747 0
-469 746 747 748 0
-470 747 748 749 0
-471 748 749 750 0
-472 749 750 751 0
-473 750 751 752 0
-474 751 752 753 0
-475 752 753 754 0
-476 753 754 755 0
-477 754 755 756 0
-478 755 756 757 0
-479 756 757 0
-480 757 0
-744 -20 0
-744 -21 0
-744 -22 0
-744 -23 0
-744 -24 0
-744 -25 0
-744 -26 0
-744 -27 0
-744 -28 0
-744 -29 0
-744 -30 0
-744 -31 0
-744 -32 0
-744 -276 0
-744 -277 0
-744 -278 0
-744 -279 0
-744 -280 0
-744 -281 0
-744 -282 0
-744 -283 0
-744 -284 0
-744 -285 0
-744 -286 0
-744 -287 0
-744 -288 0
-744 -468 0
-744 -469 0
-744 -470 0
-744 -471 0
-744 -472 0
-744 -473 0
-744 -474 0
-744 -475 0
-744 -476 0
-744 -477 0
-744 -478 0
-744 -479 0
-744 -480 0
-745 -17 0
-745 -21 0
-745 -22 0
-745 -23 0
-745 -24 0
-745 -25 0
-745 -26 0
-745 -27 0
-745 -28 0
-745 -29 0
-745 -30 0
-745 -31 0
-745 -32 0
-745 -273 0
-745 -277 0
-745 -278 0
-745 -279 0
-745 -280 0
-745 -281 0
-745 -282 0
-745 -283 0
-745 -284 0
-745 -285 0
-745 -286 0
-745 -287 0
-745 -288 0
-745 -465 0
-745 -469 0
-745 -470 0
-745 -471 0
-745 -472 0
-745 -473 0
-745 -474 0
-745 -475 0
-745 -476 0
-745 -477 0
-745 -478 0
-745 -479 0
-745 -480 0
-746 -17 0
-746 -18 0
-746 -22 0
-746 -23 0
-746 -24 0
-746 -25 0
-746 -26 0
-746 -27 0
-746 -28 0
-746 -29 0
-746 -30 0
-746 -31 0
-746 -32 0
-746 -273 0
-746 -274 0
-746 -278 0
-746 -279 0
-746 -280 0
-746 -281 0
-746 -282 0
-746 -283 0
-746 -284 0
-746 -285 0
-746 -286 0
-746 -287 0
-746 -288 0
-746 -465 0
-746 -466 0
-746 -470 0
-746 -471 0
-746 -472 0
-746 -473 0
-746 -474 0
-746 -475 0
-746 -476 0
-746 -477 0
-746 -478 0
-746 -479 0
-746 -480 0
-747 -17 0
-747 -18 0
-747 -19 0
-747 -23 0
-747 -24 0
-747 -25 0
-747 -26 0
-747 -27 0
-747 -28 0
-747 -29 0
-747 -30 0
-747 -31 0
-747 -32 0
-747 -273 0
-747 -274 0
-747 -275 0
-747 -279 0
-747 -280 0
-747 -281 0
-747 -282 0
-747 -283 0
-747 -284 0
-747 -285 0
-747 -286 0
-747 -287 0
-747 -288 0
-747 -465 0
-747 -466 0
-747 -467 0
-747 -471 0
-747 -472 0
-747 -473 0
-747 -474 0
-747 -475 0
-747 -476 0
-747 -477 0
-747 -478 0
-747 -479 0
-747 -480 0
-748 -17 0
-748 -18 0
-748 -19 0
-748 -20 0
-748 -24 0
-748 -25 0
-748 -26 0
-748 -27 0
-748 -28 0
-748 -29 0
-748 -30 0
-748 -31 0
-748 -32 0
-748 -273 0
-748 -274 0
-748 -275 0
-748 -276 0
-748 -280 0
-748 -281 0
-748 -282 0
-748 -283 0
-748 -284 0
-748 -285 0
-748 -286 0
-748 -287 0
-748 -288 0
-748 -465 0
-748 -466 0
-748 -467 0
-748 -468 0
-748 -472 0
-748 -473 0
-748 -474 0
-748 -475 0
-748 -476 0
-748 -477 0
-748 -478 0
-748 -479 0
-748 -480 0
-749 -17 0
-749 -18 0
-749 -19 0
-749 -20 0
-749 -21 0
-749 -25 0
-749 -26 0
-749 -27 0
-749 -28 0
-749 -29 0
-749 -30 0
-749 -31 0
-749 -32 0
-749 -273 0
-749 -274 0
-749 -275 0
-749 -276 0
-749 -277 0
-749 -281 0
-749 -282 0
-749 -283 0
-749 -284 0
-749 -285 0
-749 -286 0
-749 -287 0
-749 -288 0
-749 -465 0
-749 -466 0
-749 -467 0
-749 -468 0
-749 -469 0
-749 -473 0
-749 -474 0
-749 -475 0
-749 -476 0
-749 -477 0
-749 -478 0
-749 -479 0
-749 -480 0
-750 -17 0
-750 -18 0
-750 -19 0
-750 -20 0
-750 -21 0
-750 -22 0
-750 -26 0
-750 -27 0
-750 -28 0
-750 -29 0
-750 -30 0
-750 -31 0
-750 -32 0
-750 -273 0
-750 -274 0
-750 -275 0
-750 -276 0
-750 -277 0
-750 -278 0
-750 -282 0
-750 -283 0
-750 -284 0
-750 -285 0
-750 -286 0
-750 -287 0
-750 -288 0
-750 -465 0
-750 -466 0
-750 -467 0
-750 -468 0
-750 -469 0
-750 -470 0
-750 -474 0
-750 -475 0
-750 -476 0
-750 -477 0
-750 -478 0
-750 -479 0
-750 -480 0
-751 -17 0
-751 -18 0
-751 -19 0
-751 -20 0
-751 -21 0
-751 -22 0
-751 -23 0
-751 -27 0
-751 -28 0
-751 -29 0
-751 -30 0
-751 -31 0
-751 -32 0
-751 -273 0
-751 -274 0
-751 -275 0
-751 -276 0
-751 -277 0
-751 -278 0
-751 -279 0
-751 -283 0
-751 -284 0
-751 -285 0
-751 -286 0
-751 -287 0
-751 -288 0
-751 -465 0
-751 -466 0
-751 -467 0
-751 -468 0
-751 -469 0
-751 -470 0
-751 -471 0
-751 -475 0
-751 -476 0
-751 -477 0
-751 -478 0
-751 -479 0
-751 -480 0
-752 -17 0
-752 -18 0
-752 -19 0
-752 -20 0
-752 -21 0
-752 -22 0
-752 -23 0
-752 -24 0
-752 -28 0
-752 -29 0
-752 -30 0
-752 -31 0
-752 -32 0
-752 -273 0
-752 -274 0
-752 -275 0
-752 -276 0
-752 -277 0
-752 -278 0
-752 -279 0
-752 -280 0
-752 -284 0
-752 -285 0
-752 -286 0
-752 -287 0
-752 -288 0
-752 -465 0
-752 -466 0
-752 -467 0
-752 -468 0
-752 -469 0
-752 -470 0
-752 -471 0
-752 -472 0
-752 -476 0
-752 -477 0
-752 -478 0
-752 -479 0
-752 -480 0
-753 -17 0
-753 -18 0
-753 -19 0
-753 -20 0
-753 -21 0
-753 -22 0
-753 -23 0
-753 -24 0
-753 -25 0
-753 -29 0
-753 -30 0
-753 -31 0
-753 -32 0
-753 -273 0
-753 -274 0
-753 -275 0
-753 -276 0
-753 -277 0
-753 -278 0
-753 -279 0
-753 -280 0
-753 -281 0
-753 -285 0
-753 -286 0
-753 -287 0
-753 -288 0
-753 -465 0
-753 -466 0
-753 -467 0
-753 -468 0
-753 -469 0
-753 -470 0
-753 -471 0
-753 -472 0
-753 -473 0
-753 -477 0
-753 -478 0
-753 -479 0
-753 -480 0
-754 -17 0
-754 -18 0
-754 -19 0
-754 -20 0
-754 -21 0
-754 -22 0
-754 -23 0
-754 -24 0
-754 -25 0
-754 -26 0
-754 -30 0
-754 -31 0
-754 -32 0
-754 -273 0
-754 -274 0
-754 -275 0
-754 -276 0
-754 -277 0
-754 -278 0
-754 -279 0
-754 -280 0
-754 -281 0
-754 -282 0
-754 -286 0
-754 -287 0
-754 -288 0
-754 -465 0
-754 -466 0
-754 -467 0
-754 -468 0
-754 -469 0
-754 -470 0
-754 -471 0
-754 -472 0
-754 -473 0
-754 -474 0
-754 -478 0
-754 -479 0
-754 -480 0
-755 -17 0
-755 -18 0
-755 -19 0
-755 -20 0
-755 -21 0
-755 -22 0
-755 -23 0
-755 -24 0
-755 -25 0
-755 -26 0
-755 -27 0
-755 -31 0
-755 -32 0
-755 -273 0
-755 -274 0
-755 -275 0
-755 -276 0
-755 -277 0
-755 -278 0
-755 -279 0
-755 -280 0
-755 -281 0
-755 -282 0
-755 -283 0
-755 -287 0
-755 -288 0
-755 -465 0
-755 -466 0
-755 -467 0
-755 -468 0
-755 -469 0
-755 -470 0
-755 -471 0
-755 -472 0
-755 -473 0
-755 -474 0
-755 -475 0
-755 -479 0
-755 -480 0
-756 -17 0
-756 -18 0
-756 -19 0
-756 -20 0
-756 -21 0
-756 -22 0
-756 -23 0
-756 -24 0
-756 -25 0
-756 -26 0
-756 -27 0
-756 -28 0
-756 -32 0
-756 -273 0
-756 -274 0
-756 -275 0
-756 -276 0
-756 -277 0
-756 -278 0
-756 -279 0
-756 -280 0
-756 -281 0
-756 -282 0
-756 -283 0
-756 -284 0
-756 -288 0
-756 -465 0
-756 -466 0
-756 -467 0
-756 -468 0
-756 -469 0
-756 -470 0
-756 -471 0
-756 -472 0
-756 -473 0
-756 -474 0
-756 -475 0
-756 -476 0
-756 -480 0
-757 -17 0
-757 -18 0
-757 -19 0
-757 -20 0
-757 -21 0
-757 -22 0
-757 -23 0
-757 -24 0
-757 -25 0
-757 -26 0
-757 -27 0
-757 -28 0
-757 -29 0
-757 -273 0
-757 -274 0
-757 -275 0
-757 -276 0
-757 -277 0
-757 -278 0
-757 -279 0
-757 -280 0
-757 -281 0
-757 -282 0
-757 -283 0
-757 -284 0
-757 -285 0
-757 -465 0
-757 -466 0
-757 -467 0
-757 -468 0
-757 -469 0
-757 -470 0
-757 -471 0
-757 -472 0
-757 -473 0
-757 -474 0
-757 -475 0
-757 -476 0
-757 -477 0
-33 -321 0
-33 -513 0
-321 -513 0
-34 -322 0
-34 -514 0
-322 -514 0
-35 -323 0
-35 -515 0
-323 -515 0
-36 -324 0
-36 -516 0
-324 -516 0
-37 -325 0
-37 -517 0
-325 -517 0
-38 -326 0
-38 -518 0
-326 -518 0
-39 -327 0
-39 -519 0
-327 -519 0
-40 -328 0
-40 -520 0
-328 -520 0
-41 -329 0
-41 -521 0
-329 -521 0
-42 -330 0
-42 -522 0
-330 -522 0
-43 -331 0
-43 -523 0
-331 -523 0
-44 -332 0
-44 -524 0
-332 -524 0
-45 -333 0
-45 -525 0
-333 -525 0
-46 -334 0
-46 -526 0
-334 -526 0
-47 -335 0
-47 -527 0
-335 -527 0
-48 -336 0
-48 -528 0
-336 -528 0
758 759 760 761 762 763 764 765 766 767 768 769 770 771 0
-758 -759 0
-758 -760 0
-758 -761 0
-758 -762 0
-758 -763 0
-758 -764 0
-758 -765 0
-758 -766 0
-758 -767 0
-758 -768 0
-758 -769 0
-758 -770 0
-758 -771 0
-759 -760 0
-759 -761 0
-759 -762 0
-759 -763 0
-759 -764 0
-759 -765 0
-759 -766 0
-759 -767 0
-759 -768 0
-759 -769 0
-759 -770 0
-759 -771 0
-760 -761 0
-760 -762 0
-760 -763 0
-760 -764 0
-760 -765 0
-760 -766 0
-760 -767 0
-760 -768 0
-760 -769 0
-760 -770 0
-760 -771 0
-761 -762 0
-761 -763 0
-761 -764 0
-761 -765 0
-761 -766 0
-761 -767 0
-761 -768 0
-761 -769 0
-761 -770 0
-761 -771 0
-762 -763 0
-762 -764 0
-762 -765 0
-762 -766 0
-762 -767 0
-762 -768 0
-762 -769 0
-762 -770 0
-762 -771 0
-763 -764 0
-763 -765 0
-763 -766 0
-763 -767 0
-763 -768 0
-763 -769 0
-763 -770 0
-763 -771 0
-764 -765 0
-764 -766 0
-764 -767 0
-764 -768 0
-764 -769 0
-764 -770 0
-764 -771 0
-765 -766 0
-765 -767 0
-765 -768 0
-765 -769 0
-765 -770 0
-765 -771 0
-766 -767 0
-766 -768 0
-766 -769 0
-766 -770 0
-766 -771 0
-767 -768 0
-767 -769 0
-767 -770 0
-767 -771 0
-768 -769 0
-768 -770 0
-768 -771 0
-769 -770 0
-769 -771 0
-770 -771 0
-33 758 0
-34 758 759 0
-35 758 759 760 0
-36 759 760 761 0
-37 760 761 762 0
-38 761 762 763 0
-39 762 763 764 0
-40 763 764 765 0
-41 764 765 766 0
-42 765 766 767 0
-43 766 767 768 0
-44 767 768 769 0
-45 768 769 770 0
-46 769 770 771 0
-47 770 771 0
-48 771 0
-321 758 0
-322 758 759 0
-323 758 759 760 0
-324 759 760 761 0
-325 760 761 762 0
-326 761 762 763 0
-327 762 763 764 0
-328 763 764 765 0
-329 764 765 766 0
-330 765 766 767 0
-331 766 767 768 0
-332 767 768 769 0
-333 768 769 770 0
-334 769 770 771 0
-335 770 771 0
-336 771 0
-513 758 0
-514 758 759 0
-515 758 759 760 0
-516 759 760 761 0
-517 760 761 762 0
-518 761 762 763 0
-519 762 763 764 0
-520 763 764 765 0
-521 764 765 766 0
-522 765 766 767 0
-523 766 767 768 0
-524 767 768 769 0
-525 768 769 770 0
-526 769 770 771 0
-527 770 771 0
-528 771 0
-758 -36 0
-758 -37 0
-758 -38 0
-758 -39 0
-758 -40 0
-758 -41 0
-758 -42 0
-758 -43 0
-758 -44 0
-758 -45 0
-758 -46 0
-758 -47 0
-758 -48 0
-758 -324 0
-758 -325 0
-758 -326 0
-758 -327 0
-758 -328 0
-758 -329 0
-758 -330 0
-758 -331 0
-758 -332 0
-758 -333 0
-758 -334 0
-758 -335 0
-758 -336 0
-758 -516 0
-758 -517 0
-758 -518 0
-758 -519 0
-758 -520 0
-758 -521 0
-758 -522 0
-758 -523 0
-758 -524 0
-758 -525 0
-758 -526 0
-758 -527 0
-758 -528 0
-759 -33 0
-759 -37 0
-759 -38 0
-759 -39 0
-759 -40 0
-759 -41 0
-759 -42 0
-759 -43 0
-759 -44 0
-759 -45 0
-759 -46 0
-759 -47 0
-759 -48 0
-759 -321 0
-759 -325 0
-759 -326 0
-759 -327 0
-759 -328 0
-759 -329 0
-759 -330 0
-759 -331 0
-759 -332 0
-759 -333 0
-759 -334 0
-759 -335 0
-759 -336 0
-759 -513 0
-759 -517 0
-759 -518 0
-759 -519 0
-759 -520 0
-759 -521 0
-759 -522 0
-759 -523 0
-759 -524 0
-759 -525 0
-759 -526 0
-759 -527 0
-759 -528 0
-760 -33 0
-760 -34 0
-760 -38 0
-760 -39 0
-760 -40 0
-760 -41 0
-760 -42 0
-760 -43 0
-760 -44 0
-760 -45 0
-760 -46 0
-760 -47 0
-760 -48 0
-760 -321 0
-760 -322 0
-760 -326 0
-760 -327 0
-760 -328 0
-760 -329 0
-760 -330 0
-760 -331 0
-760 -332 0
-760 -333 0
-760 -334 0
-760 -335 0
-760 -336 0
-760 -513 0
-760 -514 0
-760 -518 0
-760 -519 0
-760 -520 0
-760 -521 0
-760 -522 0
-760 -523 0
-760 -524 0
-760 -525 0
-760 -526 0
-760 -527 0
-760 -528 0
-761 -33 0
-761 -34 0
-761 -35 0
-761 -39 0
-761 -40 0
-761 -41 0
-761 -42 0
-761 -43 0
-761 -44 0
-761 -45 0
-761 -46 0
-761 -47 0
-761 -48 0
-761 -321 0
-761 -322 0
-761 -323 0
-761 -327 0
-761 -328 0
-761 -329 0
-761 -330 0
-761 -331 0
-761 -332 0
-761 -333 0
-761 -334 0
-761 -335 0
-761 -336 0
-761 -513 0
-761 -514 0
-761 -515 0
-761 -519 0
-761 -520 0
-761 -521 0
-761 -522 0
-761 -523 0
-761 -524 0
-761 -525 0
-761 -526 0
-761 -527 0
-761 -528 0
-762 -33 0
-762 -34 0
-762 -35 0
-762 -36 0
-762 -40 0
-762 -41 0
-762 -42 0
-762 -43 0
-762 -44 0
-762 -45 0
-762 -46 0
-762 -47 0
-762 -48 0
-762 -321 0
-762 -322 0
-762 -323 0
-762 -324 0
-762 -328 0
-762 -329 0
-762 -330 0
-762 -331 0
-762 -332 0
-762 -333 0
-762 -334 0
-762 -335 0
-762 -336 0
-762 -513 0
-762 -514 0
-762 -515 0
-762 -516 0
-762 -520 0
-762 -521 0
-762 -522 0
-762 -523 0
-762 -524 0
-762 -525 0
-762 -526 0
-762 -527 0
-762 -528 0
-763 -33 0
-763 -34 0
-763 -35 0
-763 -36 0
-763 -37 0
-763 -41 0
-763 -42 0
-763 -43 0
-763 -44 0
-763 -45 0
-763 -46 0
-763 -47 0
-763 -48 0
-763 -321 0
-763 -322 0
-763 -323 0
-763 -324 0
-763 -325 0
-763 -329 0
-763 -330 0
-763 -331 0
-763 -332 0
-763 -333 0
-763 -334 0
-763 -335 0
-763 -336 0
-763 -513 0
-763 -514 0
-763 -515 0
-763 -516 0
-763 -517 0
-763 -521 0
-763 -522 0
-763 -523 0
-763 -524 0
-763 -525 0
-763 -526 0
-763 -527 0
-763 -528 0
-764 -33 0
-764 -34 0
-764 -35 0
-764 -36 0
-764 -37 0
-764 -38 0
-764 -42 0
-764 -43 0
-764 -44 0
-764 -45 0
-764 -46 0
-764 -47 0
-764 -48 0
-764 -321 0
-764 -322 0
-764 -323 0
-764 -324 0
-764 -325 0
-764 -326 0
-764 -330 0
-764 -331 0
-764 -332 0
-764 -333 0
-764 -334 0
-764 -335 0
-764 -336 0
-764 -513 0
-764 -514 0
-764 -515 0
-764 -516 0
-764 -517 0
-764 -518 0
-764 -522 0
-764 -523 0
-764 -524 0
-764 -525 0
-764 -526 0
-764 -527 0
-764 -528 0
-765 -33 0
-765 -34 0
-765 -35 0
-765 -36 0
-765 -37 0
-765 -38 0
-765 -39 0
-765 -43 0
-765 -44 0
-765 -45 0
-765 -46 0
-765 -47 0
-765 -48 0
-765 -321 0
-765 -322 0
-765 -323 0
-765 -324 0
-765 -325 0
-765 -326 0
-765 -327 0
-765 -331 0
-765 -332 0
-765 -333 0
-765 -334 0
-765 -335 0
-765 -336 0
-765 -513 0
-765 -514 0
-765 -515 0
-765 -516 0
-765 -517 0
-765 -518 0
-765 -519 0
-765 -523 0
-765 -524 0
-765 -525 0
-765 -526 0
-765 -527 0
-765 -528 0
-766 -33 0
-766 -34 0
-766 -35 0
-766 -36 0
-766 -37 0
-766 -38 0
-766 -39 0
-766 -40 0
-766 -44 0
-766 -45 0
-766 -46 0
-766 -47 0
-766 -48 0
-766 -321 0
-766 -322 0
-766 -323 0
-766 -324 0
-766 -325 0
-766 -326 0
-766 -327 0
-766 -328 0
-766 -332 0
-766 -333 0
-766 -334 0
-766 -335 0
-766 -336 0
-766 -513 0
-766 -514 0
-766 -515 0
-766 -516 0
-766 -517 0
-766 -518 0
-766 -519 0
-766 -520 0
-766 -524 0
-766 -525 0
-766 -526 0
-766 -527 0
-766 -528 0
-767 -33 0
-767 -34 0
-767 -35 0
-767 -36 0
-767 -37 0
-767 -38 0
-767 -39 0
-767 -40 0
-767 -41 0
-767 -45 0
-767 -46 0
-767 -47 0
-767 -48 0
-767 -321 0
-767 -322 0
-767 -323 0
-767 -324 0
-767 -325 0
-767 -326 0
-767 -327 0
-767 -328 0
-767 -329 0
-767 -333 0
-767 -334 0
-767 -335 0
-767 -336 0
-767 -513 0
-767 -514 0
-767 -515 0
-767 -516 0
-767 -517 0
-767 -518 0
-767 -519 0
-767 -520 0
-767 -521 0
-767 -525 0
-767 -526 0
-767 -527 0
-767 -528 0
-768 -33 0
-768 -34 0
-768 -35 0
-768 -36 0
-768 -37 0
-768 -38 0
-768 -39 0
-768 -40 0
-768 -41 0
-768 -42 0
-768 -46 0
-768 -47 0
-768 -48 0
-768 -321 0
-768 -322 0
-768 -323 0
-768 -324 0
-768 -325 0
-768 -326 0
-768 -327 0
-768 -328 0
-768 -329 0
-768 -330 0
-768 -334 0
-768 -335 0
-768 -336 0
-768 -513 0
-768 -514 0
-768 -515 0
-768 -516 0
-768 -517 0
-768 -518 0
-768 -519 0
-768 -520 0
-768 -521 0
-768 -522 0
-768 -526 0
-768 -527 0
-768 -528 0
-769 -33 0
-769 -34 0
-769 -35 0
-769 -36 0
-769 -37 0
-769 -38 0
-769 -39 0
-769 -40 0
-769 -41 0
-769 -42 0
-769 -43 0
-769 -47 0
-769 -48 0
-769 -321 0
-769 -322 0
-769 -323 0
-769 -324 0
-769 -325 0
-769 -326 0
-769 -327 0
-769 -328 0
-769 -329 0
-769 -330 0
-769 -331 0
-769 -335 0
-769 -336 0
-769 -513 0
-769 -514 0
-769 -515 0
-769 -516 0
-769 -517 0
-769 -518 0
-769 -519 0
-769 -520 0
-769 -521 0
-769 -522 0
-769 -523 0
-769 -527 0
-769 -528 0
-770 -33 0
-770 -34 0
-770 -35 0
-770 -36 0
-770 -37 0
-770 -38 0
-770 -39 0
-770 -40 0
-770 -41 0
-770 -42 0
-770 -43 0
-770 -44 0
-770 -48 0
-770 -321 0
-770 -322 0
-770 -323 0
-770 -324 0
-770 -325 0
-770 -326 0
-770 -327 0
-770 -328 0
-770 -329 0
-770 -330 0
-770 -331 0
-770 -332 0
-770 -336 0
-770 -513 0
-770 -514 0
-770 -515 0
-770 -516 0
-770 -517 0
-770 -518 0
-770 -519 0
-770 -520 0
-770 -521 0
-770 -522 0
-770 -523 0
-770 -524 0
-770 -528 0
-771 -33 0
-771 -34 0
-771 -35 0
-771 -36 0
-771 -37 0
-771 -38 0
-771 -39 0
-771 -40 0
-771 -41 0
-771 -42 0
-771 -43 0
-771 -44 0
-771 -45 0
-771 -321 0
-771 -322 0
-771 -323 0
-771 -324 0
-771 -325 0
-771 -326 0
-771 -327 0
-771 -328 0
-771 -329 0
-771 -330 0
-771 -331 0
-771 -332 0
-771 -333 0
-771 -513 0
-771 -514 0
-771 -515 0
-771 -516 0
-771 -517 0
-771 -518 0
-771 -519 0
-771 -520 0
-771 -521 0
-771 -522 0
-771 -523 0
-771 -524 0
-771 -525 0
-81 -177 0
-81 -369 0
-177 -369 0
-82 -178 0
-82 -370 0
-178 -370 0
-83 -179 0
-83 -371 0
-179 -371 0
-84 -180 0
-84 -372 0
-180 -372 0
-85 -181 0
-85 -373 0
-181 -373 0
-86 -182 0
-86 -374 0
-182 -374 0
-87 -183 0
-87 -375 0
-183 -375 0
-88 -184 0
-88 -376 0
-184 -376 0
-89 -185 0
-89 -377 0
-185 -377 0
-90 -186 0
-90 -378 0
-186 -378 0
-91 -187 0
-91 -379 0
-187 -379 0
-92 -188 0
-92 -380 0
-188 -380 0
-93 -189 0
-93 -381 0
-189 -381 0
-94 -190 0
-94 -382 0
-190 -382 0
-95 -191 0
-95 -383 0
-191 -383 0
-96 -192 0
-96 -384 0
-192 -384 0
772 773 774 775 776 777 778 779 780 781 782 783 784 785 0
-772 -773 0
-772 -774 0
-772 -775 0
-772 -776 0
-772 -777 0
-772 -778 0
-772 -779 0
-772 -780 0
-772 -781 0
-772 -782 0
-772 -783 0
-772 -784 0
-772 -785 0
-773 -774 0
-773 -775 0
-773 -776 0
-773 -777 0
-773 -778 0
-773 -779 0
-773 -780 0
-773 -781 0
-773 -782 0
-773 -783 0
-773 -784 0
-773 -785 0
-774 -775 0
-774 -776 0
-774 -777 0
-774 -778 0
-774 -779 0
-774 -780 0
-774 -781 0
-774 -782 0
-774 -783 0
-774 -784 0
-774 -785 0
-775 -776 0
-775 -777 0
-775 -778 0
-775 -779 0
-775 -780 0
-775 -781 0
-775 -782 0
-775 -783 0
-775 -784 0
-775 -785 0
-776 -777 0
-776 -778 0
-776 -779 0
-776 -780 0
-776 -781 0
-776 -782 0
-776 -783 0
-776 -784 0
-776 -785 0
-777 -778 0
-777 -779 0
-777 -780 0
-777 -781 0
-777 -782 0
-777 -783 0
-777 -784 0
-777 -785 0
-778 -779 0
-778 -780 0
-778 -781 0
-778 -782 0
-778 -783 0
-778 -784 0
-778 -785 0
-779 -780 0
-779 -781 0
-779 -782 0
-779 -783 0
-779 -784 0
-779 -785 0
-780 -781 0
-780 -782 0
-780 -783 0
-780 -784 0
-780 -785 0
-781 -782 0
-781 -783 0
-781 -784 0
-781 -785 0
-782 -783 0
-782 -784 0
-782 -785 0
-783 -784 0
-783 -785 0
-784 -785 0
-81 772 0
-82 772 773 0
-83 772 773 774 0
-84 773 774 775 0
-85 774 775 776 0
-86 775 776 777 0
-87 776 777 778 0
-88 777 778 779 0
-89 778 779 780 0
-90 779 780 781 0
-91 780 781 782 0
-92 781 782 783 0
-93 782 783 784 0
-94 783 784 785 0
-95 784 785 0
-96 785 0
-177 772 0
-178 772 773 0
-179 772 773 774 0
-180 773 774 775 0
-181 774 775 776 0
-182 775 776 777 0
-183 776 777 778 0
-184 777 778 779 0
-185 778 779 780 0
-186 779 780 781 0
-187 780 781 782 0
-188 781 782 783 0
-189 782 783 784 0
-190 783 784 785 0
-191 784 785 0
-192 785 0
-369 772 0
-370 772 773 0
-371 772 773 774 0
-372 773 774 775 0
-373 774 775 776 0
-374 775 776 777 0
-375 776 777 778 0
-376 777 778 779 0
-377 778 779 780 0
-378 779 780 781 0
-379 780 781 782 0
-380 781 782 783 0
-381 782 783 784 0
-382 783 784 785 0
-383 784 785 0
-384 785 0
-772 -84 0
-772 -85 0
-772 -86 0
-772 -87 0
-772 -88 0
-772 -89 0
-772 -90 0
-772 -91 0
-772 -92 0
-772 -93 0
-772 -94 0
-772 -95 0
-772 -96 0
-772 -180 0
-772 -181 0
-772 -182 0
-772 -183 0
-772 -184 0
-772 -185 0
-772 -186 0
-772 -187 0
-772 -188 0
-772 -189 0
-772 -190 0
-772 -191 0
-772 -192 0
-772 -372 0
-772 -373 0
-772 -374 0
-772 -375 0
-772 -376 0
-772 -377 0
-772 -378 0
-772 -379 0
-772 -380 0
-772 -381 0
-772 -382 0
-772 -383 0
-772 -384 0
-773 -81 0
-773 -85 0
-773 -86 0
-773 -87 0
-773 -88 0
-773 -89 0
-773 -90 0
-773 -91 0
-773 -92 0
-773 -93 0
-773 -94 0
-773 -95 0
-773 -96 0
-773 -177 0
-773 -181 0
-773 -182 0
-773 -183 0
-773 -184 0
-773 -185 0
-773 -186 0
-773 -187 0
-773 -188 0
-773 -189 0
-773 -190 0
-773 -191 0
-773 -192 0
-773 -369 0
-773 -373 0
-773 -374 0
-773 -375 0
-773 -376 0
-773 -377 0
-773 -378 0
-773 -379 0
-773 -380 0
-773 -381 0
-773 -382 0
-773 -383 0
-773 -384 0
-774 -81 0
-774 -82 0
-774 -86 0
-774 -87 0
-774 -88 0
-774 -89 0
-774 -90 0
-774 -91 0
-774 -92 0
-774 -93 0
-774 -94 0
-774 -95 0
-774 -96 0
-774 -177 0
-774 -178 0
-774 -182 0
-774 -183 0
-774 -184 0
-774 -185 0
-774 -186 0
-774 -187 0
-774 -188 0
-774 -189 0
-774 -190 0
-774 -191 0
-774 -192 0
-774 -369 0
-774 -370 0
-774 -374 0
-774 -375 0
-774 -376 0
-774 -377 0
-774 -378 0
-774 -379 0
-774 -380 0
-774 -381 0
-774 -382 0
-774 -383 0
-774 -384 0
-775 -81 0
-775 -82 0
-775 -83 0
-775 -87 0
-775 -88 0
-775 -89 0
-775 -90 0
-775 -91 0
-775 -92 0
-775 -93 0
-775 -94 0
-775 -95 0
-775 -96 0
-775 -177 0
-775 -178 0
-775 -179 0
-775 -183 0
-775 -184 0
-775 -185 0
-775 -186 0
-775 -187 0
-775 -188 0
-775 -189 0
-775 -190 0
-775 -191 0
-775 -192 0
-775 -369 0
-775 -370 0
-775 -371 0
-775 -375 0
-775 -376 0
-775 -377 0
-775 -378 0
-775 -379 0
-775 -380 0
-775 -381 0
-775 -382 0
-775 -383 0
-775 -384 0
-776 -81 0
-776 -82 0
-776 -83 0
-776 -84 0
-776 -88 0
-776 -89 0
-776 -90 0
-776 -91 0
-776 -92 0
-776 -93 0
-776 -94 0
-776 -95 0
-776 -96 0
-776 -177 0
-776 -178 0
-776 -179 0
-776 -180 0
-776 -184 0
-776 -185 0
-776 -186 0
-776 -187 0
-776 -188 0
-776 -189 0
-776 -190 0
-776 -191 0
-776 -192 0
-776 -369 0
-776 -370 0
-776 -371 0
-776 -372 0
-776 -376 0
-776 -377 0
-776 -378 0
-776 -379 0
-776 -380 0
-776 -381 0
-776 -382 0
-776 -383 0
-776 -384 0
-777 -81 0
-777 -82 0
-777 -83 0
-777 -84 0
-777 -85 0
-777 -89 0
-777 -90 0
-777 -91 0
-777 -92 0
-777 -93 0
-777 -94 0
-777 -95 0
-777 -96 0
-777 -177 0
-777 -178 0
-777 -179 0
-777 -180 0
-777 -181 0
-777 -185 0
-777 -186 0
-777 -187 0
-777 -188 0
-777 -189 0
-777 -190 0
-777 -191 0
-777 -192 0
-777 -369 0
-777 -370 0
-777 -371 0
-777 -372 0
-777 -373 0
-777 -377 0
-777 -378 0
-777 -379 0
-777 -380 0
-777 -381 0
-777 -382 0
-777 -383 0
-777 -384 0
-778 -81 0
-778 -82 0
-778 -83 0
-778 -84 0
-778 -85 0
-778 -86 0
-778 -90 0
-778 -91 0
-778 -92 0
-778 -93 0
-778 -94 0
-778 -95 0
-778 -96 0
-778 -177 0
-778 -178 0
-778 -179 0
-778 -180 0
-778 -181 0
-778 -182 0
-778 -186 0
-778 -187 0
-778 -188 0
-778 -189 0
-778 -190 0
-778 -191 0
-778 -192 0
-778 -369 0
-778 -370 0
-778 -371 0
-778 -372 0
-778 -373 0
-778 -374 0
-778 -378 0
-778 -379 0
-778 -380 0
-778 -381 0
-778 -382 0
-778 -383 0
-778 -384 0
-779 -81 0
-779 -82 0
-779 -83 0
-779 -84 0
-779 -85 0
-779 -86 0
-779 -87 0
-779 -91 0
-779 -92 0
-779 -93 0
-779 -94 0
-779 -95 0
-779 -96 0
-779 -177 0
-779 -178 0
-779 -179 0
-779 -180 0
-779 -181 0
-779 -182 0
-779 -183 0
-779 -187 0
-779 -188 0
-779 -189 0
-779 -190 0
-779 -191 0
-779 -192 0
-779 -369 0
-779 -370 0
-779 -371 0
-779 -372 0
-779 -373 0
-779 -374 0
-779 -375 0
-779 -379 0
-779 -380 0
-779 -381 0
-779 -382 0
-779 -383 0
-779 -384 0
-780 -81 0
-780 -82 0
-780 -83 0
-780 -84 0
-780 -85 0
-780 -86 0
-780 -87 0
-780 -88 0
-780 -92 0
-780 -93 0
-780 -94 0
-780 -95 0
-780 -96 0
-780 -177 0
-780 -178 0
-780 -179 0
-780 -180 0
-780 -181 0
-780 -182 0
-780 -183 0
-780 -184 0
-780 -188 0
-780 -189 0
-780 -190 0
-780 -191 0
-780 -192 0
-780 -369 0
-780 -370 0
-780 -371 0
-780 -372 0
-780 -373 0
-780 -374 0
-780 -375 0
-780 -376 0
-780 -380 0
-780 -381 0
-780 -382 0
-780 -383 0
-780 -384 0
-781 -81 0
-781 -82 0
-781 -83 0
-781 -84 0
-781 -85 0
-781 -86 0
-781 -87 0
-781 -88 0
-781 -89 0
-781 -93 0
-781 -94 0
-781 -95 0
-781 -96 0
-781 -177 0
-781 -178 0
-781 -179 0
-781 -180 0
-781 -181 0
-781 -182 0
-781 -183 0
-781 -184 0
-781 -185 0
-781 -189 0
-781 -190 0
-781 -191 0
-781 -192 0
-781 -369 0
-781 -370 0
-781 -371 0
-781 -372 0
-781 -373 0
-781 -374 0
-781 -375 0
-781 -376 0
-781 -377 0
-781 -381 0
-781 -382 0
-781 -383 0
-781 -384 0
-782 -81 0
-782 -82 0
-782 -83 0
-782 -84 0
-782 -85 0
-782 -86 0
-782 -87 0
-782 -88 0
-782 -89 0
-782 -90 0
-782 -94 0
-782 -95 0
-782 -96 0
-782 -177 0
-782 -178 0
-782 -179 0
-782 -180 0
-782 -181 0
-782 -182 0
-782 -183 0
-782 -184 0
-782 -185 0
-782 -186 0
-782 -190 0
-782 -191 0
-782 -192 0
-782 -369 0
-782 -370 0
-782 -371 0
-782 -372 0
-782 -373 0
-782 -374 0
-782 -375 0
-782 -376 0
-782 -377 0
-782 -378 0
-782 -382 0
-782 -383 0
-782 -384 0
-783 -81 0
-783 -82 0
-783 -83 0
-783 -84 0
-783 -85 0
-783 -86 0
-783 -87 0
-783 -88 0
-783 -89 0
-783 -90 0
-783 -91 0
-783 -95 0
-783 -96 0
-783 -177 0
-783 -178 0
-783 -179 0
-783 -180 0
-783 -181 0
-783 -182 0
-783 -183 0
-783 -184 0
-783 -185 0
-783 -186 0
-783 -187 0
-783 -191 0
-783 -192 0
-783 -369 0
-783 -370 0
-783 -371 0
-783 -372 0
-783 -373 0
-783 -374 0
-783 -375 0
-783 -376 0
-783 -377 0
-783 -378 0
-783 -379 0
-783 -383 0
-783 -384 0
-784 -81 0
-784 -82 0
-784 -83 0
-784 -84 0
-784 -85 0
-784 -86 0
-784 -87 0
-784 -88 0
-784 -89 0
-784 -90 0
-784 -91 0
-784 -92 0
-784 -96 0
-784 -177 0
-784 -178 0
-784 -179 0
-784 -180 0
-784 -181 0
-784 -182 0
-784 -183 0
-784 -184 0
-784 -185 0
-784 -186 0
-784 -187 0
-784 -188 0
-784 -192 0
-784 -369 0
-784 -370 0
-784 -371 0
-784 -372 0
-784 -373 0
-784 -374 0
-784 -375 0
-784 -376 0
-784 -377 0
-784 -378 0
-784 -379 0
-784 -380 0
-784 -384 0
-785 -81 0
-785 -82 0
-785 -83 0
-785 -84 0
-785 -85 0
-785 -86 0
-785 -87 0
-785 -88 0
-785 -89 0
-785 -90 0
-785 -91 0
-785 -92 0
-785 -93 0
-785 -177 0
-785 -178 0
-785 -179 0
-785 -180 0
-785 -181 0
-785 -182 0
-785 -183 0
-785 -184 0
-785 -185 0
-785 -186 0
-785 -187 0
-785 -188 0
-785 -189 0
-785 -369 0
-785 -370 0
-785 -371 0
-785 -372 0
-785 -373 0
-785 -374 0
-785 -375 0
-785 -376 0
-785 -377 0
-785 -378 0
-785 -379 0
-785 -380 0
-785 -381 0
-129 -225 0
-129 -417 0
-225 -417 0
-130 -226 0
-130 -418 0
-226 -418 0
-131 -227 0
-131 -419 0
-227 -419 0
-132 -228 0
-132 -420 0
-228 -420 0
-133 -229 0
-133 -421 0
-229 -421 0
-134 -230 0
-134 -422 0
-230 -422 0
-135 -231 0
-135 -423 0
-231 -423 0
-136 -232 0
-136 -424 0
-232 -424 0
-137 -233 0
-137 -425 0
-233 -425 0
-138 -234 0
-138 -426 0
-234 -426 0
-139 -235 0
-139 -427 0
-235 -427 0
-140 -236 0
-140 -428 0
-236 -428 0
-141 -237 0
-141 -429 0
-237 -429 0
-142 -238 0
-142 -430 0
-238 -430 0
-143 -239 0
-143 -431 0
-239 -431 0
-144 -240 0
-144 -432 0
-240 -432 0
786 787 788 789 790 791 792 793 794 795 796 797 798 799 0
-786 -787 0
-786 -788 0
-786 -789 0
-786 -790 0
-786 -791 0
-786 -792 0
-786 -793 0
-786 -794 0
-786 -795 0
-786 -796 0
-786 -797 0
-786 -798 0
-786 -799 0
-787 -788 0
-787 -789 0
-787 -790 0
-787 -791 0
-787 -792 0
-787 -793 0
-787 -794 0
-787 -795 0
-787 -796 0
-787 -797 0
-787 -798 0
-787 -799 0
-788 -789 0
-788 -790 0
-788 -791 0
-788 -792 0
-788 -793 0
-788 -794 0
-788 -795 0
-788 -796 0
-788 -797 0
-788 -798 0
-788 -799 0
-789 -790 0
-789 -791 0
-789 -792 0
-789 -793 0
-789 -794 0
-789 -795 0
-789 -796 0
-789 -797 0
-789 -798 0
-789 -799 0
-790 -791 0
-790 -792 0
-790 -793 0
-790 -794 0
-790 -795 0
-790 -796 0
-790 -797 0
-790 -798 0
-790 -799 0
-791 -792 0
-791 -793 0
-791 -794 0
-791 -795 0
-791 -796 0
-791 -797 0
-791 -798 0
-791 -799 0
-792 -793 0
-792 -794 0
-792 -795 0
-792 -796 0
-792 -797 0
-792 -798 0
-792 -799 0
-793 -794 0
-793 -795 0
-793 -796 0
-793 -797 0
-793 -798 0
-793 -799 0
-794 -795 0
-794 -796 0
-794 -797 0
-794 -798 0
-794 -799 0
-795 -796 0
-795 -797 0
-795 -798 0
-795 -799 0
-796 -797 0
-796 -798 0
-796 -799 0
-797 -798 0
-797 -799 0
-798 -799 0
-129 786 0
-130 786 787 0
-131 786 787 788 0
-132 787 788 789 0
-133 788 789 790 0
-134 789 790 791 0
-135 790 791 792 0
-136 791 792 793 0
-137 792 793 794 0
-138 793 794 795 0
-139 794 795 796 0
-140 795 796 797 0
-141 796 797 798 0
-142 797 798 799 0
-143 798 799 0
-144 799 0
-225 786 0
-226 786 787 0
-227 786 787 788 0
-228 787 788 789 0
-229 788 789 790 0
-230 789 790 791 0
-231 790 791 792 0
-232 791 792 793 0
-233 792 793 794 0
-234 793 794 795 0
-235 794 795 796 0
-236 795 796 797 0
-237 796 797 798 0
-238 797 798 799 0
-239 798 799 0
-240 799 0
-417 786 0
-418 786 787 0
-419 786 787 788 0
-420 787 788 789 0
-421 788 789 790 0
-422 789 790 791 0
-423 790 791 792 0
-424 791 792 793 0
-425 792 793 794 0
-426 793 794 795 0
-427 794 795 796 0
-428 795 796 797 0
-429 796 797 798 0
-430 797 798 799 0
-431 798 799 0
-432 799 0
-786 -132 0
-786 -133 0
-786 -134 0
-786 -135 0
-786 -136 0
-786 -137 0
-786 -138 0
-786 -139 0
-786 -140 0
-786 -141 0
-786 -142 0
-786 -143 0
-786 -144 0
-786 -228 0
-786 -229 0
-786 -230 0
-786 -231 0
-786 -232 0
-786 -233 0
-786 -234 0
-786 -235 0
-786 -236 0
-786 -237 0
-786 -238 0
-786 -239 0
-786 -240 0
-786 -420 0
-786 -421 0
-786 -422 0
-786 -423 0
-786 -424 0
-786 -425 0
-786 -426 0
-786 -427 0
-786 -428 0
-786 -429 0
-786 -430 0
-786 -431 0
-786 -432 0
-787 -129 0
-787 -133 0
-787 -134 0
-787 -135 0
-787 -136 0
-787 -137 0
-787 -138 0
-787 -139 0
-787 -140 0
-787 -141 0
-787 -142 0
-787 -143 0
-787 -144 0
-787 -225 0
-787 -229 0
-787 -230 0
-787 -231 0
-787 -232 0
-787 -233 0
-787 -234 0
-787 -235 0
-787 -236 0
-787 -237 0
-787 -238 0
-787 -239 0
-787 -240 0
-787 -417 0
-787 -421 0
-787 -422 0
-787 -423 0
-787 -424 0
-787 -425 0
-787 -426 0
-787 -427 0
-787 -428 0
-787 -429 0
-787 -430 0
-787 -431 0
-787 -432 0
-788 -129 0
-788 -130 0
-788 -134 0
-788 -135 0
-788 -136 0
-788 -137 0
-788 -138 0
-788 -139 0
-788 -140 0
-788 -141 0
-788 -142 0
-788 -143 0
-788 -144 0
-788 -225 0
-788 -226 0
-788 -230 0
-788 -231 0
-788 -232 0
-788 -233 0
-788 -234 0
-788 -235 0
-788 -236 0
-788 -237 0
-788 -238 0
-788 -239 0
-788 -240 0
-788 -417 0
-788 -418 0
-788 -422 0
-788 -423 0
-788 -424 0
-788 -425 0
-788 -426 0
-788 -427 0
-788 -428 0
-788 -429 0
-788 -430 0
-788 -431 0
-788 -432 0
-789 -129 0
-789 -130 0
-789 -131 0
-789 -135 0
-789 -136 0
-789 -137 0
-789 -138 0
-789 -139 0
-789 -140 0
-789 -141 0
-789 -142 0
-789 -143 0
-789 -144 0
-789 -225 0
-789 -226 0
-789 -227 0
-789 -231 0
-789 -232 0
-789 -233 0
-789 -234 0
-789 -235 0
-789 -236 0
-789 -237 0
-789 -238 0
-789 -239 0
-789 -240 0
-789 -417 0
-789 -418 0
-789 -419 0
-789 -423 0
-789 -424 0
-789 -425 0
-789 -426 0
-789 -427 0
-789 -428 0
-789 -429 0
-789 -430 0
-789 -431 0
-789 -432 0
-790 -129 0
-790 -130 0
-790 -131 0
-790 -132 0
-790 -136 0
-790 -137 0
-790 -138 0
-790 -139 0
-790 -140 0
-790 -141 0
-790 -142 0
-790 -143 0
-790 -144 0
-790 -225 0
-790 -226 0
-790 -227 0
-790 -228 0
-790 -232 0
-790 -233 0
-790 -234 0
-790 -235 0
-790 -236 0
-790 -237 0
-790 -238 0
-790 -239 0
-790 -240 0
-790 -417 0
-790 -418 0
-790 -419 0
-790 -420 0
-790 -424 0
-790 -425 0
-790 -426 0
-790 -427 0
-790 -428 0
-790 -429 0
-790 -430 0
-790 -431 0
-790 -432 0
-791 -129 0
-791 -130 0
-791 -131 0
-791 -132 0
-791 -133 0
-791 -137 0
-791 -138 0
-791 -139 0
-791 -140 0
-791 -141 0
-791 -142 0
-791 -143 0
-791 -144 0
-791 -225 0
-791 -226 0
-791 -227 0
-791 -228 0
-791 -229 0
-791 -233 0
-791 -234 0
-791 -235 0
-791 -236 0
-791 -237 0
-791 -238 0
-791 -239 0
-791 -240 0
-791 -417 0
-791 -418 0
-791 -419 0
-791 -420 0
-791 -421 0
-791 -425 0
-791 -426 0
-791 -427 0
-791 -428 0
-791 -429 0
-791 -430 0
-791 -431 0
-791 -432 0
-792 -129 0
-792 -130 0
-792 -131 0
-792 -132 0
-792 -133 0
-792 -134 0
-792 -138 0
-792 -139 0
-792 -140 0
-792 -141 0
-792 -142 0
-792 -143 0
-792 -144 0
-792 -225 0
-792 -226 0
-792 -227 0
-792 -228 0
-792 -229 0
-792 -230 0
-792 -234 0
-792 -235 0
-792 -236 0
-792 -237 0
-792 -238 0
-792 -239 0
-792 -240 0
-792 -417 0
-792 -418 0
-792 -419 0
-792 -420 0
-792 -421 0
-792 -422 0
-792 -426 0
-792 -427 0
-792 -428 0
-792 -429 0
-792 -430 0
-792 -431 0
-792 -432 0
-793 -129 0
-793 -130 0
-793 -131 0
-793 -132 0
-793 -133 0
-793 -134 0
-793 -135 0
-793 -139 0
-793 -140 0
-793 -141 0
-793 -142 0
-793 -143 0
-793 -144 0
-793 -225 0
-793 -226 0
-793 -227 0
-793 -228 0
-793 -229 0
-793 -230 0
-793 -231 0
-793 -235 0
-793 -236 0
-793 -237 0
-793 -238 0
-793 -239 0
-793 -240 0
-793 -417 0
-793 -418 0
-793 -419 0
-793 -420 0
-793 -421 0
-793 -422 0
-793 -423 0
-793 -427 0
-793 -428 0
-793 -429 0
-793 -430 0
-793 -431 0
-793 -432 0
-794 -129 0
-794 -130 0
-794 -131 0
-794 -132 0
-794 -133 0
-794 -134 0
-794 -135 0
-794 -136 0
-794 -140 0
-794 -141 0
-794 -142 0
-794 -143 0
-794 -144 0
-794 -225 0
-794 -226 0
-794 -227 0
-794 -228 0
-794 -229 0
-794 -230 0
-794 -231 0
-794 -232 0
-794 -236 0
-794 -237 0
-794 -238 0
-794 -239 0
-794 -240 0
-794 -417 0
-794 -418 0
-794 -419 0
-794 -420 0
-794 -421 0
-794 -422 0
-794 -423 0
-794 -424 0
-794 -428 0
-794 -429 0
-794 -430 0
-794 -431 0
-794 -432 0
-795 -129 0
-795 -130 0
-795 -131 0
-795 -132 0
-795 -133 0
-795 -134 0
-795 -135 0
-795 -136 0
-795 -137 0
-795 -141 0
-795 -142 0
-795 -143 0
-795 -144 0
-795 -225 0
-795 -226 0
-795 -227 0
-795 -228 0
-795 -229 0
-795 -230 0
-795 -231 0
-795 -232 0
-795 -233 0
-795 -237 0
-795 -238 0
-795 -239 0
-795 -240 0
-795 -417 0
-795 -418 0
-795 -419 0
-795 -420 0
-795 -421 0
-795 -422 0
-795 -423 0
-795 -424 0
-795 -425 0
-795 -429 0
-795 -430 0
-795 -431 0
-795 -432 0
-796 -129 0
-796 -130 0
-796 -131 0
-796 -132 0
-796 -133 0
-796 -134 0
-796 -135 0
-796 -136 0
-796 -137 0
-796 -138 0
-796 -142 0
-796 -143 0
-796 -144 0
-796 -225 0
-796 -226 0
-796 -227 0
-796 -228 0
-796 -229 0
-796 -230 0
-796 -231 0
-796 -232 0
-796 -233 0
-796 -234 0
-796 -238 0
-796 -239 0
-796 -240 0
-796 -417 0
-796 -418 0
-796 -419 0
-796 -420 0
-796 -421 0
-796 -422 0
-796 -423 0
-796 -424 0
-796 -425 0
-796 -426 0
-796 -430 0
-796 -431 0
-796 -432 0
-797 -129 0
-797 -130 0
-797 -131 0
-797 -132 0
-797 -133 0
-797 -134 0
-797 -135 0
-797 -136 0
-797 -137 0
-797 -138 0
-797 -139 0
-797 -143 0
-797 -144 0
-797 -225 0
-797 -226 0
-797 -227 0
-797 -228 0
-797 -229 0
-797 -230 0
-797 -231 0
-797 -232 0
-797 -233 0
-797 -234 0
-797 -235 0
-797 -239 0
-797 -240 0
-797 -417 0
-797 -418 0
-797 -419 0
-797 -420 0
-797 -421 0
-797 -422 0
-797 -423 0
-797 -424 0
-797 -425 0
-797 -426 0
-797 -427 0
-797 -431 0
-797 -432 0
-798 -129 0
-798 -130 0
-798 -131 0
-798 -132 0
-798 -133 0
-798 -134 0
-798 -135 0
-798 -136 0
-798 -137 0
-798 -138 0
-798 -139 0
-798 -140 0
-798 -144 0
-798 -225 0
-798 -226 0
-798 -227 0
-798 -228 0
-798 -229 0
-798 -230 0
-798 -231 0
-798 -232 0
-798 -233 0
-798 -234 0
-798 -235 0
-798 -236 0
-798 -240 0
-798 -417 0
-798 -418 0
-798 -419 0
-798 -420 0
-798 -421 0
-798 -422 0
-798 -423 0
-798 -424 0
-798 -425 0
-798 -426 0
-798 -427 0
-798 -428 0
-798 -432 0
-799 -129 0
-799 -130 0
-799 -131 0
-799 -132 0
-799 -133 0
-799 -134 0
-799 -135 0
-799 -136 0
-799 -137 0
-799 -138 0
-799 -139 0
-799 -140 0
-799 -141 0
-799 -225 0
-799 -226 0
-799 -227 0
-799 -228 0
-799 -229 0
-799 -230 0
-799 -231 0
-799 -232 0
-799 -233 0
-799 -234 0
-799 -235 0
-799 -236 0
-799 -237 0
-799 -417 0
-799 -418 0
-799 -419 0
-799 -420 0
-799 -421 0
-799 -422 0
-799 -423 0
-799 -424 0
-799 -425 0
-799 -426 0
-799 -427 0
-799 -428 0
-799 -429 0
1 17 33 49 65 81 97 113 129 145 161 177 193 209 225 241 257 273 289 305 321 337 353 369 385 401 417 433 449 465 481 497 513 529 0
2 18 34 50 66 82 98 114 130 146 162 178 194 210 226 242 258 274 290 306 322 338 354 370 386 402 418 434 450 466 482 498 514 530 0
3 19 35 51 67 83 99 115 131 147 163 179 195 211 227 243 259 275 291 307 323 339 355 371 387 403 419 435 451 467 483 499 515 531 0
4 20 36 52 68 84 100 116 132 148 164 180 196 212 228 244 260 276 292 308 324 340 356 372 388 404 420 436 452 468 484 500 516 532 0
5 21 37 53 69 85 101 117 133 149 165 181 197 213 229 245 261 277 293 309 325 341 357 373 389 405 421 437 453 469 485 501 517 533 0
6 22 38 54 70 86 102 118 134 150 166 182 198 214 230 246 262 278 294 310 326 342 358 374 390 406 422 438 454 470 486 502 518 534 0
7 23 39 55 71 87 103 119 135 151 167 183 199 215 231 247 263 279 295 311 327 343 359 375 391 407 423 439 455 471 487 503 519 535 0
8 24 40 56 72 88 104 120 136 152 168 184 200 216 232 248 264 280 296 312 328 344 360 376 392 408 424 440 456 472 488 504 520 536 0
9 25 41 57 73 89 105 121 137 153 169 185 201 217 233 249 265 281 297 313 329 345 361 377 393 409 425 441 457 473 489 505 521 537 0
10 26 42 58 74 90 106 122 138 154 170 186 202 218 234 250 266 282 298 314 330 346 362 378 394 410 426 442 458 474 490 506 522 538 0
11 27 43 59 75 91 107 123 139 155 171 187 203 219 235 251 267 283 299 315 331 347 363 379 395 411 427 443 459 475 491 507 523 539 0
12 28 44 60 76 92 108 124 140 156 172 188 204 220 236 252 268 284 300 316 332 348 364 380 396 412 428 444 460 476 492 508 524 540 0
13 29 45 61 77 93 109 125 141 157 173 189 205 221 237 253 269 285 301 317 333 349 365 381 397 413 429 445 461 477 493 509 525 541 0
14 30 46 62 78 94 110 126 142 158 174 190 206 222 238 254 270 286 302 318 334 350 366 382 398 414 430 446 462 478 494 510 526 542 0
15 31 47 63 79 95 111 127 143 159 175 191 207 223 239 255 271 287 303 319 335 351 367 383 399 415 431 447 463 479 495 511 527 543 0
16 32 48 64 80 96 112 128 144 160 176 192 208 224 240 256 272 288 304 320 336 352 368 384 400 416 432 448 464 480 496 512 528 544 0
