p cnf 905 24663
1 2 3 4 5 6 7 8 9 10 11 12 13 14 15 16 17 18 0
-1 -2 0
-1 -3 0
-1 -4 0
-1 -5 0
-1 -6 0
-1 -7 0
-1 -8 0
-1 -9 0
-1 -10 0
-1 -11 0
-1 -12 0
-1 -13 0
-1 -14 0
-1 -15 0
-1 -16 0
-1 -17 0
-1 -18 0
-2 -3 0
-2 -4 0
-2 -5 0
-2 -6 0
-2 -7 0
-2 -8 0
-2 -9 0
-2 -10 0
-2 -11 0
-2 -12 0
-2 -13 0
-2 -14 0
-2 -15 0
-2 -16 0
-2 -17 0
-2 -18 0
-3 -4 0
-3 -5 0
-3 -6 0
-3 -7 0
-3 -8 0
-3 -9 0
-3 -10 0
-3 -11 0
-3 -12 0
-3 -13 0
-3 -14 0
-3 -15 0
-3 -16 0
-3 -17 0
-3 -18 0
-4 -5 0
-4 -6 0
-4 -7 0
-4 -8 0
-4 -9 0
-4 -10 0
-4 -11 0
-4 -12 0
-4 -13 0
-4 -14 0
-4 -15 0
-4 -16 0
-4 -17 0
-4 -18 0
-5 -6 0
-5 -7 0
-5 -8 0
-5 -9 0
-5 -10 0
-5 -11 0
-5 -12 0
-5 -13 0
-5 -14 0
-5 -15 0
-5 -16 0
-5 -17 0
-5 -18 0
-6 -7 0
-6 -8 0
-6 -9 0
-6 -10 0
-6 -11 0
-6 -12 0
-6 -13 0
-6 -14 0
-6 -15 0
-6 -16 0
-6 -17 0
-6 -18 0
-7 -8 0
-7 -9 0
-7 -10 0
-7 -11 0
-7 -12 0
-7 -13 0
-7 -14 0
-7 -15 0
-7 -16 0
-7 -17 0
-7 -18 0
-8 -9 0
-8 -10 0
-8 -11 0
-8 -12 0
-8 -13 0
-8 -14 0
-8 -15 0
-8 -16 0
-8 -17 0
-8 -18 0
-9 -10 0
-9 -11 0
-9 -12 0
-9 -13 0
-9 -14 0
-9 -15 0
-9 -16 0
-9 -17 0
-9 -18 0
-10 -11 0
-10 -12 0
-10 -13 0
-10 -14 0
-10 -15 0
-10 -16 0
-10 -17 0
-10 -18 0
-11 -12 0
-11 -13 0
-11 -14 0
-11 -15 0
-11 -16 0
-11 -17 0
-11 -18 0
-12 -13 0
-12 -14 0
-12 -15 0
-12 -16 0
-12 -17 0
-12 -18 0
-13 -14 0
-13 -15 0
-13 -16 0
-13 -17 0
-13 -18 0
-14 -15 0
-14 -16 0
-14 -17 0
-14 -18 0
-15 -16 0
-15 -17 0
-15 -18 0
-16 -17 0
-16 -18 0
-17 -18 0
19 20 21 22 23 24 25 26 27 28 29 30 31 32 33 34 35 36 0
-19 -20 0
-19 -21 0
-19 -22 0
-19 -23 0
-19 -24 0
-19 -25 0
-19 -26 0
-19 -27 0
-19 -28 0
-19 -29 0
-19 -30 0
-19 -31 0
-19 -32 0
-19 -33 0
-19 -34 0
-19 -35 0
-19 -36 0
-20 -21 0
-20 -22 0
-20 -23 0
-20 -24 0
-20 -25 0
-20 -26 0
-20 -27 0
-20 -28 0
-20 -29 0
-20 -30 0
-20 -31 0
-20 -32 0
-20 -33 0
-20 -34 0
-20 -35 0
-20 -36 0
-21 -22 0
-21 -23 0
-21 -24 0
-21 -25 0
-21 -26 0
-21 -27 0
-21 -28 0
-21 -29 0
-21 -30 0
-21 -31 0
-21 -32 0
-21 -33 0
-21 -34 0
-21 -35 0
-21 -36 0
-22 -23 0
-22 -24 0
-22 -25 0
-22 -26 0
-22 -27 0
-22 -28 0
-22 -29 0
-22 -30 0
-22 -31 0
-22 -32 0
-22 -33 0
-22 -34 0
-22 -35 0
-22 -36 0
-23 -24 0
-23 -25 0
-23 -26 0
-23 -27 0
-23 -28 0
-23 -29 0
-23 -30 0
-23 -31 0
-23 -32 0
-23 -33 0
-23 -34 0
-23 -35 0
-23 -36 0
-24 -25 0
-24 -26 0
-24 -27 0
-24 -28 0
-24 -29 0
-24 -30 0
-24 -31 0
-24 -32 0
-24 -33 0
-24 -34 0
-24 -35 0
-24 -36 0
-25 -26 0
-25 -27 0
-25 -28 0
-25 -29 0
-25 -30 0
-25 -31 0
-25 -32 0
-25 -33 0
-25 -34 0
-25 -35 0
-25 -36 0
-26 -27 0
-26 -28 0
-26 -29 0
-26 -30 0
-26 -31 0
-26 -32 0
-26 -33 0
-26 -34 0
-26 -35 0
-26 -36 0
-27 -28 0
-27 -29 0
-27 -30 0
-27 -31 0
-27 -32 0
-27 -33 0
-27 -34 0
-27 -35 0
-27 -36 0
-28 -29 0
-28 -30 0
-28 -31 0
-28 -32 0
-28 -33 0
-28 -34 0
-28 -35 0
-28 -36 0
-29 -30 0
-29 -31 0
-29 -32 0
-29 -33 0
-29 -34 0
-29 -35 0
-29 -36 0
-30 -31 0
-30 -32 0
-30 -33 0
-30 -34 0
-30 -35 0
-30 -36 0
-31 -32 0
-31 -33 0
-31 -34 0
-31 -35 0
-31 -36 0
-32 -33 0
-32 -34 0
-32 -35 0
-32 -36 0
-33 -34 0
-33 -35 0
-33 -36 0
-34 -35 0
-34 -36 0
-35 -36 0
37 38 39 40 41 42 43 44 45 46 47 48 49 50 51 52 53 54 0
-37 -38 0
-37 -39 0
-37 -40 0
-37 -41 0
-37 -42 0
-37 -43 0
-37 -44 0
-37 -45 0
-37 -46 0
-37 -47 0
-37 -48 0
-37 -49 0
-37 -50 0
-37 -51 0
-37 -52 0
-37 -53 0
-37 -54 0
-38 -39 0
-38 -40 0
-38 -41 0
-38 -42 0
-38 -43 0
-38 -44 0
-38 -45 0
-38 -46 0
-38 -47 0
-38 -48 0
-38 -49 0
-38 -50 0
-38 -51 0
-38 -52 0
-38 -53 0
-38 -54 0
-39 -40 0
-39 -41 0
-39 -42 0
-39 -43 0
-39 -44 0
-39 -45 0
-39 -46 0
-39 -47 0
-39 -48 0
-39 -49 0
-39 -50 0
-39 -51 0
-39 -52 0
-39 -53 0
-39 -54 0
-40 -41 0
-40 -42 0
-40 -43 0
-40 -44 0
-40 -45 0
-40 -46 0
-40 -47 0
-40 -48 0
-40 -49 0
-40 -50 0
-40 -51 0
-40 -52 0
-40 -53 0
-40 -54 0
-41 -42 0
-41 -43 0
-41 -44 0
-41 -45 0
-41 -46 0
-41 -47 0
-41 -48 0
-41 -49 0
-41 -50 0
-41 -51 0
-41 -52 0
-41 -53 0
-41 -54 0
-42 -43 0
-42 -44 0
-42 -45 0
-42 -46 0
-42 -47 0
-42 -48 0
-42 -49 0
-42 -50 0
-42 -51 0
-42 -52 0
-42 -53 0
-42 -54 0
-43 -44 0
-43 -45 0
-43 -46 0
-43 -47 0
-43 -48 0
-43 -49 0
-43 -50 0
-43 -51 0
-43 -52 0
-43 -53 0
-43 -54 0
-44 -45 0
-44 -46 0
-44 -47 0
-44 -48 0
-44 -49 0
-44 -50 0
-44 -51 0
-44 -52 0
-44 -53 0
-44 -54 0
-45 -46 0
-45 -47 0
-45 -48 0
-45 -49 0
-45 -50 0
-45 -51 0
-45 -52 0
-45 -53 0
-45 -54 0
-46 -47 0
-46 -48 0
-46 -49 0
-46 -50 0
-46 -51 0
-46 -52 0
-46 -53 0
-46 -54 0
-47 -48 0
-47 -49 0
-47 -50 0
-47 -51 0
-47 -52 0
-47 -53 0
-47 -54 0
-48 -49 0
-48 -50 0
-48 -51 0
-48 -52 0
-48 -53 0
-48 -54 0
-49 -50 0
-49 -51 0
-49 -52 0
-49 -53 0
-49 -54 0
-50 -51 0
-50 -52 0
-50 -53 0
-50 -54 0
-51 -52 0
-51 -53 0
-51 -54 0
-52 -53 0
-52 -54 0
-53 -54 0
55 56 57 58 59 60 61 62 63 64 65 66 67 68 69 70 71 72 0
-55 -56 0
-55 -57 0
-55 -58 0
-55 -59 0
-55 -60 0
-55 -61 0
-55 -62 0
-55 -63 0
-55 -64 0
-55 -65 0
-55 -66 0
-55 -67 0
-55 -68 0
-55 -69 0
-55 -70 0
-55 -71 0
-55 -72 0
-56 -57 0
-56 -58 0
-56 -59 0
-56 -60 0
-56 -61 0
-56 -62 0
-56 -63 0
-56 -64 0
-56 -65 0
-56 -66 0
-56 -67 0
-56 -68 0
-56 -69 0
-56 -70 0
-56 -71 0
-56 -72 0
-57 -58 0
-57 -59 0
-57 -60 0
-57 -61 0
-57 -62 0
-57 -63 0
-57 -64 0
-57 -65 0
-57 -66 0
-57 -67 0
-57 -68 0
-57 -69 0
-57 -70 0
-57 -71 0
-57 -72 0
-58 -59 0
-58 -60 0
-58 -61 0
-58 -62 0
-58 -63 0
-58 -64 0
-58 -65 0
-58 -66 0
-58 -67 0
-58 -68 0
-58 -69 0
-58 -70 0
-58 -71 0
-58 -72 0
-59 -60 0
-59 -61 0
-59 -62 0
-59 -63 0
-59 -64 0
-59 -65 0
-59 -66 0
-59 -67 0
-59 -68 0
-59 -69 0
-59 -70 0
-59 -71 0
-59 -72 0
-60 -61 0
-60 -62 0
-60 -63 0
-60 -64 0
-60 -65 0
-60 -66 0
-60 -67 0
-60 -68 0
-60 -69 0
-60 -70 0
-60 -71 0
-60 -72 0
-61 -62 0
-61 -63 0
-61 -64 0
-61 -65 0
-61 -66 0
-61 -67 0
-61 -68 0
-61 -69 0
-61 -70 0
-61 -71 0
-61 -72 0
-62 -63 0
-62 -64 0
-62 -65 0
-62 -66 0
-62 -67 0
-62 -68 0
-62 -69 0
-62 -70 0
-62 -71 0
-62 -72 0
-63 -64 0
-63 -65 0
-63 -66 0
-63 -67 0
-63 -68 0
-63 -69 0
-63 -70 0
-63 -71 0
-63 -72 0
-64 -65 0
-64 -66 0
-64 -67 0
-64 -68 0
-64 -69 0
-64 -70 0
-64 -71 0
-64 -72 0
-65 -66 0
-65 -67 0
-65 -68 0
-65 -69 0
-65 -70 0
-65 -71 0
-65 -72 0
-66 -67 0
-66 -68 0
-66 -69 0
-66 -70 0
-66 -71 0
-66 -72 0
-67 -68 0
-67 -69 0
-67 -70 0
-67 -71 0
-67 -72 0
-68 -69 0
-68 -70 0
-68 -71 0
-68 -72 0
-69 -70 0
-69 -71 0
-69 -72 0
-70 -71 0
-70 -72 0
-71 -72 0
73 74 75 76 77 78 79 80 81 82 83 84 85 86 87 88 89 90 0
-73 -74 0
-73 -75 0
-73 -76 0
-73 -77 0
-73 -78 0
-73 -79 0
-73 -80 0
-73 -81 0
-73 -82 0
-73 -83 0
-73 -84 0
-73 -85 0
-73 -86 0
-73 -87 0
-73 -88 0
-73 -89 0
-73 -90 0
-74 -75 0
-74 -76 0
-74 -77 0
-74 -78 0
-74 -79 0
-74 -80 0
-74 -81 0
-74 -82 0
-74 -83 0
-74 -84 0
-74 -85 0
-74 -86 0
-74 -87 0
-74 -88 0
-74 -89 0
-74 -90 0
-75 -76 0
-75 -77 0
-75 -78 0
-75 -79 0
-75 -80 0
-75 -81 0
-75 -82 0
-75 -83 0
-75 -84 0
-75 -85 0
-75 -86 0
-75 -87 0
-75 -88 0
-75 -89 0
-75 -90 0
-76 -77 0
-76 -78 0
-76 -79 0
-76 -80 0
-76 -81 0
-76 -82 0
-76 -83 0
-76 -84 0
-76 -85 0
-76 -86 0
-76 -87 0
-76 -88 0
-76 -89 0
-76 -90 0
-77 -78 0
-77 -79 0
-77 -80 0
-77 -81 0
-77 -82 0
-77 -83 0
-77 -84 0
-77 -85 0
-77 -86 0
-77 -87 0
-77 -88 0
-77 -89 0
-77 -90 0
-78 -79 0
-78 -80 0
-78 -81 0
-78 -82 0
-78 -83 0
-78 -84 0
-78 -85 0
-78 -86 0
-78 -87 0
-78 -88 0
-78 -89 0
-78 -90 0
-79 -80 0
-79 -81 0
-79 -82 0
-79 -83 0
-79 -84 0
-79 -85 0
-79 -86 0
-79 -87 0
-79 -88 0
-79 -89 0
-79 -90 0
-80 -81 0
-80 -82 0
-80 -83 0
-80 -84 0
-80 -85 0
-80 -86 0
-80 -87 0
-80 -88 0
-80 -89 0
-80 -90 0
-81 -82 0
-81 -83 0
-81 -84 0
-81 -85 0
-81 -86 0
-81 -87 0
-81 -88 0
-81 -89 0
-81 -90 0
-82 -83 0
-82 -84 0
-82 -85 0
-82 -86 0
-82 -87 0
-82 -88 0
-82 -89 0
-82 -90 0
-83 -84 0
-83 -85 0
-83 -86 0
-83 -87 0
-83 -88 0
-83 -89 0
-83 -90 0
-84 -85 0
-84 -86 0
-84 -87 0
-84 -88 0
-84 -89 0
-84 -90 0
-85 -86 0
-85 -87 0
-85 -88 0
-85 -89 0
-85 -90 0
-86 -87 0
-86 -88 0
-86 -89 0
-86 -90 0
-87 -88 0
-87 -89 0
-87 -90 0
-88 -89 0
-88 -90 0
-89 -90 0
91 92 93 94 95 96 97 98 99 100 101 102 103 104 105 106 107 108 0
-91 -92 0
-91 -93 0
-91 -94 0
-91 -95 0
-91 -96 0
-91 -97 0
-91 -98 0
-91 -99 0
-91 -100 0
-91 -101 0
-91 -102 0
-91 -103 0
-91 -104 0
-91 -105 0
-91 -106 0
-91 -107 0
-91 -108 0
-92 -93 0
-92 -94 0
-92 -95 0
-92 -96 0
-92 -97 0
-92 -98 0
-92 -99 0
-92 -100 0
-92 -101 0
-92 -102 0
-92 -103 0
-92 -104 0
-92 -105 0
-92 -106 0
-92 -107 0
-92 -108 0
-93 -94 0
-93 -95 0
-93 -96 0
-93 -97 0
-93 -98 0
-93 -99 0
-93 -100 0
-93 -101 0
-93 -102 0
-93 -103 0
-93 -104 0
-93 -105 0
-93 -106 0
-93 -107 0
-93 -108 0
-94 -95 0
-94 -96 0
-94 -97 0
-94 -98 0
-94 -99 0
-94 -100 0
-94 -101 0
-94 -102 0
-94 -103 0
-94 -104 0
-94 -105 0
-94 -106 0
-94 -107 0
-94 -108 0
-95 -96 0
-95 -97 0
-95 -98 0
-95 -99 0
-95 -100 0
-95 -101 0
-95 -102 0
-95 -103 0
-95 -104 0
-95 -105 0
-95 -106 0
-95 -107 0
-95 -108 0
-96 -97 0
-96 -98 0
-96 -99 0
-96 -100 0
-96 -101 0
-96 -102 0
-96 -103 0
-96 -104 0
-96 -105 0
-96 -106 0
-96 -107 0
-96 -108 0
-97 -98 0
-97 -99 0
-97 -100 0
-97 -101 0
-97 -102 0
-97 -103 0
-97 -104 0
-97 -105 0
-97 -106 0
-97 -107 0
-97 -108 0
-98 -99 0
-98 -100 0
-98 -101 0
-98 -102 0
-98 -103 0
-98 -104 0
-98 -105 0
-98 -106 0
-98 -107 0
-98 -108 0
-99 -100 0
-99 -101 0
-99 -102 0
-99 -103 0
-99 -104 0
-99 -105 0
-99 -106 0
-99 -107 0
-99 -108 0
-100 -101 0
-100 -102 0
-100 -103 0
-100 -104 0
-100 -105 0
-100 -106 0
-100 -107 0
-100 -108 0
-101 -102 0
-101 -103 0
-101 -104 0
-101 -105 0
-101 -106 0
-101 -107 0
-101 -108 0
-102 -103 0
-102 -104 0
-102 -105 0
-102 -106 0
-102 -107 0
-102 -108 0
-103 -104 0
-103 -105 0
-103 -106 0
-103 -107 0
-103 -108 0
-104 -105 0
-104 -106 0
-104 -107 0
-104 -108 0
-105 -106 0
-105 -107 0
-105 -108 0
-106 -107 0
-106 -108 0
-107 -108 0
109 110 111 112 113 114 115 116 117 118 119 120 121 122 123 124 125 126 0
-109 -110 0
-109 -111 0
-109 -112 0
-109 -113 0
-109 -114 0
-109 -115 0
-109 -116 0
-109 -117 0
-109 -118 0
-109 -119 0
-109 -120 0
-109 -121 0
-109 -122 0
-109 -123 0
-109 -124 0
-109 -125 0
-109 -126 0
-110 -111 0
-110 -112 0
-110 -113 0
-110 -114 0
-110 -115 0
-110 -116 0
-110 -117 0
-110 -118 0
-110 -119 0
-110 -120 0
-110 -121 0
-110 -122 0
-110 -123 0
-110 -124 0
-110 -125 0
-110 -126 0
-111 -112 0
-111 -113 0
-111 -114 0
-111 -115 0
-111 -116 0
-111 -117 0
-111 -118 0
-111 -119 0
-111 -120 0
-111 -121 0
-111 -122 0
-111 -123 0
-111 -124 0
-111 -125 0
-111 -126 0
-112 -113 0
-112 -114 0
-112 -115 0
-112 -116 0
-112 -117 0
-112 -118 0
-112 -119 0
-112 -120 0
-112 -121 0
-112 -122 0
-112 -123 0
-112 -124 0
-112 -125 0
-112 -126 0
-113 -114 0
-113 -115 0
-113 -116 0
-113 -117 0
-113 -118 0
-113 -119 0
-113 -120 0
-113 -121 0
-113 -122 0
-113 -123 0
-113 -124 0
-113 -125 0
-113 -126 0
-114 -115 0
-114 -116 0
-114 -117 0
-114 -118 0
-114 -119 0
-114 -120 0
-114 -121 0
-114 -122 0
-114 -123 0
-114 -124 0
-114 -125 0
-114 -126 0
-115 -116 0
-115 -117 0
-115 -118 0
-115 -119 0
-115 -120 0
-115 -121 0
-115 -122 0
-115 -123 0
-115 -124 0
-115 -125 0
-115 -126 0
-116 -117 0
-116 -118 0
-116 -119 0
-116 -120 0
-116 -121 0
-116 -122 0
-116 -123 0
-116 -124 0
-116 -125 0
-116 -126 0
-117 -118 0
-117 -119 0
-117 -120 0
-117 -121 0
-117 -122 0
-117 -123 0
-117 -124 0
-117 -125 0
-117 -126 0
-118 -119 0
-118 -120 0
-118 -121 0
-118 -122 0
-118 -123 0
-118 -124 0
-118 -125 0
-118 -126 0
-119 -120 0
-119 -121 0
-119 -122 0
-119 -123 0
-119 -124 0
-119 -125 0
-119 -126 0
-120 -121 0
-120 -122 0
-120 -123 0
-120 -124 0
-120 -125 0
-120 -126 0
-121 -122 0
-121 -123 0
-121 -124 0
-121 -125 0
-121 -126 0
-122 -123 0
-122 -124 0
-122 -125 0
-122 -126 0
-123 -124 0
-123 -125 0
-123 -126 0
-124 -125 0
-124 -126 0
-125 -126 0
127 128 129 130 131 132 133 134 135 136 137 138 139 140 141 142 143 144 0
-127 -128 0
-127 -129 0
-127 -130 0
-127 -131 0
-127 -132 0
-127 -133 0
-127 -134 0
-127 -135 0
-127 -136 0
-127 -137 0
-127 -138 0
-127 -139 0
-127 -140 0
-127 -141 0
-127 -142 0
-127 -143 0
-127 -144 0
-128 -129 0
-128 -130 0
-128 -131 0
-128 -132 0
-128 -133 0
-128 -134 0
-128 -135 0
-128 -136 0
-128 -137 0
-128 -138 0
-128 -139 0
-128 -140 0
-128 -141 0
-128 -142 0
-128 -143 0
-128 -144 0
-129 -130 0
-129 -131 0
-129 -132 0
-129 -133 0
-129 -134 0
-129 -135 0
-129 -136 0
-129 -137 0
-129 -138 0
-129 -139 0
-129 -140 0
-129 -141 0
-129 -142 0
-129 -143 0
-129 -144 0
-130 -131 0
-130 -132 0
-130 -133 0
-130 -134 0
-130 -135 0
-130 -136 0
-130 -137 0
-130 -138 0
-130 -139 0
-130 -140 0
-130 -141 0
-130 -142 0
-130 -143 0
-130 -144 0
-131 -132 0
-131 -133 0
-131 -134 0
-131 -135 0
-131 -136 0
-131 -137 0
-131 -138 0
-131 -139 0
-131 -140 0
-131 -141 0
-131 -142 0
-131 -143 0
-131 -144 0
-132 -133 0
-132 -134 0
-132 -135 0
-132 -136 0
-132 -137 0
-132 -138 0
-132 -139 0
-132 -140 0
-132 -141 0
-132 -142 0
-132 -143 0
-132 -144 0
-133 -134 0
-133 -135 0
-133 -136 0
-133 -137 0
-133 -138 0
-133 -139 0
-133 -140 0
-133 -141 0
-133 -142 0
-133 -143 0
-133 -144 0
-134 -135 0
-134 -136 0
-134 -137 0
-134 -138 0
-134 -139 0
-134 -140 0
-134 -141 0
-134 -142 0
-134 -143 0
-134 -144 0
-135 -136 0
-135 -137 0
-135 -138 0
-135 -139 0
-135 -140 0
-135 -141 0
-135 -142 0
-135 -143 0
-135 -144 0
-136 -137 0
-136 -138 0
-136 -139 0
-136 -140 0
-136 -141 0
-136 -142 0
-136 -143 0
-136 -144 0
-137 -138 0
-137 -139 0
-137 -140 0
-137 -141 0
-137 -142 0
-137 -143 0
-137 -144 0
-138 -139 0
-138 -140 0
-138 -141 0
-138 -142 0
-138 -143 0
-138 -144 0
-139 -140 0
-139 -141 0
-139 -142 0
-139 -143 0
-139 -144 0
-140 -141 0
-140 -142 0
-140 -143 0
-140 -144 0
-141 -142 0
-141 -143 0
-141 -144 0
-142 -143 0
-142 -144 0
-143 -144 0
145 146 147 148 149 150 151 152 153 154 155 156 157 158 159 160 161 162 0
-145 -146 0
-145 -147 0
-145 -148 0
-145 -149 0
-145 -150 0
-145 -151 0
-145 -152 0
-145 -153 0
-145 -154 0
-145 -155 0
-145 -156 0
-145 -157 0
-145 -158 0
-145 -159 0
-145 -160 0
-145 -161 0
-145 -162 0
-146 -147 0
-146 -148 0
-146 -149 0
-146 -150 0
-146 -151 0
-146 -152 0
-146 -153 0
-146 -154 0
-146 -155 0
-146 -156 0
-146 -157 0
-146 -158 0
-146 -159 0
-146 -160 0
-146 -161 0
-146 -162 0
-147 -148 0
-147 -149 0
-147 -150 0
-147 -151 0
-147 -152 0
-147 -153 0
-147 -154 0
-147 -155 0
-147 -156 0
-147 -157 0
-147 -158 0
-147 -159 0
-147 -160 0
-147 -161 0
-147 -162 0
-148 -149 0
-148 -150 0
-148 -151 0
-148 -152 0
-148 -153 0
-148 -154 0
-148 -155 0
-148 -156 0
-148 -157 0
-148 -158 0
-148 -159 0
-148 -160 0
-148 -161 0
-148 -162 0
-149 -150 0
-149 -151 0
-149 -152 0
-149 -153 0
-149 -154 0
-149 -155 0
-149 -156 0
-149 -157 0
-149 -158 0
-149 -159 0
-149 -160 0
-149 -161 0
-149 -162 0
-150 -151 0
-150 -152 0
-150 -153 0
-150 -154 0
-150 -155 0
-150 -156 0
-150 -157 0
-150 -158 0
-150 -159 0
-150 -160 0
-150 -161 0
-150 -162 0
-151 -152 0
-151 -153 0
-151 -154 0
-151 -155 0
-151 -156 0
-151 -157 0
-151 -158 0
-151 -159 0
-151 -160 0
-151 -161 0
-151 -162 0
-152 -153 0
-152 -154 0
-152 -155 0
-152 -156 0
-152 -157 0
-152 -158 0
-152 -159 0
-152 -160 0
-152 -161 0
-152 -162 0
-153 -154 0
-153 -155 0
-153 -156 0
-153 -157 0
-153 -158 0
-153 -159 0
-153 -160 0
-153 -161 0
-153 -162 0
-154 -155 0
-154 -156 0
-154 -157 0
-154 -158 0
-154 -159 0
-154 -160 0
-154 -161 0
-154 -162 0
-155 -156 0
-155 -157 0
-155 -158 0
-155 -159 0
-155 -160 0
-155 -161 0
-155 -162 0
-156 -157 0
-156 -158 0
-156 -159 0
-156 -160 0
-156 -161 0
-156 -162 0
-157 -158 0
-157 -159 0
-157 -160 0
-157 -161 0
-157 -162 0
-158 -159 0
-158 -160 0
-158 -161 0
-158 -162 0
-159 -160 0
-159 -161 0
-159 -162 0
-160 -161 0
-160 -162 0
-161 -162 0
163 164 165 166 167 168 169 170 171 172 173 174 175 176 177 178 179 180 0
-163 -164 0
-163 -165 0
-163 -166 0
-163 -167 0
-163 -168 0
-163 -169 0
-163 -170 0
-163 -171 0
-163 -172 0
-163 -173 0
-163 -174 0
-163 -175 0
-163 -176 0
-163 -177 0
-163 -178 0
-163 -179 0
-163 -180 0
-164 -165 0
-164 -166 0
-164 -167 0
-164 -168 0
-164 -169 0
-164 -170 0
-164 -171 0
-164 -172 0
-164 -173 0
-164 -174 0
-164 -175 0
-164 -176 0
-164 -177 0
-164 -178 0
-164 -179 0
-164 -180 0
-165 -166 0
-165 -167 0
-165 -168 0
-165 -169 0
-165 -170 0
-165 -171 0
-165 -172 0
-165 -173 0
-165 -174 0
-165 -175 0
-165 -176 0
-165 -177 0
-165 -178 0
-165 -179 0
-165 -180 0
-166 -167 0
-166 -168 0
-166 -169 0
-166 -170 0
-166 -171 0
-166 -172 0
-166 -173 0
-166 -174 0
-166 -175 0
-166 -176 0
-166 -177 0
-166 -178 0
-166 -179 0
-166 -180 0
-167 -168 0
-167 -169 0
-167 -170 0
-167 -171 0
-167 -172 0
-167 -173 0
-167 -174 0
-167 -175 0
-167 -176 0
-167 -177 0
-167 -178 0
-167 -179 0
-167 -180 0
-168 -169 0
-168 -170 0
-168 -171 0
-168 -172 0
-168 -173 0
-168 -174 0
-168 -175 0
-168 -176 0
-168 -177 0
-168 -178 0
-168 -179 0
-168 -180 0
-169 -170 0
-169 -171 0
-169 -172 0
-169 -173 0
-169 -174 0
-169 -175 0
-169 -176 0
-169 -177 0
-169 -178 0
-169 -179 0
-169 -180 0
-170 -171 0
-170 -172 0
-170 -173 0
-170 -174 0
-170 -175 0
-170 -176 0
-170 -177 0
-170 -178 0
-170 -179 0
-170 -180 0
-171 -172 0
-171 -173 0
-171 -174 0
-171 -175 0
-171 -176 0
-171 -177 0
-171 -178 0
-171 -179 0
-171 -180 0
-172 -173 0
-172 -174 0
-172 -175 0
-172 -176 0
-172 -177 0
-172 -178 0
-172 -179 0
-172 -180 0
-173 -174 0
-173 -175 0
-173 -176 0
-173 -177 0
-173 -178 0
-173 -179 0
-173 -180 0
-174 -175 0
-174 -176 0
-174 -177 0
-174 -178 0
-174 -179 0
-174 -180 0
-175 -176 0
-175 -177 0
-175 -178 0
-175 -179 0
-175 -180 0
-176 -177 0
-176 -178 0
-176 -179 0
-176 -180 0
-177 -178 0
-177 -179 0
-177 -180 0
-178 -179 0
-178 -180 0
-179 -180 0
181 182 183 184 185 186 187 188 189 190 191 192 193 194 195 196 197 198 0
-181 -182 0
-181 -183 0
-181 -184 0
-181 -185 0
-181 -186 0
-181 -187 0
-181 -188 0
-181 -189 0
-181 -190 0
-181 -191 0
-181 -192 0
-181 -193 0
-181 -194 0
-181 -195 0
-181 -196 0
-181 -197 0
-181 -198 0
-182 -183 0
-182 -184 0
-182 -185 0
-182 -186 0
-182 -187 0
-182 -188 0
-182 -189 0
-182 -190 0
-182 -191 0
-182 -192 0
-182 -193 0
-182 -194 0
-182 -195 0
-182 -196 0
-182 -197 0
-182 -198 0
-183 -184 0
-183 -185 0
-183 -186 0
-183 -187 0
-183 -188 0
-183 -189 0
-183 -190 0
-183 -191 0
-183 -192 0
-183 -193 0
-183 -194 0
-183 -195 0
-183 -196 0
-183 -197 0
-183 -198 0
-184 -185 0
-184 -186 0
-184 -187 0
-184 -188 0
-184 -189 0
-184 -190 0
-184 -191 0
-184 -192 0
-184 -193 0
-184 -194 0
-184 -195 0
-184 -196 0
-184 -197 0
-184 -198 0
-185 -186 0
-185 -187 0
-185 -188 0
-185 -189 0
-185 -190 0
-185 -191 0
-185 -192 0
-185 -193 0
-185 -194 0
-185 -195 0
-185 -196 0
-185 -197 0
-185 -198 0
-186 -187 0
-186 -188 0
-186 -189 0
-186 -190 0
-186 -191 0
-186 -192 0
-186 -193 0
-186 -194 0
-186 -195 0
-186 -196 0
-186 -197 0
-186 -198 0
-187 -188 0
-187 -189 0
-187 -190 0
-187 -191 0
-187 -192 0
-187 -193 0
-187 -194 0
-187 -195 0
-187 -196 0
-187 -197 0
-187 -198 0
-188 -189 0
-188 -190 0
-188 -191 0
-188 -192 0
-188 -193 0
-188 -194 0
-188 -195 0
-188 -196 0
-188 -197 0
-188 -198 0
-189 -190 0
-189 -191 0
-189 -192 0
-189 -193 0
-189 -194 0
-189 -195 0
-189 -196 0
-189 -197 0
-189 -198 0
-190 -191 0
-190 -192 0
-190 -193 0
-190 -194 0
-190 -195 0
-190 -196 0
-190 -197 0
-190 -198 0
-191 -192 0
-191 -193 0
-191 -194 0
-191 -195 0
-191 -196 0
-191 -197 0
-191 -198 0
-192 -193 0
-192 -194 0
-192 -195 0
-192 -196 0
-192 -197 0
-192 -198 0
-193 -194 0
-193 -195 0
-193 -196 0
-193 -197 0
-193 -198 0
-194 -195 0
-194 -196 0
-194 -197 0
-194 -198 0
-195 -196 0
-195 -197 0
-195 -198 0
-196 -197 0
-196 -198 0
-197 -198 0
199 200 201 202 203 204 205 206 207 208 209 210 211 212 213 214 215 216 0
-199 -200 0
-199 -201 0
-199 -202 0
-199 -203 0
-199 -204 0
-199 -205 0
-199 -206 0
-199 -207 0
-199 -208 0
-199 -209 0
-199 -210 0
-199 -211 0
-199 -212 0
-199 -213 0
-199 -214 0
-199 -215 0
-199 -216 0
-200 -201 0
-200 -202 0
-200 -203 0
-200 -204 0
-200 -205 0
-200 -206 0
-200 -207 0
-200 -208 0
-200 -209 0
-200 -210 0
-200 -211 0
-200 -212 0
-200 -213 0
-200 -214 0
-200 -215 0
-200 -216 0
-201 -202 0
-201 -203 0
-201 -204 0
-201 -205 0
-201 -206 0
-201 -207 0
-201 -208 0
-201 -209 0
-201 -210 0
-201 -211 0
-201 -212 0
-201 -213 0
-201 -214 0
-201 -215 0
-201 -216 0
-202 -203 0
-202 -204 0
-202 -205 0
-202 -206 0
-202 -207 0
-202 -208 0
-202 -209 0
-202 -210 0
-202 -211 0
-202 -212 0
-202 -213 0
-202 -214 0
-202 -215 0
-202 -216 0
-203 -204 0
-203 -205 0
-203 -206 0
-203 -207 0
-203 -208 0
-203 -209 0
-203 -210 0
-203 -211 0
-203 -212 0
-203 -213 0
-203 -214 0
-203 -215 0
-203 -216 0
-204 -205 0
-204 -206 0
-204 -207 0
-204 -208 0
-204 -209 0
-204 -210 0
-204 -211 0
-204 -212 0
-204 -213 0
-204 -214 0
-204 -215 0
-204 -216 0
-205 -206 0
-205 -207 0
-205 -208 0
-205 -209 0
-205 -210 0
-205 -211 0
-205 -212 0
-205 -213 0
-205 -214 0
-205 -215 0
-205 -216 0
-206 -207 0
-206 -208 0
-206 -209 0
-206 -210 0
-206 -211 0
-206 -212 0
-206 -213 0
-206 -214 0
-206 -215 0
-206 -216 0
-207 -208 0
-207 -209 0
-207 -210 0
-207 -211 0
-207 -212 0
-207 -213 0
-207 -214 0
-207 -215 0
-207 -216 0
-208 -209 0
-208 -210 0
-208 -211 0
-208 -212 0
-208 -213 0
-208 -214 0
-208 -215 0
-208 -216 0
-209 -210 0
-209 -211 0
-209 -212 0
-209 -213 0
-209 -214 0
-209 -215 0
-209 -216 0
-210 -211 0
-210 -212 0
-210 -213 0
-210 -214 0
-210 -215 0
-210 -216 0
-211 -212 0
-211 -213 0
-211 -214 0
-211 -215 0
-211 -216 0
-212 -213 0
-212 -214 0
-212 -215 0
-212 -216 0
-213 -214 0
-213 -215 0
-213 -216 0
-214 -215 0
-214 -216 0
-215 -216 0
217 218 219 220 221 222 223 224 225 226 227 228 229 230 231 232 233 234 0
-217 -218 0
-217 -219 0
-217 -220 0
-217 -221 0
-217 -222 0
-217 -223 0
-217 -224 0
-217 -225 0
-217 -226 0
-217 -227 0
-217 -228 0
-217 -229 0
-217 -230 0
-217 -231 0
-217 -232 0
-217 -233 0
-217 -234 0
-218 -219 0
-218 -220 0
-218 -221 0
-218 -222 0
-218 -223 0
-218 -224 0
-218 -225 0
-218 -226 0
-218 -227 0
-218 -228 0
-218 -229 0
-218 -230 0
-218 -231 0
-218 -232 0
-218 -233 0
-218 -234 0
-219 -220 0
-219 -221 0
-219 -222 0
-219 -223 0
-219 -224 0
-219 -225 0
-219 -226 0
-219 -227 0
-219 -228 0
-219 -229 0
-219 -230 0
-219 -231 0
-219 -232 0
-219 -233 0
-219 -234 0
-220 -221 0
-220 -222 0
-220 -223 0
-220 -224 0
-220 -225 0
-220 -226 0
-220 -227 0
-220 -228 0
-220 -229 0
-220 -230 0
-220 -231 0
-220 -232 0
-220 -233 0
-220 -234 0
-221 -222 0
-221 -223 0
-221 -224 0
-221 -225 0
-221 -226 0
-221 -227 0
-221 -228 0
-221 -229 0
-221 -230 0
-221 -231 0
-221 -232 0
-221 -233 0
-221 -234 0
-222 -223 0
-222 -224 0
-222 -225 0
-222 -226 0
-222 -227 0
-222 -228 0
-222 -229 0
-222 -230 0
-222 -231 0
-222 -232 0
-222 -233 0
-222 -234 0
-223 -224 0
-223 -225 0
-223 -226 0
-223 -227 0
-223 -228 0
-223 -229 0
-223 -230 0
-223 -231 0
-223 -232 0
-223 -233 0
-223 -234 0
-224 -225 0
-224 -226 0
-224 -227 0
-224 -228 0
-224 -229 0
-224 -230 0
-224 -231 0
-224 -232 0
-224 -233 0
-224 -234 0
-225 -226 0
-225 -227 0
-225 -228 0
-225 -229 0
-225 -230 0
-225 -231 0
-225 -232 0
-225 -233 0
-225 -234 0
-226 -227 0
-226 -228 0
-226 -229 0
-226 -230 0
-226 -231 0
-226 -232 0
-226 -233 0
-226 -234 0
-227 -228 0
-227 -229 0
-227 -230 0
-227 -231 0
-227 -232 0
-227 -233 0
-227 -234 0
-228 -229 0
-228 -230 0
-228 -231 0
-228 -232 0
-228 -233 0
-228 -234 0
-229 -230 0
-229 -231 0
-229 -232 0
-229 -233 0
-229 -234 0
-230 -231 0
-230 -232 0
-230 -233 0
-230 -234 0
-231 -232 0
-231 -233 0
-231 -234 0
-232 -233 0
-232 -234 0
-233 -234 0
235 236 237 238 239 240 241 242 243 244 245 246 247 248 249 250 251 252 0
-235 -236 0
-235 -237 0
-235 -238 0
-235 -239 0
-235 -240 0
-235 -241 0
-235 -242 0
-235 -243 0
-235 -244 0
-235 -245 0
-235 -246 0
-235 -247 0
-235 -248 0
-235 -249 0
-235 -250 0
-235 -251 0
-235 -252 0
-236 -237 0
-236 -238 0
-236 -239 0
-236 -240 0
-236 -241 0
-236 -242 0
-236 -243 0
-236 -244 0
-236 -245 0
-236 -246 0
-236 -247 0
-236 -248 0
-236 -249 0
-236 -250 0
-236 -251 0
-236 -252 0
-237 -238 0
-237 -239 0
-237 -240 0
-237 -241 0
-237 -242 0
-237 -243 0
-237 -244 0
-237 -245 0
-237 -246 0
-237 -247 0
-237 -248 0
-237 -249 0
-237 -250 0
-237 -251 0
-237 -252 0
-238 -239 0
-238 -240 0
-238 -241 0
-238 -242 0
-238 -243 0
-238 -244 0
-238 -245 0
-238 -246 0
-238 -247 0
-238 -248 0
-238 -249 0
-238 -250 0
-238 -251 0
-238 -252 0
-239 -240 0
-239 -241 0
-239 -242 0
-239 -243 0
-239 -244 0
-239 -245 0
-239 -246 0
-239 -247 0
-239 -248 0
-239 -249 0
-239 -250 0
-239 -251 0
-239 -252 0
-240 -241 0
-240 -242 0
-240 -243 0
-240 -244 0
-240 -245 0
-240 -246 0
-240 -247 0
-240 -248 0
-240 -249 0
-240 -250 0
-240 -251 0
-240 -252 0
-241 -242 0
-241 -243 0
-241 -244 0
-241 -245 0
-241 -246 0
-241 -247 0
-241 -248 0
-241 -249 0
-241 -250 0
-241 -251 0
-241 -252 0
-242 -243 0
-242 -244 0
-242 -245 0
-242 -246 0
-242 -247 0
-242 -248 0
-242 -249 0
-242 -250 0
-242 -251 0
-242 -252 0
-243 -244 0
-243 -245 0
-243 -246 0
-243 -247 0
-243 -248 0
-243 -249 0
-243 -250 0
-243 -251 0
-243 -252 0
-244 -245 0
-244 -246 0
-244 -247 0
-244 -248 0
-244 -249 0
-244 -250 0
-244 -251 0
-244 -252 0
-245 -246 0
-245 -247 0
-245 -248 0
-245 -249 0
-245 -250 0
-245 -251 0
-245 -252 0
-246 -247 0
-246 -248 0
-246 -249 0
-246 -250 0
-246 -251 0
-246 -252 0
-247 -248 0
-247 -249 0
-247 -250 0
-247 -251 0
-247 -252 0
-248 -249 0
-248 -250 0
-248 -251 0
-248 -252 0
-249 -250 0
-249 -251 0
-249 -252 0
-250 -251 0
-250 -252 0
-251 -252 0
253 254 255 256 257 258 259 260 261 262 263 264 265 266 267 268 269 270 0
-253 -254 0
-253 -255 0
-253 -256 0
-253 -257 0
-253 -258 0
-253 -259 0
-253 -260 0
-253 -261 0
-253 -262 0
-253 -263 0
-253 -264 0
-253 -265 0
-253 -266 0
-253 -267 0
-253 -268 0
-253 -269 0
-253 -270 0
-254 -255 0
-254 -256 0
-254 -257 0
-254 -258 0
-254 -259 0
-254 -260 0
-254 -261 0
-254 -262 0
-254 -263 0
-254 -264 0
-254 -265 0
-254 -266 0
-254 -267 0
-254 -268 0
-254 -269 0
-254 -270 0
-255 -256 0
-255 -257 0
-255 -258 0
-255 -259 0
-255 -260 0
-255 -261 0
-255 -262 0
-255 -263 0
-255 -264 0
-255 -265 0
-255 -266 0
-255 -267 0
-255 -268 0
-255 -269 0
-255 -270 0
-256 -257 0
-256 -258 0
-256 -259 0
-256 -260 0
-256 -261 0
-256 -262 0
-256 -263 0
-256 -264 0
-256 -265 0
-256 -266 0
-256 -267 0
-256 -268 0
-256 -269 0
-256 -270 0
-257 -258 0
-257 -259 0
-257 -260 0
-257 -261 0
-257 -262 0
-257 -263 0
-257 -264 0
-257 -265 0
-257 -266 0
-257 -267 0
-257 -268 0
-257 -269 0
-257 -270 0
-258 -259 0
-258 -260 0
-258 -261 0
-258 -262 0
-258 -263 0
-258 -264 0
-258 -265 0
-258 -266 0
-258 -267 0
-258 -268 0
-258 -269 0
-258 -270 0
-259 -260 0
-259 -261 0
-259 -262 0
-259 -263 0
-259 -264 0
-259 -265 0
-259 -266 0
-259 -267 0
-259 -268 0
-259 -269 0
-259 -270 0
-260 -261 0
-260 -262 0
-260 -263 0
-260 -264 0
-260 -265 0
-260 -266 0
-260 -267 0
-260 -268 0
-260 -269 0
-260 -270 0
-261 -262 0
-261 -263 0
-261 -264 0
-261 -265 0
-261 -266 0
-261 -267 0
-261 -268 0
-261 -269 0
-261 -270 0
-262 -263 0
-262 -264 0
-262 -265 0
-262 -266 0
-262 -267 0
-262 -268 0
-262 -269 0
-262 -270 0
-263 -264 0
-263 -265 0
-263 -266 0
-263 -267 0
-263 -268 0
-263 -269 0
-263 -270 0
-264 -265 0
-264 -266 0
-264 -267 0
-264 -268 0
-264 -269 0
-264 -270 0
-265 -266 0
-265 -267 0
-265 -268 0
-265 -269 0
-265 -270 0
-266 -267 0
-266 -268 0
-266 -269 0
-266 -270 0
-267 -268 0
-267 -269 0
-267 -270 0
-268 -269 0
-268 -270 0
-269 -270 0
271 272 273 274 275 276 277 278 279 280 281 282 283 284 285 286 287 288 0
-271 -272 0
-271 -273 0
-271 -274 0
-271 -275 0
-271 -276 0
-271 -277 0
-271 -278 0
-271 -279 0
-271 -280 0
-271 -281 0
-271 -282 0
-271 -283 0
-271 -284 0
-271 -285 0
-271 -286 0
-271 -287 0
-271 -288 0
-272 -273 0
-272 -274 0
-272 -275 0
-272 -276 0
-272 -277 0
-272 -278 0
-272 -279 0
-272 -280 0
-272 -281 0
-272 -282 0
-272 -283 0
-272 -284 0
-272 -285 0
-272 -286 0
-272 -287 0
-272 -288 0
-273 -274 0
-273 -275 0
-273 -276 0
-273 -277 0
-273 -278 0
-273 -279 0
-273 -280 0
-273 -281 0
-273 -282 0
-273 -283 0
-273 -284 0
-273 -285 0
-273 -286 0
-273 -287 0
-273 -288 0
-274 -275 0
-274 -276 0
-274 -277 0
-274 -278 0
-274 -279 0
-274 -280 0
-274 -281 0
-274 -282 0
-274 -283 0
-274 -284 0
-274 -285 0
-274 -286 0
-274 -287 0
-274 -288 0
-275 -276 0
-275 -277 0
-275 -278 0
-275 -279 0
-275 -280 0
-275 -281 0
-275 -282 0
-275 -283 0
-275 -284 0
-275 -285 0
-275 -286 0
-275 -287 0
-275 -288 0
-276 -277 0
-276 -278 0
-276 -279 0
-276 -280 0
-276 -281 0
-276 -282 0
-276 -283 0
-276 -284 0
-276 -285 0
-276 -286 0
-276 -287 0
-276 -288 0
-277 -278 0
-277 -279 0
-277 -280 0
-277 -281 0
-277 -282 0
-277 -283 0
-277 -284 0
-277 -285 0
-277 -286 0
-277 -287 0
-277 -288 0
-278 -279 0
-278 -280 0
-278 -281 0
-278 -282 0
-278 -283 0
-278 -284 0
-278 -285 0
-278 -286 0
-278 -287 0
-278 -288 0
-279 -280 0
-279 -281 0
-279 -282 0
-279 -283 0
-279 -284 0
-279 -285 0
-279 -286 0
-279 -287 0
-279 -288 0
-280 -281 0
-280 -282 0
-280 -283 0
-280 -284 0
-280 -285 0
-280 -286 0
-280 -287 0
-280 -288 0
-281 -282 0
-281 -283 0
-281 -284 0
-281 -285 0
-281 -286 0
-281 -287 0
-281 -288 0
-282 -283 0
-282 -284 0
-282 -285 0
-282 -286 0
-282 -287 0
-282 -288 0
-283 -284 0
-283 -285 0
-283 -286 0
-283 -287 0
-283 -288 0
-284 -285 0
-284 -286 0
-284 -287 0
-284 -288 0
-285 -286 0
-285 -287 0
-285 -288 0
-286 -287 0
-286 -288 0
-287 -288 0
289 290 291 292 293 294 295 296 297 298 299 300 301 302 303 304 305 306 0
-289 -290 0
-289 -291 0
-289 -292 0
-289 -293 0
-289 -294 0
-289 -295 0
-289 -296 0
-289 -297 0
-289 -298 0
-289 -299 0
-289 -300 0
-289 -301 0
-289 -302 0
-289 -303 0
-289 -304 0
-289 -305 0
-289 -306 0
-290 -291 0
-290 -292 0
-290 -293 0
-290 -294 0
-290 -295 0
-290 -296 0
-290 -297 0
-290 -298 0
-290 -299 0
-290 -300 0
-290 -301 0
-290 -302 0
-290 -303 0
-290 -304 0
-290 -305 0
-290 -306 0
-291 -292 0
-291 -293 0
-291 -294 0
-291 -295 0
-291 -296 0
-291 -297 0
-291 -298 0
-291 -299 0
-291 -300 0
-291 -301 0
-291 -302 0
-291 -303 0
-291 -304 0
-291 -305 0
-291 -306 0
-292 -293 0
-292 -294 0
-292 -295 0
-292 -296 0
-292 -297 0
-292 -298 0
-292 -299 0
-292 -300 0
-292 -301 0
-292 -302 0
-292 -303 0
-292 -304 0
-292 -305 0
-292 -306 0
-293 -294 0
-293 -295 0
-293 -296 0
-293 -297 0
-293 -298 0
-293 -299 0
-293 -300 0
-293 -301 0
-293 -302 0
-293 -303 0
-293 -304 0
-293 -305 0
-293 -306 0
-294 -295 0
-294 -296 0
-294 -297 0
-294 -298 0
-294 -299 0
-294 -300 0
-294 -301 0
-294 -302 0
-294 -303 0
-294 -304 0
-294 -305 0
-294 -306 0
-295 -296 0
-295 -297 0
-295 -298 0
-295 -299 0
-295 -300 0
-295 -301 0
-295 -302 0
-295 -303 0
-295 -304 0
-295 -305 0
-295 -306 0
-296 -297 0
-296 -298 0
-296 -299 0
-296 -300 0
-296 -301 0
-296 -302 0
-296 -303 0
-296 -304 0
-296 -305 0
-296 -306 0
-297 -298 0
-297 -299 0
-297 -300 0
-297 -301 0
-297 -302 0
-297 -303 0
-297 -304 0
-297 -305 0
-297 -306 0
-298 -299 0
-298 -300 0
-298 -301 0
-298 -302 0
-298 -303 0
-298 -304 0
-298 -305 0
-298 -306 0
-299 -300 0
-299 -301 0
-299 -302 0
-299 -303 0
-299 -304 0
-299 -305 0
-299 -306 0
-300 -301 0
-300 -302 0
-300 -303 0
-300 -304 0
-300 -305 0
-300 -306 0
-301 -302 0
-301 -303 0
-301 -304 0
-301 -305 0
-301 -306 0
-302 -303 0
-302 -304 0
-302 -305 0
-302 -306 0
-303 -304 0
-303 -305 0
-303 -306 0
-304 -305 0
-304 -306 0
-305 -306 0
307 308 309 310 311 312 313 314 315 316 317 318 319 320 321 322 323 324 0
-307 -308 0
-307 -309 0
-307 -310 0
-307 -311 0
-307 -312 0
-307 -313 0
-307 -314 0
-307 -315 0
-307 -316 0
-307 -317 0
-307 -318 0
-307 -319 0
-307 -320 0
-307 -321 0
-307 -322 0
-307 -323 0
-307 -324 0
-308 -309 0
-308 -310 0
-308 -311 0
-308 -312 0
-308 -313 0
-308 -314 0
-308 -315 0
-308 -316 0
-308 -317 0
-308 -318 0
-308 -319 0
-308 -320 0
-308 -321 0
-308 -322 0
-308 -323 0
-308 -324 0
-309 -310 0
-309 -311 0
-309 -312 0
-309 -313 0
-309 -314 0
-309 -315 0
-309 -316 0
-309 -317 0
-309 -318 0
-309 -319 0
-309 -320 0
-309 -321 0
-309 -322 0
-309 -323 0
-309 -324 0
-310 -311 0
-310 -312 0
-310 -313 0
-310 -314 0
-310 -315 0
-310 -316 0
-310 -317 0
-310 -318 0
-310 -319 0
-310 -320 0
-310 -321 0
-310 -322 0
-310 -323 0
-310 -324 0
-311 -312 0
-311 -313 0
-311 -314 0
-311 -315 0
-311 -316 0
-311 -317 0
-311 -318 0
-311 -319 0
-311 -320 0
-311 -321 0
-311 -322 0
-311 -323 0
-311 -324 0
-312 -313 0
-312 -314 0
-312 -315 0
-312 -316 0
-312 -317 0
-312 -318 0
-312 -319 0
-312 -320 0
-312 -321 0
-312 -322 0
-312 -323 0
-312 -324 0
-313 -314 0
-313 -315 0
-313 -316 0
-313 -317 0
-313 -318 0
-313 -319 0
-313 -320 0
-313 -321 0
-313 -322 0
-313 -323 0
-313 -324 0
-314 -315 0
-314 -316 0
-314 -317 0
-314 -318 0
-314 -319 0
-314 -320 0
-314 -321 0
-314 -322 0
-314 -323 0
-314 -324 0
-315 -316 0
-315 -317 0
-315 -318 0
-315 -319 0
-315 -320 0
-315 -321 0
-315 -322 0
-315 -323 0
-315 -324 0
-316 -317 0
-316 -318 0
-316 -319 0
-316 -320 0
-316 -321 0
-316 -322 0
-316 -323 0
-316 -324 0
-317 -318 0
-317 -319 0
-317 -320 0
-317 -321 0
-317 -322 0
-317 -323 0
-317 -324 0
-318 -319 0
-318 -320 0
-318 -321 0
-318 -322 0
-318 -323 0
-318 -324 0
-319 -320 0
-319 -321 0
-319 -322 0
-319 -323 0
-319 -324 0
-320 -321 0
-320 -322 0
-320 -323 0
-320 -324 0
-321 -322 0
-321 -323 0
-321 -324 0
-322 -323 0
-322 -324 0
-323 -324 0
325 326 327 328 329 330 331 332 333 334 335 336 337 338 339 340 341 342 0
-325 -326 0
-325 -327 0
-325 -328 0
-325 -329 0
-325 -330 0
-325 -331 0
-325 -332 0
-325 -333 0
-325 -334 0
-325 -335 0
-325 -336 0
-325 -337 0
-325 -338 0
-325 -339 0
-325 -340 0
-325 -341 0
-325 -342 0
-326 -327 0
-326 -328 0
-326 -329 0
-326 -330 0
-326 -331 0
-326 -332 0
-326 -333 0
-326 -334 0
-326 -335 0
-326 -336 0
-326 -337 0
-326 -338 0
-326 -339 0
-326 -340 0
-326 -341 0
-326 -342 0
-327 -328 0
-327 -329 0
-327 -330 0
-327 -331 0
-327 -332 0
-327 -333 0
-327 -334 0
-327 -335 0
-327 -336 0
-327 -337 0
-327 -338 0
-327 -339 0
-327 -340 0
-327 -341 0
-327 -342 0
-328 -329 0
-328 -330 0
-328 -331 0
-328 -332 0
-328 -333 0
-328 -334 0
-328 -335 0
-328 -336 0
-328 -337 0
-328 -338 0
-328 -339 0
-328 -340 0
-328 -341 0
-328 -342 0
-329 -330 0
-329 -331 0
-329 -332 0
-329 -333 0
-329 -334 0
-329 -335 0
-329 -336 0
-329 -337 0
-329 -338 0
-329 -339 0
-329 -340 0
-329 -341 0
-329 -342 0
-330 -331 0
-330 -332 0
-330 -333 0
-330 -334 0
-330 -335 0
-330 -336 0
-330 -337 0
-330 -338 0
-330 -339 0
-330 -340 0
-330 -341 0
-330 -342 0
-331 -332 0
-331 -333 0
-331 -334 0
-331 -335 0
-331 -336 0
-331 -337 0
-331 -338 0
-331 -339 0
-331 -340 0
-331 -341 0
-331 -342 0
-332 -333 0
-332 -334 0
-332 -335 0
-332 -336 0
-332 -337 0
-332 -338 0
-332 -339 0
-332 -340 0
-332 -341 0
-332 -342 0
-333 -334 0
-333 -335 0
-333 -336 0
-333 -337 0
-333 -338 0
-333 -339 0
-333 -340 0
-333 -341 0
-333 -342 0
-334 -335 0
-334 -336 0
-334 -337 0
-334 -338 0
-334 -339 0
-334 -340 0
-334 -341 0
-334 -342 0
-335 -336 0
-335 -337 0
-335 -338 0
-335 -339 0
-335 -340 0
-335 -341 0
-335 -342 0
-336 -337 0
-336 -338 0
-336 -339 0
-336 -340 0
-336 -341 0
-336 -342 0
-337 -338 0
-337 -339 0
-337 -340 0
-337 -341 0
-337 -342 0
-338 -339 0
-338 -340 0
-338 -341 0
-338 -342 0
-339 -340 0
-339 -341 0
-339 -342 0
-340 -341 0
-340 -342 0
-341 -342 0
343 344 345 346 347 348 349 350 351 352 353 354 355 356 357 358 359 360 0
-343 -344 0
-343 -345 0
-343 -346 0
-343 -347 0
-343 -348 0
-343 -349 0
-343 -350 0
-343 -351 0
-343 -352 0
-343 -353 0
-343 -354 0
-343 -355 0
-343 -356 0
-343 -357 0
-343 -358 0
-343 -359 0
-343 -360 0
-344 -345 0
-344 -346 0
-344 -347 0
-344 -348 0
-344 -349 0
-344 -350 0
-344 -351 0
-344 -352 0
-344 -353 0
-344 -354 0
-344 -355 0
-344 -356 0
-344 -357 0
-344 -358 0
-344 -359 0
-344 -360 0
-345 -346 0
-345 -347 0
-345 -348 0
-345 -349 0
-345 -350 0
-345 -351 0
-345 -352 0
-345 -353 0
-345 -354 0
-345 -355 0
-345 -356 0
-345 -357 0
-345 -358 0
-345 -359 0
-345 -360 0
-346 -347 0
-346 -348 0
-346 -349 0
-346 -350 0
-346 -351 0
-346 -352 0
-346 -353 0
-346 -354 0
-346 -355 0
-346 -356 0
-346 -357 0
-346 -358 0
-346 -359 0
-346 -360 0
-347 -348 0
-347 -349 0
-347 -350 0
-347 -351 0
-347 -352 0
-347 -353 0
-347 -354 0
-347 -355 0
-347 -356 0
-347 -357 0
-347 -358 0
-347 -359 0
-347 -360 0
-348 -349 0
-348 -350 0
-348 -351 0
-348 -352 0
-348 -353 0
-348 -354 0
-348 -355 0
-348 -356 0
-348 -357 0
-348 -358 0
-348 -359 0
-348 -360 0
-349 -350 0
-349 -351 0
-349 -352 0
-349 -353 0
-349 -354 0
-349 -355 0
-349 -356 0
-349 -357 0
-349 -358 0
-349 -359 0
-349 -360 0
-350 -351 0
-350 -352 0
-350 -353 0
-350 -354 0
-350 -355 0
-350 -356 0
-350 -357 0
-350 -358 0
-350 -359 0
-350 -360 0
-351 -352 0
-351 -353 0
-351 -354 0
-351 -355 0
-351 -356 0
-351 -357 0
-351 -358 0
-351 -359 0
-351 -360 0
-352 -353 0
-352 -354 0
-352 -355 0
-352 -356 0
-352 -357 0
-352 -358 0
-352 -359 0
-352 -360 0
-353 -354 0
-353 -355 0
-353 -356 0
-353 -357 0
-353 -358 0
-353 -359 0
-353 -360 0
-354 -355 0
-354 -356 0
-354 -357 0
-354 -358 0
-354 -359 0
-354 -360 0
-355 -356 0
-355 -357 0
-355 -358 0
-355 -359 0
-355 -360 0
-356 -357 0
-356 -358 0
-356 -359 0
-356 -360 0
-357 -358 0
-357 -359 0
-357 -360 0
-358 -359 0
-358 -360 0
-359 -360 0
361 362 363 364 365 366 367 368 369 370 371 372 373 374 375 376 377 378 0
-361 -362 0
-361 -363 0
-361 -364 0
-361 -365 0
-361 -366 0
-361 -367 0
-361 -368 0
-361 -369 0
-361 -370 0
-361 -371 0
-361 -372 0
-361 -373 0
-361 -374 0
-361 -375 0
-361 -376 0
-361 -377 0
-361 -378 0
-362 -363 0
-362 -364 0
-362 -365 0
-362 -366 0
-362 -367 0
-362 -368 0
-362 -369 0
-362 -370 0
-362 -371 0
-362 -372 0
-362 -373 0
-362 -374 0
-362 -375 0
-362 -376 0
-362 -377 0
-362 -378 0
-363 -364 0
-363 -365 0
-363 -366 0
-363 -367 0
-363 -368 0
-363 -369 0
-363 -370 0
-363 -371 0
-363 -372 0
-363 -373 0
-363 -374 0
-363 -375 0
-363 -376 0
-363 -377 0
-363 -378 0
-364 -365 0
-364 -366 0
-364 -367 0
-364 -368 0
-364 -369 0
-364 -370 0
-364 -371 0
-364 -372 0
-364 -373 0
-364 -374 0
-364 -375 0
-364 -376 0
-364 -377 0
-364 -378 0
-365 -366 0
-365 -367 0
-365 -368 0
-365 -369 0
-365 -370 0
-365 -371 0
-365 -372 0
-365 -373 0
-365 -374 0
-365 -375 0
-365 -376 0
-365 -377 0
-365 -378 0
-366 -367 0
-366 -368 0
-366 -369 0
-366 -370 0
-366 -371 0
-366 -372 0
-366 -373 0
-366 -374 0
-366 -375 0
-366 -376 0
-366 -377 0
-366 -378 0
-367 -368 0
-367 -369 0
-367 -370 0
-367 -371 0
-367 -372 0
-367 -373 0
-367 -374 0
-367 -375 0
-367 -376 0
-367 -377 0
-367 -378 0
-368 -369 0
-368 -370 0
-368 -371 0
-368 -372 0
-368 -373 0
-368 -374 0
-368 -375 0
-368 -376 0
-368 -377 0
-368 -378 0
-369 -370 0
-369 -371 0
-369 -372 0
-369 -373 0
-369 -374 0
-369 -375 0
-369 -376 0
-369 -377 0
-369 -378 0
-370 -371 0
-370 -372 0
-370 -373 0
-370 -374 0
-370 -375 0
-370 -376 0
-370 -377 0
-370 -378 0
-371 -372 0
-371 -373 0
-371 -374 0
-371 -375 0
-371 -376 0
-371 -377 0
-371 -378 0
-372 -373 0
-372 -374 0
-372 -375 0
-372 -376 0
-372 -377 0
-372 -378 0
-373 -374 0
-373 -375 0
-373 -376 0
-373 -377 0
-373 -378 0
-374 -375 0
-374 -376 0
-374 -377 0
-374 -378 0
-375 -376 0
-375 -377 0
-375 -378 0
-376 -377 0
-376 -378 0
-377 -378 0
379 380 381 382 383 384 385 386 387 388 389 390 391 392 393 394 395 396 0
-379 -380 0
-379 -381 0
-379 -382 0
-379 -383 0
-379 -384 0
-379 -385 0
-379 -386 0
-379 -387 0
-379 -388 0
-379 -389 0
-379 -390 0
-379 -391 0
-379 -392 0
-379 -393 0
-379 -394 0
-379 -395 0
-379 -396 0
-380 -381 0
-380 -382 0
-380 -383 0
-380 -384 0
-380 -385 0
-380 -386 0
-380 -387 0
-380 -388 0
-380 -389 0
-380 -390 0
-380 -391 0
-380 -392 0
-380 -393 0
-380 -394 0
-380 -395 0
-380 -396 0
-381 -382 0
-381 -383 0
-381 -384 0
-381 -385 0
-381 -386 0
-381 -387 0
-381 -388 0
-381 -389 0
-381 -390 0
-381 -391 0
-381 -392 0
-381 -393 0
-381 -394 0
-381 -395 0
-381 -396 0
-382 -383 0
-382 -384 0
-382 -385 0
-382 -386 0
-382 -387 0
-382 -388 0
-382 -389 0
-382 -390 0
-382 -391 0
-382 -392 0
-382 -393 0
-382 -394 0
-382 -395 0
-382 -396 0
-383 -384 0
-383 -385 0
-383 -386 0
-383 -387 0
-383 -388 0
-383 -389 0
-383 -390 0
-383 -391 0
-383 -392 0
-383 -393 0
-383 -394 0
-383 -395 0
-383 -396 0
-384 -385 0
-384 -386 0
-384 -387 0
-384 -388 0
-384 -389 0
-384 -390 0
-384 -391 0
-384 -392 0
-384 -393 0
-384 -394 0
-384 -395 0
-384 -396 0
-385 -386 0
-385 -387 0
-385 -388 0
-385 -389 0
-385 -390 0
-385 -391 0
-385 -392 0
-385 -393 0
-385 -394 0
-385 -395 0
-385 -396 0
-386 -387 0
-386 -388 0
-386 -389 0
-386 -390 0
-386 -391 0
-386 -392 0
-386 -393 0
-386 -394 0
-386 -395 0
-386 -396 0
-387 -388 0
-387 -389 0
-387 -390 0
-387 -391 0
-387 -392 0
-387 -393 0
-387 -394 0
-387 -395 0
-387 -396 0
-388 -389 0
-388 -390 0
-388 -391 0
-388 -392 0
-388 -393 0
-388 -394 0
-388 -395 0
-388 -396 0
-389 -390 0
-389 -391 0
-389 -392 0
-389 -393 0
-389 -394 0
-389 -395 0
-389 -396 0
-390 -391 0
-390 -392 0
-390 -393 0
-390 -394 0
-390 -395 0
-390 -396 0
-391 -392 0
-391 -393 0
-391 -394 0
-391 -395 0
-391 -396 0
-392 -393 0
-392 -394 0
-392 -395 0
-392 -396 0
-393 -394 0
-393 -395 0
-393 -396 0
-394 -395 0
-394 -396 0
-395 -396 0
397 398 399 400 401 402 403 404 405 406 407 408 409 410 411 412 413 414 0
-397 -398 0
-397 -399 0
-397 -400 0
-397 -401 0
-397 -402 0
-397 -403 0
-397 -404 0
-397 -405 0
-397 -406 0
-397 -407 0
-397 -408 0
-397 -409 0
-397 -410 0
-397 -411 0
-397 -412 0
-397 -413 0
-397 -414 0
-398 -399 0
-398 -400 0
-398 -401 0
-398 -402 0
-398 -403 0
-398 -404 0
-398 -405 0
-398 -406 0
-398 -407 0
-398 -408 0
-398 -409 0
-398 -410 0
-398 -411 0
-398 -412 0
-398 -413 0
-398 -414 0
-399 -400 0
-399 -401 0
-399 -402 0
-399 -403 0
-399 -404 0
-399 -405 0
-399 -406 0
-399 -407 0
-399 -408 0
-399 -409 0
-399 -410 0
-399 -411 0
-399 -412 0
-399 -413 0
-399 -414 0
-400 -401 0
-400 -402 0
-400 -403 0
-400 -404 0
-400 -405 0
-400 -406 0
-400 -407 0
-400 -408 0
-400 -409 0
-400 -410 0
-400 -411 0
-400 -412 0
-400 -413 0
-400 -414 0
-401 -402 0
-401 -403 0
-401 -404 0
-401 -405 0
-401 -406 0
-401 -407 0
-401 -408 0
-401 -409 0
-401 -410 0
-401 -411 0
-401 -412 0
-401 -413 0
-401 -414 0
-402 -403 0
-402 -404 0
-402 -405 0
-402 -406 0
-402 -407 0
-402 -408 0
-402 -409 0
-402 -410 0
-402 -411 0
-402 -412 0
-402 -413 0
-402 -414 0
-403 -404 0
-403 -405 0
-403 -406 0
-403 -407 0
-403 -408 0
-403 -409 0
-403 -410 0
-403 -411 0
-403 -412 0
-403 -413 0
-403 -414 0
-404 -405 0
-404 -406 0
-404 -407 0
-404 -408 0
-404 -409 0
-404 -410 0
-404 -411 0
-404 -412 0
-404 -413 0
-404 -414 0
-405 -406 0
-405 -407 0
-405 -408 0
-405 -409 0
-405 -410 0
-405 -411 0
-405 -412 0
-405 -413 0
-405 -414 0
-406 -407 0
-406 -408 0
-406 -409 0
-406 -410 0
-406 -411 0
-406 -412 0
-406 -413 0
-406 -414 0
-407 -408 0
-407 -409 0
-407 -410 0
-407 -411 0
-407 -412 0
-407 -413 0
-407 -414 0
-408 -409 0
-408 -410 0
-408 -411 0
-408 -412 0
-408 -413 0
-408 -414 0
-409 -410 0
-409 -411 0
-409 -412 0
-409 -413 0
-409 -414 0
-410 -411 0
-410 -412 0
-410 -413 0
-410 -414 0
-411 -412 0
-411 -413 0
-411 -414 0
-412 -413 0
-412 -414 0
-413 -414 0
415 416 417 418 419 420 421 422 423 424 425 426 427 428 429 430 431 432 0
-415 -416 0
-415 -417 0
-415 -418 0
-415 -419 0
-415 -420 0
-415 -421 0
-415 -422 0
-415 -423 0
-415 -424 0
-415 -425 0
-415 -426 0
-415 -427 0
-415 -428 0
-415 -429 0
-415 -430 0
-415 -431 0
-415 -432 0
-416 -417 0
-416 -418 0
-416 -419 0
-416 -420 0
-416 -421 0
-416 -422 0
-416 -423 0
-416 -424 0
-416 -425 0
-416 -426 0
-416 -427 0
-416 -428 0
-416 -429 0
-416 -430 0
-416 -431 0
-416 -432 0
-417 -418 0
-417 -419 0
-417 -420 0
-417 -421 0
-417 -422 0
-417 -423 0
-417 -424 0
-417 -425 0
-417 -426 0
-417 -427 0
-417 -428 0
-417 -429 0
-417 -430 0
-417 -431 0
-417 -432 0
-418 -419 0
-418 -420 0
-418 -421 0
-418 -422 0
-418 -423 0
-418 -424 0
-418 -425 0
-418 -426 0
-418 -427 0
-418 -428 0
-418 -429 0
-418 -430 0
-418 -431 0
-418 -432 0
-419 -420 0
-419 -421 0
-419 -422 0
-419 -423 0
-419 -424 0
-419 -425 0
-419 -426 0
-419 -427 0
-419 -428 0
-419 -429 0
-419 -430 0
-419 -431 0
-419 -432 0
-420 -421 0
-420 -422 0
-420 -423 0
-420 -424 0
-420 -425 0
-420 -426 0
-420 -427 0
-420 -428 0
-420 -429 0
-420 -430 0
-420 -431 0
-420 -432 0
-421 -422 0
-421 -423 0
-421 -424 0
-421 -425 0
-421 -426 0
-421 -427 0
-421 -428 0
-421 -429 0
-421 -430 0
-421 -431 0
-421 -432 0
-422 -423 0
-422 -424 0
-422 -425 0
-422 -426 0
-422 -427 0
-422 -428 0
-422 -429 0
-422 -430 0
-422 -431 0
-422 -432 0
-423 -424 0
-423 -425 0
-423 -426 0
-423 -427 0
-423 -428 0
-423 -429 0
-423 -430 0
-423 -431 0
-423 -432 0
-424 -425 0
-424 -426 0
-424 -427 0
-424 -428 0
-424 -429 0
-424 -430 0
-424 -431 0
-424 -432 0
-425 -426 0
-425 -427 0
-425 -428 0
-425 -429 0
-425 -430 0
-425 -431 0
-425 -432 0
-426 -427 0
-426 -428 0
-426 -429 0
-426 -430 0
-426 -431 0
-426 -432 0
-427 -428 0
-427 -429 0
-427 -430 0
-427 -431 0
-427 -432 0
-428 -429 0
-428 -430 0
-428 -431 0
-428 -432 0
-429 -430 0
-429 -431 0
-429 -432 0
-430 -431 0
-430 -432 0
-431 -432 0
433 434 435 436 437 438 439 440 441 442 443 444 445 446 447 448 449 450 0
-433 -434 0
-433 -435 0
-433 -436 0
-433 -437 0
-433 -438 0
-433 -439 0
-433 -440 0
-433 -441 0
-433 -442 0
-433 -443 0
-433 -444 0
-433 -445 0
-433 -446 0
-433 -447 0
-433 -448 0
-433 -449 0
-433 -450 0
-434 -435 0
-434 -436 0
-434 -437 0
-434 -438 0
-434 -439 0
-434 -440 0
-434 -441 0
-434 -442 0
-434 -443 0
-434 -444 0
-434 -445 0
-434 -446 0
-434 -447 0
-434 -448 0
-434 -449 0
-434 -450 0
-435 -436 0
-435 -437 0
-435 -438 0
-435 -439 0
-435 -440 0
-435 -441 0
-435 -442 0
-435 -443 0
-435 -444 0
-435 -445 0
-435 -446 0
-435 -447 0
-435 -448 0
-435 -449 0
-435 -450 0
-436 -437 0
-436 -438 0
-436 -439 0
-436 -440 0
-436 -441 0
-436 -442 0
-436 -443 0
-436 -444 0
-436 -445 0
-436 -446 0
-436 -447 0
-436 -448 0
-436 -449 0
-436 -450 0
-437 -438 0
-437 -439 0
-437 -440 0
-437 -441 0
-437 -442 0
-437 -443 0
-437 -444 0
-437 -445 0
-437 -446 0
-437 -447 0
-437 -448 0
-437 -449 0
-437 -450 0
-438 -439 0
-438 -440 0
-438 -441 0
-438 -442 0
-438 -443 0
-438 -444 0
-438 -445 0
-438 -446 0
-438 -447 0
-438 -448 0
-438 -449 0
-438 -450 0
-439 -440 0
-439 -441 0
-439 -442 0
-439 -443 0
-439 -444 0
-439 -445 0
-439 -446 0
-439 -447 0
-439 -448 0
-439 -449 0
-439 -450 0
-440 -441 0
-440 -442 0
-440 -443 0
-440 -444 0
-440 -445 0
-440 -446 0
-440 -447 0
-440 -448 0
-440 -449 0
-440 -450 0
-441 -442 0
-441 -443 0
-441 -444 0
-441 -445 0
-441 -446 0
-441 -447 0
-441 -448 0
-441 -449 0
-441 -450 0
-442 -443 0
-442 -444 0
-442 -445 0
-442 -446 0
-442 -447 0
-442 -448 0
-442 -449 0
-442 -450 0
-443 -444 0
-443 -445 0
-443 -446 0
-443 -447 0
-443 -448 0
-443 -449 0
-443 -450 0
-444 -445 0
-444 -446 0
-444 -447 0
-444 -448 0
-444 -449 0
-444 -450 0
-445 -446 0
-445 -447 0
-445 -448 0
-445 -449 0
-445 -450 0
-446 -447 0
-446 -448 0
-446 -449 0
-446 -450 0
-447 -448 0
-447 -449 0
-447 -450 0
-448 -449 0
-448 -450 0
-449 -450 0
451 452 453 454 455 456 457 458 459 460 461 462 463 464 465 466 467 468 0
-451 -452 0
-451 -453 0
-451 -454 0
-451 -455 0
-451 -456 0
-451 -457 0
-451 -458 0
-451 -459 0
-451 -460 0
-451 -461 0
-451 -462 0
-451 -463 0
-451 -464 0
-451 -465 0
-451 -466 0
-451 -467 0
-451 -468 0
-452 -453 0
-452 -454 0
-452 -455 0
-452 -456 0
-452 -457 0
-452 -458 0
-452 -459 0
-452 -460 0
-452 -461 0
-452 -462 0
-452 -463 0
-452 -464 0
-452 -465 0
-452 -466 0
-452 -467 0
-452 -468 0
-453 -454 0
-453 -455 0
-453 -456 0
-453 -457 0
-453 -458 0
-453 -459 0
-453 -460 0
-453 -461 0
-453 -462 0
-453 -463 0
-453 -464 0
-453 -465 0
-453 -466 0
-453 -467 0
-453 -468 0
-454 -455 0
-454 -456 0
-454 -457 0
-454 -458 0
-454 -459 0
-454 -460 0
-454 -461 0
-454 -462 0
-454 -463 0
-454 -464 0
-454 -465 0
-454 -466 0
-454 -467 0
-454 -468 0
-455 -456 0
-455 -457 0
-455 -458 0
-455 -459 0
-455 -460 0
-455 -461 0
-455 -462 0
-455 -463 0
-455 -464 0
-455 -465 0
-455 -466 0
-455 -467 0
-455 -468 0
-456 -457 0
-456 -458 0
-456 -459 0
-456 -460 0
-456 -461 0
-456 -462 0
-456 -463 0
-456 -464 0
-456 -465 0
-456 -466 0
-456 -467 0
-456 -468 0
-457 -458 0
-457 -459 0
-457 -460 0
-457 -461 0
-457 -462 0
-457 -463 0
-457 -464 0
-457 -465 0
-457 -466 0
-457 -467 0
-457 -468 0
-458 -459 0
-458 -460 0
-458 -461 0
-458 -462 0
-458 -463 0
-458 -464 0
-458 -465 0
-458 -466 0
-458 -467 0
-458 -468 0
-459 -460 0
-459 -461 0
-459 -462 0
-459 -463 0
-459 -464 0
-459 -465 0
-459 -466 0
-459 -467 0
-459 -468 0
-460 -461 0
-460 -462 0
-460 -463 0
-460 -464 0
-460 -465 0
-460 -466 0
-460 -467 0
-460 -468 0
-461 -462 0
-461 -463 0
-461 -464 0
-461 -465 0
-461 -466 0
-461 -467 0
-461 -468 0
-462 -463 0
-462 -464 0
-462 -465 0
-462 -466 0
-462 -467 0
-462 -468 0
-463 -464 0
-463 -465 0
-463 -466 0
-463 -467 0
-463 -468 0
-464 -465 0
-464 -466 0
-464 -467 0
-464 -468 0
-465 -466 0
-465 -467 0
-465 -468 0
-466 -467 0
-466 -468 0
-467 -468 0
469 470 471 472 473 474 475 476 477 478 479 480 481 482 483 484 485 486 0
-469 -470 0
-469 -471 0
-469 -472 0
-469 -473 0
-469 -474 0
-469 -475 0
-469 -476 0
-469 -477 0
-469 -478 0
-469 -479 0
-469 -480 0
-469 -481 0
-469 -482 0
-469 -483 0
-469 -484 0
-469 -485 0
-469 -486 0
-470 -471 0
-470 -472 0
-470 -473 0
-470 -474 0
-470 -475 0
-470 -476 0
-470 -477 0
-470 -478 0
-470 -479 0
-470 -480 0
-470 -481 0
-470 -482 0
-470 -483 0
-470 -484 0
-470 -485 0
-470 -486 0
-471 -472 0
-471 -473 0
-471 -474 0
-471 -475 0
-471 -476 0
-471 -477 0
-471 -478 0
-471 -479 0
-471 -480 0
-471 -481 0
-471 -482 0
-471 -483 0
-471 -484 0
-471 -485 0
-471 -486 0
-472 -473 0
-472 -474 0
-472 -475 0
-472 -476 0
-472 -477 0
-472 -478 0
-472 -479 0
-472 -480 0
-472 -481 0
-472 -482 0
-472 -483 0
-472 -484 0
-472 -485 0
-472 -486 0
-473 -474 0
-473 -475 0
-473 -476 0
-473 -477 0
-473 -478 0
-473 -479 0
-473 -480 0
-473 -481 0
-473 -482 0
-473 -483 0
-473 -484 0
-473 -485 0
-473 -486 0
-474 -475 0
-474 -476 0
-474 -477 0
-474 -478 0
-474 -479 0
-474 -480 0
-474 -481 0
-474 -482 0
-474 -483 0
-474 -484 0
-474 -485 0
-474 -486 0
-475 -476 0
-475 -477 0
-475 -478 0
-475 -479 0
-475 -480 0
-475 -481 0
-475 -482 0
-475 -483 0
-475 -484 0
-475 -485 0
-475 -486 0
-476 -477 0
-476 -478 0
-476 -479 0
-476 -480 0
-476 -481 0
-476 -482 0
-476 -483 0
-476 -484 0
-476 -485 0
-476 -486 0
-477 -478 0
-477 -479 0
-477 -480 0
-477 -481 0
-477 -482 0
-477 -483 0
-477 -484 0
-477 -485 0
-477 -486 0
-478 -479 0
-478 -480 0
-478 -481 0
-478 -482 0
-478 -483 0
-478 -484 0
-478 -485 0
-478 -486 0
-479 -480 0
-479 -481 0
-479 -482 0
-479 -483 0
-479 -484 0
-479 -485 0
-479 -486 0
-480 -481 0
-480 -482 0
-480 -483 0
-480 -484 0
-480 -485 0
-480 -486 0
-481 -482 0
-481 -483 0
-481 -484 0
-481 -485 0
-481 -486 0
-482 -483 0
-482 -484 0
-482 -485 0
-482 -486 0
-483 -484 0
-483 -485 0
-483 -486 0
-484 -485 0
-484 -486 0
-485 -486 0
487 488 489 490 491 492 493 494 495 496 497 498 499 500 501 502 503 504 0
-487 -488 0
-487 -489 0
-487 -490 0
-487 -491 0
-487 -492 0
-487 -493 0
-487 -494 0
-487 -495 0
-487 -496 0
-487 -497 0
-487 -498 0
-487 -499 0
-487 -500 0
-487 -501 0
-487 -502 0
-487 -503 0
-487 -504 0
-488 -489 0
-488 -490 0
-488 -491 0
-488 -492 0
-488 -493 0
-488 -494 0
-488 -495 0
-488 -496 0
-488 -497 0
-488 -498 0
-488 -499 0
-488 -500 0
-488 -501 0
-488 -502 0
-488 -503 0
-488 -504 0
-489 -490 0
-489 -491 0
-489 -492 0
-489 -493 0
-489 -494 0
-489 -495 0
-489 -496 0
-489 -497 0
-489 -498 0
-489 -499 0
-489 -500 0
-489 -501 0
-489 -502 0
-489 -503 0
-489 -504 0
-490 -491 0
-490 -492 0
-490 -493 0
-490 -494 0
-490 -495 0
-490 -496 0
-490 -497 0
-490 -498 0
-490 -499 0
-490 -500 0
-490 -501 0
-490 -502 0
-490 -503 0
-490 -504 0
-491 -492 0
-491 -493 0
-491 -494 0
-491 -495 0
-491 -496 0
-491 -497 0
-491 -498 0
-491 -499 0
-491 -500 0
-491 -501 0
-491 -502 0
-491 -503 0
-491 -504 0
-492 -493 0
-492 -494 0
-492 -495 0
-492 -496 0
-492 -497 0
-492 -498 0
-492 -499 0
-492 -500 0
-492 -501 0
-492 -502 0
-492 -503 0
-492 -504 0
-493 -494 0
-493 -495 0
-493 -496 0
-493 -497 0
-493 -498 0
-493 -499 0
-493 -500 0
-493 -501 0
-493 -502 0
-493 -503 0
-493 -504 0
-494 -495 0
-494 -496 0
-494 -497 0
-494 -498 0
-494 -499 0
-494 -500 0
-494 -501 0
-494 -502 0
-494 -503 0
-494 -504 0
-495 -496 0
-495 -497 0
-495 -498 0
-495 -499 0
-495 -500 0
-495 -501 0
-495 -502 0
-495 -503 0
-495 -504 0
-496 -497 0
-496 -498 0
-496 -499 0
-496 -500 0
-496 -501 0
-496 -502 0
-496 -503 0
-496 -504 0
-497 -498 0
-497 -499 0
-497 -500 0
-497 -501 0
-497 -502 0
-497 -503 0
-497 -504 0
-498 -499 0
-498 -500 0
-498 -501 0
-498 -502 0
-498 -503 0
-498 -504 0
-499 -500 0
-499 -501 0
-499 -502 0
-499 -503 0
-499 -504 0
-500 -501 0
-500 -502 0
-500 -503 0
-500 -504 0
-501 -502 0
-501 -503 0
-501 -504 0
-502 -503 0
-502 -504 0
-503 -504 0
505 506 507 508 509 510 511 512 513 514 515 516 517 518 519 520 521 522 0
-505 -506 0
-505 -507 0
-505 -508 0
-505 -509 0
-505 -510 0
-505 -511 0
-505 -512 0
-505 -513 0
-505 -514 0
-505 -515 0
-505 -516 0
-505 -517 0
-505 -518 0
-505 -519 0
-505 -520 0
-505 -521 0
-505 -522 0
-506 -507 0
-506 -508 0
-506 -509 0
-506 -510 0
-506 -511 0
-506 -512 0
-506 -513 0
-506 -514 0
-506 -515 0
-506 -516 0
-506 -517 0
-506 -518 0
-506 -519 0
-506 -520 0
-506 -521 0
-506 -522 0
-507 -508 0
-507 -509 0
-507 -510 0
-507 -511 0
-507 -512 0
-507 -513 0
-507 -514 0
-507 -515 0
-507 -516 0
-507 -517 0
-507 -518 0
-507 -519 0
-507 -520 0
-507 -521 0
-507 -522 0
-508 -509 0
-508 -510 0
-508 -511 0
-508 -512 0
-508 -513 0
-508 -514 0
-508 -515 0
-508 -516 0
-508 -517 0
-508 -518 0
-508 -519 0
-508 -520 0
-508 -521 0
-508 -522 0
-509 -510 0
-509 -511 0
-509 -512 0
-509 -513 0
-509 -514 0
-509 -515 0
-509 -516 0
-509 -517 0
-509 -518 0
-509 -519 0
-509 -520 0
-509 -521 0
-509 -522 0
-510 -511 0
-510 -512 0
-510 -513 0
-510 -514 0
-510 -515 0
-510 -516 0
-510 -517 0
-510 -518 0
-510 -519 0
-510 -520 0
-510 -521 0
-510 -522 0
-511 -512 0
-511 -513 0
-511 -514 0
-511 -515 0
-511 -516 0
-511 -517 0
-511 -518 0
-511 -519 0
-511 -520 0
-511 -521 0
-511 -522 0
-512 -513 0
-512 -514 0
-512 -515 0
-512 -516 0
-512 -517 0
-512 -518 0
-512 -519 0
-512 -520 0
-512 -521 0
-512 -522 0
-513 -514 0
-513 -515 0
-513 -516 0
-513 -517 0
-513 -518 0
-513 -519 0
-513 -520 0
-513 -521 0
-513 -522 0
-514 -515 0
-514 -516 0
-514 -517 0
-514 -518 0
-514 -519 0
-514 -520 0
-514 -521 0
-514 -522 0
-515 -516 0
-515 -517 0
-515 -518 0
-515 -519 0
-515 -520 0
-515 -521 0
-515 -522 0
-516 -517 0
-516 -518 0
-516 -519 0
-516 -520 0
-516 -521 0
-516 -522 0
-517 -518 0
-517 -519 0
-517 -520 0
-517 -521 0
-517 -522 0
-518 -519 0
-518 -520 0
-518 -521 0
-518 -522 0
-519 -520 0
-519 -521 0
-519 -522 0
-520 -521 0
-520 -522 0
-521 -522 0
523 524 525 526 527 528 529 530 531 532 533 534 535 536 537 538 539 540 0
-523 -524 0
-523 -525 0
-523 -526 0
-523 -527 0
-523 -528 0
-523 -529 0
-523 -530 0
-523 -531 0
-523 -532 0
-523 -533 0
-523 -534 0
-523 -535 0
-523 -536 0
-523 -537 0
-523 -538 0
-523 -539 0
-523 -540 0
-524 -525 0
-524 -526 0
-524 -527 0
-524 -528 0
-524 -529 0
-524 -530 0
-524 -531 0
-524 -532 0
-524 -533 0
-524 -534 0
-524 -535 0
-524 -536 0
-524 -537 0
-524 -538 0
-524 -539 0
-524 -540 0
-525 -526 0
-525 -527 0
-525 -528 0
-525 -529 0
-525 -530 0
-525 -531 0
-525 -532 0
-525 -533 0
-525 -534 0
-525 -535 0
-525 -536 0
-525 -537 0
-525 -538 0
-525 -539 0
-525 -540 0
-526 -527 0
-526 -528 0
-526 -529 0
-526 -530 0
-526 -531 0
-526 -532 0
-526 -533 0
-526 -534 0
-526 -535 0
-526 -536 0
-526 -537 0
-526 -538 0
-526 -539 0
-526 -540 0
-527 -528 0
-527 -529 0
-527 -530 0
-527 -531 0
-527 -532 0
-527 -533 0
-527 -534 0
-527 -535 0
-527 -536 0
-527 -537 0
-527 -538 0
-527 -539 0
-527 -540 0
-528 -529 0
-528 -530 0
-528 -531 0
-528 -532 0
-528 -533 0
-528 -534 0
-528 -535 0
-528 -536 0
-528 -537 0
-528 -538 0
-528 -539 0
-528 -540 0
-529 -530 0
-529 -531 0
-529 -532 0
-529 -533 0
-529 -534 0
-529 -535 0
-529 -536 0
-529 -537 0
-529 -538 0
-529 -539 0
-529 -540 0
-530 -531 0
-530 -532 0
-530 -533 0
-530 -534 0
-530 -535 0
-530 -536 0
-530 -537 0
-530 -538 0
-530 -539 0
-530 -540 0
-531 -532 0
-531 -533 0
-531 -534 0
-531 -535 0
-531 -536 0
-531 -537 0
-531 -538 0
-531 -539 0
-531 -540 0
-532 -533 0
-532 -534 0
-532 -535 0
-532 -536 0
-532 -537 0
-532 -538 0
-532 -539 0
-532 -540 0
-533 -534 0
-533 -535 0
-533 -536 0
-533 -537 0
-533 -538 0
-533 -539 0
-533 -540 0
-534 -535 0
-534 -536 0
-534 -537 0
-534 -538 0
-534 -539 0
-534 -540 0
-535 -536 0
-535 -537 0
-535 -538 0
-535 -539 0
-535 -540 0
-536 -537 0
-536 -538 0
-536 -539 0
-536 -540 0
-537 -538 0
-537 -539 0
-537 -540 0
-538 -539 0
-538 -540 0
-539 -540 0
541 542 543 544 545 546 547 548 549 550 551 552 553 554 555 556 557 558 0
-541 -542 0
-541 -543 0
-541 -544 0
-541 -545 0
-541 -546 0
-541 -547 0
-541 -548 0
-541 -549 0
-541 -550 0
-541 -551 0
-541 -552 0
-541 -553 0
-541 -554 0
-541 -555 0
-541 -556 0
-541 -557 0
-541 -558 0
-542 -543 0
-542 -544 0
-542 -545 0
-542 -546 0
-542 -547 0
-542 -548 0
-542 -549 0
-542 -550 0
-542 -551 0
-542 -552 0
-542 -553 0
-542 -554 0
-542 -555 0
-542 -556 0
-542 -557 0
-542 -558 0
-543 -544 0
-543 -545 0
-543 -546 0
-543 -547 0
-543 -548 0
-543 -549 0
-543 -550 0
-543 -551 0
-543 -552 0
-543 -553 0
-543 -554 0
-543 -555 0
-543 -556 0
-543 -557 0
-543 -558 0
-544 -545 0
-544 -546 0
-544 -547 0
-544 -548 0
-544 -549 0
-544 -550 0
-544 -551 0
-544 -552 0
-544 -553 0
-544 -554 0
-544 -555 0
-544 -556 0
-544 -557 0
-544 -558 0
-545 -546 0
-545 -547 0
-545 -548 0
-545 -549 0
-545 -550 0
-545 -551 0
-545 -552 0
-545 -553 0
-545 -554 0
-545 -555 0
-545 -556 0
-545 -557 0
-545 -558 0
-546 -547 0
-546 -548 0
-546 -549 0
-546 -550 0
-546 -551 0
-546 -552 0
-546 -553 0
-546 -554 0
-546 -555 0
-546 -556 0
-546 -557 0
-546 -558 0
-547 -548 0
-547 -549 0
-547 -550 0
-547 -551 0
-547 -552 0
-547 -553 0
-547 -554 0
-547 -555 0
-547 -556 0
-547 -557 0
-547 -558 0
-548 -549 0
-548 -550 0
-548 -551 0
-548 -552 0
-548 -553 0
-548 -554 0
-548 -555 0
-548 -556 0
-548 -557 0
-548 -558 0
-549 -550 0
-549 -551 0
-549 -552 0
-549 -553 0
-549 -554 0
-549 -555 0
-549 -556 0
-549 -557 0
-549 -558 0
-550 -551 0
-550 -552 0
-550 -553 0
-550 -554 0
-550 -555 0
-550 -556 0
-550 -557 0
-550 -558 0
-551 -552 0
-551 -553 0
-551 -554 0
-551 -555 0
-551 -556 0
-551 -557 0
-551 -558 0
-552 -553 0
-552 -554 0
-552 -555 0
-552 -556 0
-552 -557 0
-552 -558 0
-553 -554 0
-553 -555 0
-553 -556 0
-553 -557 0
-553 -558 0
-554 -555 0
-554 -556 0
-554 -557 0
-554 -558 0
-555 -556 0
-555 -557 0
-555 -558 0
-556 -557 0
-556 -558 0
-557 -558 0
559 560 561 562 563 564 565 566 567 568 569 570 571 572 573 574 575 576 0
-559 -560 0
-559 -561 0
-559 -562 0
-559 -563 0
-559 -564 0
-559 -565 0
-559 -566 0
-559 -567 0
-559 -568 0
-559 -569 0
-559 -570 0
-559 -571 0
-559 -572 0
-559 -573 0
-559 -574 0
-559 -575 0
-559 -576 0
-560 -561 0
-560 -562 0
-560 -563 0
-560 -564 0
-560 -565 0
-560 -566 0
-560 -567 0
-560 -568 0
-560 -569 0
-560 -570 0
-560 -571 0
-560 -572 0
-560 -573 0
-560 -574 0
-560 -575 0
-560 -576 0
-561 -562 0
-561 -563 0
-561 -564 0
-561 -565 0
-561 -566 0
-561 -567 0
-561 -568 0
-561 -569 0
-561 -570 0
-561 -571 0
-561 -572 0
-561 -573 0
-561 -574 0
-561 -575 0
-561 -576 0
-562 -563 0
-562 -564 0
-562 -565 0
-562 -566 0
-562 -567 0
-562 -568 0
-562 -569 0
-562 -570 0
-562 -571 0
-562 -572 0
-562 -573 0
-562 -574 0
-562 -575 0
-562 -576 0
-563 -564 0
-563 -565 0
-563 -566 0
-563 -567 0
-563 -568 0
-563 -569 0
-563 -570 0
-563 -571 0
-563 -572 0
-563 -573 0
-563 -574 0
-563 -575 0
-563 -576 0
-564 -565 0
-564 -566 0
-564 -567 0
-564 -568 0
-564 -569 0
-564 -570 0
-564 -571 0
-564 -572 0
-564 -573 0
-564 -574 0
-564 -575 0
-564 -576 0
-565 -566 0
-565 -567 0
-565 -568 0
-565 -569 0
-565 -570 0
-565 -571 0
-565 -572 0
-565 -573 0
-565 -574 0
-565 -575 0
-565 -576 0
-566 -567 0
-566 -568 0
-566 -569 0
-566 -570 0
-566 -571 0
-566 -572 0
-566 -573 0
-566 -574 0
-566 -575 0
-566 -576 0
-567 -568 0
-567 -569 0
-567 -570 0
-567 -571 0
-567 -572 0
-567 -573 0
-567 -574 0
-567 -575 0
-567 -576 0
-568 -569 0
-568 -570 0
-568 -571 0
-568 -572 0
-568 -573 0
-568 -574 0
-568 -575 0
-568 -576 0
-569 -570 0
-569 -571 0
-569 -572 0
-569 -573 0
-569 -574 0
-569 -575 0
-569 -576 0
-570 -571 0
-570 -572 0
-570 -573 0
-570 -574 0
-570 -575 0
-570 -576 0
-571 -572 0
-571 -573 0
-571 -574 0
-571 -575 0
-571 -576 0
-572 -573 0
-572 -574 0
-572 -575 0
-572 -576 0
-573 -574 0
-573 -575 0
-573 -576 0
-574 -575 0
-574 -576 0
-575 -576 0
577 578 579 580 581 582 583 584 585 586 587 588 589 590 591 592 593 594 0
-577 -578 0
-577 -579 0
-577 -580 0
-577 -581 0
-577 -582 0
-577 -583 0
-577 -584 0
-577 -585 0
-577 -586 0
-577 -587 0
-577 -588 0
-577 -589 0
-577 -590 0
-577 -591 0
-577 -592 0
-577 -593 0
-577 -594 0
-578 -579 0
-578 -580 0
-578 -581 0
-578 -582 0
-578 -583 0
-578 -584 0
-578 -585 0
-578 -586 0
-578 -587 0
-578 -588 0
-578 -589 0
-578 -590 0
-578 -591 0
-578 -592 0
-578 -593 0
-578 -594 0
-579 -580 0
-579 -581 0
-579 -582 0
-579 -583 0
-579 -584 0
-579 -585 0
-579 -586 0
-579 -587 0
-579 -588 0
-579 -589 0
-579 -590 0
-579 -591 0
-579 -592 0
-579 -593 0
-579 -594 0
-580 -581 0
-580 -582 0
-580 -583 0
-580 -584 0
-580 -585 0
-580 -586 0
-580 -587 0
-580 -588 0
-580 -589 0
-580 -590 0
-580 -591 0
-580 -592 0
-580 -593 0
-580 -594 0
-581 -582 0
-581 -583 0
-581 -584 0
-581 -585 0
-581 -586 0
-581 -587 0
-581 -588 0
-581 -589 0
-581 -590 0
-581 -591 0
-581 -592 0
-581 -593 0
-581 -594 0
-582 -583 0
-582 -584 0
-582 -585 0
-582 -586 0
-582 -587 0
-582 -588 0
-582 -589 0
-582 -590 0
-582 -591 0
-582 -592 0
-582 -593 0
-582 -594 0
-583 -584 0
-583 -585 0
-583 -586 0
-583 -587 0
-583 -588 0
-583 -589 0
-583 -590 0
-583 -591 0
-583 -592 0
-583 -593 0
-583 -594 0
-584 -585 0
-584 -586 0
-584 -587 0
-584 -588 0
-584 -589 0
-584 -590 0
-584 -591 0
-584 -592 0
-584 -593 0
-584 -594 0
-585 -586 0
-585 -587 0
-585 -588 0
-585 -589 0
-585 -590 0
-585 -591 0
-585 -592 0
-585 -593 0
-585 -594 0
-586 -587 0
-586 -588 0
-586 -589 0
-586 -590 0
-586 -591 0
-586 -592 0
-586 -593 0
-586 -594 0
-587 -588 0
-587 -589 0
-587 -590 0
-587 -591 0
-587 -592 0
-587 -593 0
-587 -594 0
-588 -589 0
-588 -590 0
-588 -591 0
-588 -592 0
-588 -593 0
-588 -594 0
-589 -590 0
-589 -591 0
-589 -592 0
-589 -593 0
-589 -594 0
-590 -591 0
-590 -592 0
-590 -593 0
-590 -594 0
-591 -592 0
-591 -593 0
-591 -594 0
-592 -593 0
-592 -594 0
-593 -594 0
595 596 597 598 599 600 601 602 603 604 605 606 607 608 609 610 611 612 0
-595 -596 0
-595 -597 0
-595 -598 0
-595 -599 0
-595 -600 0
-595 -601 0
-595 -602 0
-595 -603 0
-595 -604 0
-595 -605 0
-595 -606 0
-595 -607 0
-595 -608 0
-595 -609 0
-595 -610 0
-595 -611 0
-595 -612 0
-596 -597 0
-596 -598 0
-596 -599 0
-596 -600 0
-596 -601 0
-596 -602 0
-596 -603 0
-596 -604 0
-596 -605 0
-596 -606 0
-596 -607 0
-596 -608 0
-596 -609 0
-596 -610 0
-596 -611 0
-596 -612 0
-597 -598 0
-597 -599 0
-597 -600 0
-597 -601 0
-597 -602 0
-597 -603 0
-597 -604 0
-597 -605 0
-597 -606 0
-597 -607 0
-597 -608 0
-597 -609 0
-597 -610 0
-597 -611 0
-597 -612 0
-598 -599 0
-598 -600 0
-598 -601 0
-598 -602 0
-598 -603 0
-598 -604 0
-598 -605 0
-598 -606 0
-598 -607 0
-598 -608 0
-598 -609 0
-598 -610 0
-598 -611 0
-598 -612 0
-599 -600 0
-599 -601 0
-599 -602 0
-599 -603 0
-599 -604 0
-599 -605 0
-599 -606 0
-599 -607 0
-599 -608 0
-599 -609 0
-599 -610 0
-599 -611 0
-599 -612 0
-600 -601 0
-600 -602 0
-600 -603 0
-600 -604 0
-600 -605 0
-600 -606 0
-600 -607 0
-600 -608 0
-600 -609 0
-600 -610 0
-600 -611 0
-600 -612 0
-601 -602 0
-601 -603 0
-601 -604 0
-601 -605 0
-601 -606 0
-601 -607 0
-601 -608 0
-601 -609 0
-601 -610 0
-601 -611 0
-601 -612 0
-602 -603 0
-602 -604 0
-602 -605 0
-602 -606 0
-602 -607 0
-602 -608 0
-602 -609 0
-602 -610 0
-602 -611 0
-602 -612 0
-603 -604 0
-603 -605 0
-603 -606 0
-603 -607 0
-603 -608 0
-603 -609 0
-603 -610 0
-603 -611 0
-603 -612 0
-604 -605 0
-604 -606 0
-604 -607 0
-604 -608 0
-604 -609 0
-604 -610 0
-604 -611 0
-604 -612 0
-605 -606 0
-605 -607 0
-605 -608 0
-605 -609 0
-605 -610 0
-605 -611 0
-605 -612 0
-606 -607 0
-606 -608 0
-606 -609 0
-606 -610 0
-606 -611 0
-606 -612 0
-607 -608 0
-607 -609 0
-607 -610 0
-607 -611 0
-607 -612 0
-608 -609 0
-608 -610 0
-608 -611 0
-608 -612 0
-609 -610 0
-609 -611 0
-609 -612 0
-610 -611 0
-610 -612 0
-611 -612 0
-1 -19 0
-1 -37 0
-1 -55 0
-19 -37 0
-19 -55 0
-37 -55 0
-2 -20 0
-2 -38 0
-2 -56 0
-20 -38 0
-20 -56 0
-38 -56 0
-3 -21 0
-3 -39 0
-3 -57 0
-21 -39 0
-21 -57 0
-39 -57 0
-4 -22 0
-4 -40 0
-4 -58 0
-22 -40 0
-22 -58 0
-40 -58 0
-5 -23 0
-5 -41 0
-5 -59 0
-23 -41 0
-23 -59 0
-41 -59 0
-6 -24 0
-6 -42 0
-6 -60 0
-24 -42 0
-24 -60 0
-42 -60 0
-7 -25 0
-7 -43 0
-7 -61 0
-25 -43 0
-25 -61 0
-43 -61 0
-8 -26 0
-8 -44 0
-8 -62 0
-26 -44 0
-26 -62 0
-44 -62 0
-9 -27 0
-9 -45 0
-9 -63 0
-27 -45 0
-27 -63 0
-45 -63 0
-10 -28 0
-10 -46 0
-10 -64 0
-28 -46 0
-28 -64 0
-46 -64 0
-11 -29 0
-11 -47 0
-11 -65 0
-29 -47 0
-29 -65 0
-47 -65 0
-12 -30 0
-12 -48 0
-12 -66 0
-30 -48 0
-30 -66 0
-48 -66 0
-13 -31 0
-13 -49 0
-13 -67 0
-31 -49 0
-31 -67 0
-49 -67 0
-14 -32 0
-14 -50 0
-14 -68 0
-32 -50 0
-32 -68 0
-50 -68 0
-15 -33 0
-15 -51 0
-15 -69 0
-33 -51 0
-33 -69 0
-51 -69 0
-16 -34 0
-16 -52 0
-16 -70 0
-34 -52 0
-34 -70 0
-52 -70 0
-17 -35 0
-17 -53 0
-17 -71 0
-35 -53 0
-35 -71 0
-53 -71 0
-18 -36 0
-18 -54 0
-18 -72 0
-36 -54 0
-36 -72 0
-54 -72 0
613 614 615 616 617 618 619 620 621 622 623 624 625 626 627 0
-613 -614 0
-613 -615 0
-613 -616 0
-613 -617 0
-613 -618 0
-613 -619 0
-613 -620 0
-613 -621 0
-613 -622 0
-613 -623 0
-613 -624 0
-613 -625 0
-613 -626 0
-613 -627 0
-614 -615 0
-614 -616 0
-614 -617 0
-614 -618 0
-614 -619 0
-614 -620 0
-614 -621 0
-614 -622 0
-614 -623 0
-614 -624 0
-614 -625 0
-614 -626 0
-614 -627 0
-615 -616 0
-615 -617 0
-615 -618 0
-615 -619 0
-615 -620 0
-615 -621 0
-615 -622 0
-615 -623 0
-615 -624 0
-615 -625 0
-615 -626 0
-615 -627 0
-616 -617 0
-616 -618 0
-616 -619 0
-616 -620 0
-616 -621 0
-616 -622 0
-616 -623 0
-616 -624 0
-616 -625 0
-616 -626 0
-616 -627 0
-617 -618 0
-617 -619 0
-617 -620 0
-617 -621 0
-617 -622 0
-617 -623 0
-617 -624 0
-617 -625 0
-617 -626 0
-617 -627 0
-618 -619 0
-618 -620 0
-618 -621 0
-618 -622 0
-618 -623 0
-618 -624 0
-618 -625 0
-618 -626 0
-618 -627 0
-619 -620 0
-619 -621 0
-619 -622 0
-619 -623 0
-619 -624 0
-619 -625 0
-619 -626 0
-619 -627 0
-620 -621 0
-620 -622 0
-620 -623 0
-620 -624 0
-620 -625 0
-620 -626 0
-620 -627 0
-621 -622 0
-621 -623 0
-621 -624 0
-621 -625 0
-621 -626 0
-621 -627 0
-622 -623 0
-622 -624 0
-622 -625 0
-622 -626 0
-622 -627 0
-623 -624 0
-623 -625 0
-623 -626 0
-623 -627 0
-624 -625 0
-624 -626 0
-624 -627 0
-625 -626 0
-625 -627 0
-626 -627 0
-1 613 0
-2 613 614 0
-3 613 614 615 0
-4 613 614 615 616 0
-5 614 615 616 617 0
-6 615 616 617 618 0
-7 616 617 618 619 0
-8 617 618 619 620 0
-9 618 619 620 621 0
-10 619 620 621 622 0
-11 620 621 622 623 0
-12 621 622 623 624 0
-13 622 623 624 625 0
-14 623 624 625 626 0
-15 624 625 626 627 0
-16 625 626 627 0
-17 626 627 0
-18 627 0
-19 613 0
-20 613 614 0
-21 613 614 615 0
-22 613 614 615 616 0
-23 614 615 616 617 0
-24 615 616 617 618 0
-25 616 617 618 619 0
-26 617 618 619 620 0
-27 618 619 620 621 0
-28 619 620 621 622 0
-29 620 621 622 623 0
-30 621 622 623 624 0
-31 622 623 624 625 0
-32 623 624 625 626 0
-33 624 625 626 627 0
-34 625 626 627 0
-35 626 627 0
-36 627 0
-37 613 0
-38 613 614 0
-39 613 614 615 0
-40 613 614 615 616 0
-41 614 615 616 617 0
-42 615 616 617 618 0
-43 616 617 618 619 0
-44 617 618 619 620 0
-45 618 619 620 621 0
-46 619 620 621 622 0
-47 620 621 622 623 0
-48 621 622 623 624 0
-49 622 623 624 625 0
-50 623 624 625 626 0
-51 624 625 626 627 0
-52 625 626 627 0
-53 626 627 0
-54 627 0
-55 613 0
-56 613 614 0
-57 613 614 615 0
-58 613 614 615 616 0
-59 614 615 616 617 0
-60 615 616 617 618 0
-61 616 617 618 619 0
-62 617 618 619 620 0
-63 618 619 620 621 0
-64 619 620 621 622 0
-65 620 621 622 623 0
-66 621 622 623 624 0
-67 622 623 624 625 0
-68 623 624 625 626 0
-69 624 625 626 627 0
-70 625 626 627 0
-71 626 627 0
-72 627 0
-613 -5 0
-613 -6 0
-613 -7 0
-613 -8 0
-613 -9 0
-613 -10 0
-613 -11 0
-613 -12 0
-613 -13 0
-613 -14 0
-613 -15 0
-613 -16 0
-613 -17 0
-613 -18 0
-613 -23 0
-613 -24 0
-613 -25 0
-613 -26 0
-613 -27 0
-613 -28 0
-613 -29 0
-613 -30 0
-613 -31 0
-613 -32 0
-613 -33 0
-613 -34 0
-613 -35 0
-613 -36 0
-613 -41 0
-613 -42 0
-613 -43 0
-613 -44 0
-613 -45 0
-613 -46 0
-613 -47 0
-613 -48 0
-613 -49 0
-613 -50 0
-613 -51 0
-613 -52 0
-613 -53 0
-613 -54 0
-613 -59 0
-613 -60 0
-613 -61 0
-613 -62 0
-613 -63 0
-613 -64 0
-613 -65 0
-613 -66 0
-613 -67 0
-613 -68 0
-613 -69 0
-613 -70 0
-613 -71 0
-613 -72 0
-614 -1 0
-614 -6 0
-614 -7 0
-614 -8 0
-614 -9 0
-614 -10 0
-614 -11 0
-614 -12 0
-614 -13 0
-614 -14 0
-614 -15 0
-614 -16 0
-614 -17 0
-614 -18 0
-614 -19 0
-614 -24 0
-614 -25 0
-614 -26 0
-614 -27 0
-614 -28 0
-614 -29 0
-614 -30 0
-614 -31 0
-614 -32 0
-614 -33 0
-614 -34 0
-614 -35 0
-614 -36 0
-614 -37 0
-614 -42 0
-614 -43 0
-614 -44 0
-614 -45 0
-614 -46 0
-614 -47 0
-614 -48 0
-614 -49 0
-614 -50 0
-614 -51 0
-614 -52 0
-614 -53 0
-614 -54 0
-614 -55 0
-614 -60 0
-614 -61 0
-614 -62 0
-614 -63 0
-614 -64 0
-614 -65 0
-614 -66 0
-614 -67 0
-614 -68 0
-614 -69 0
-614 -70 0
-614 -71 0
-614 -72 0
-615 -1 0
-615 -2 0
-615 -7 0
-615 -8 0
-615 -9 0
-615 -10 0
-615 -11 0
-615 -12 0
-615 -13 0
-615 -14 0
-615 -15 0
-615 -16 0
-615 -17 0
-615 -18 0
-615 -19 0
-615 -20 0
-615 -25 0
-615 -26 0
-615 -27 0
-615 -28 0
-615 -29 0
-615 -30 0
-615 -31 0
-615 -32 0
-615 -33 0
-615 -34 0
-615 -35 0
-615 -36 0
-615 -37 0
-615 -38 0
-615 -43 0
-615 -44 0
-615 -45 0
-615 -46 0
-615 -47 0
-615 -48 0
-615 -49 0
-615 -50 0
-615 -51 0
-615 -52 0
-615 -53 0
-615 -54 0
-615 -55 0
-615 -56 0
-615 -61 0
-615 -62 0
-615 -63 0
-615 -64 0
-615 -65 0
-615 -66 0
-615 -67 0
-615 -68 0
-615 -69 0
-615 -70 0
-615 -71 0
-615 -72 0
-616 -1 0
-616 -2 0
-616 -3 0
-616 -8 0
-616 -9 0
-616 -10 0
-616 -11 0
-616 -12 0
-616 -13 0
-616 -14 0
-616 -15 0
-616 -16 0
-616 -17 0
-616 -18 0
-616 -19 0
-616 -20 0
-616 -21 0
-616 -26 0
-616 -27 0
-616 -28 0
-616 -29 0
-616 -30 0
-616 -31 0
-616 -32 0
-616 -33 0
-616 -34 0
-616 -35 0
-616 -36 0
-616 -37 0
-616 -38 0
-616 -39 0
-616 -44 0
-616 -45 0
-616 -46 0
-616 -47 0
-616 -48 0
-616 -49 0
-616 -50 0
-616 -51 0
-616 -52 0
-616 -53 0
-616 -54 0
-616 -55 0
-616 -56 0
-616 -57 0
-616 -62 0
-616 -63 0
-616 -64 0
-616 -65 0
-616 -66 0
-616 -67 0
-616 -68 0
-616 -69 0
-616 -70 0
-616 -71 0
-616 -72 0
-617 -1 0
-617 -2 0
-617 -3 0
-617 -4 0
-617 -9 0
-617 -10 0
-617 -11 0
-617 -12 0
-617 -13 0
-617 -14 0
-617 -15 0
-617 -16 0
-617 -17 0
-617 -18 0
-617 -19 0
-617 -20 0
-617 -21 0
-617 -22 0
-617 -27 0
-617 -28 0
-617 -29 0
-617 -30 0
-617 -31 0
-617 -32 0
-617 -33 0
-617 -34 0
-617 -35 0
-617 -36 0
-617 -37 0
-617 -38 0
-617 -39 0
-617 -40 0
-617 -45 0
-617 -46 0
-617 -47 0
-617 -48 0
-617 -49 0
-617 -50 0
-617 -51 0
-617 -52 0
-617 -53 0
-617 -54 0
-617 -55 0
-617 -56 0
-617 -57 0
-617 -58 0
-617 -63 0
-617 -64 0
-617 -65 0
-617 -66 0
-617 -67 0
-617 -68 0
-617 -69 0
-617 -70 0
-617 -71 0
-617 -72 0
-618 -1 0
-618 -2 0
-618 -3 0
-618 -4 0
-618 -5 0
-618 -10 0
-618 -11 0
-618 -12 0
-618 -13 0
-618 -14 0
-618 -15 0
-618 -16 0
-618 -17 0
-618 -18 0
-618 -19 0
-618 -20 0
-618 -21 0
-618 -22 0
-618 -23 0
-618 -28 0
-618 -29 0
-618 -30 0
-618 -31 0
-618 -32 0
-618 -33 0
-618 -34 0
-618 -35 0
-618 -36 0
-618 -37 0
-618 -38 0
-618 -39 0
-618 -40 0
-618 -41 0
-618 -46 0
-618 -47 0
-618 -48 0
-618 -49 0
-618 -50 0
-618 -51 0
-618 -52 0
-618 -53 0
-618 -54 0
-618 -55 0
-618 -56 0
-618 -57 0
-618 -58 0
-618 -59 0
-618 -64 0
-618 -65 0
-618 -66 0
-618 -67 0
-618 -68 0
-618 -69 0
-618 -70 0
-618 -71 0
-618 -72 0
-619 -1 0
-619 -2 0
-619 -3 0
-619 -4 0
-619 -5 0
-619 -6 0
-619 -11 0
-619 -12 0
-619 -13 0
-619 -14 0
-619 -15 0
-619 -16 0
-619 -17 0
-619 -18 0
-619 -19 0
-619 -20 0
-619 -21 0
-619 -22 0
-619 -23 0
-619 -24 0
-619 -29 0
-619 -30 0
-619 -31 0
-619 -32 0
-619 -33 0
-619 -34 0
-619 -35 0
-619 -36 0
-619 -37 0
-619 -38 0
-619 -39 0
-619 -40 0
-619 -41 0
-619 -42 0
-619 -47 0
-619 -48 0
-619 -49 0
-619 -50 0
-619 -51 0
-619 -52 0
-619 -53 0
-619 -54 0
-619 -55 0
-619 -56 0
-619 -57 0
-619 -58 0
-619 -59 0
-619 -60 0
-619 -65 0
-619 -66 0
-619 -67 0
-619 -68 0
-619 -69 0
-619 -70 0
-619 -71 0
-619 -72 0
-620 -1 0
-620 -2 0
-620 -3 0
-620 -4 0
-620 -5 0
-620 -6 0
-620 -7 0
-620 -12 0
-620 -13 0
-620 -14 0
-620 -15 0
-620 -16 0
-620 -17 0
-620 -18 0
-620 -19 0
-620 -20 0
-620 -21 0
-620 -22 0
-620 -23 0
-620 -24 0
-620 -25 0
-620 -30 0
-620 -31 0
-620 -32 0
-620 -33 0
-620 -34 0
-620 -35 0
-620 -36 0
-620 -37 0
-620 -38 0
-620 -39 0
-620 -40 0
-620 -41 0
-620 -42 0
-620 -43 0
-620 -48 0
-620 -49 0
-620 -50 0
-620 -51 0
-620 -52 0
-620 -53 0
-620 -54 0
-620 -55 0
-620 -56 0
-620 -57 0
-620 -58 0
-620 -59 0
-620 -60 0
-620 -61 0
-620 -66 0
-620 -67 0
-620 -68 0
-620 -69 0
-620 -70 0
-620 -71 0
-620 -72 0
-621 -1 0
-621 -2 0
-621 -3 0
-621 -4 0
-621 -5 0
-621 -6 0
-621 -7 0
-621 -8 0
-621 -13 0
-621 -14 0
-621 -15 0
-621 -16 0
-621 -17 0
-621 -18 0
-621 -19 0
-621 -20 0
-621 -21 0
-621 -22 0
-621 -23 0
-621 -24 0
-621 -25 0
-621 -26 0
-621 -31 0
-621 -32 0
-621 -33 0
-621 -34 0
-621 -35 0
-621 -36 0
-621 -37 0
-621 -38 0
-621 -39 0
-621 -40 0
-621 -41 0
-621 -42 0
-621 -43 0
-621 -44 0
-621 -49 0
-621 -50 0
-621 -51 0
-621 -52 0
-621 -53 0
-621 -54 0
-621 -55 0
-621 -56 0
-621 -57 0
-621 -58 0
-621 -59 0
-621 -60 0
-621 -61 0
-621 -62 0
-621 -67 0
-621 -68 0
-621 -69 0
-621 -70 0
-621 -71 0
-621 -72 0
-622 -1 0
-622 -2 0
-622 -3 0
-622 -4 0
-622 -5 0
-622 -6 0
-622 -7 0
-622 -8 0
-622 -9 0
-622 -14 0
-622 -15 0
-622 -16 0
-622 -17 0
-622 -18 0
-622 -19 0
-622 -20 0
-622 -21 0
-622 -22 0
-622 -23 0
-622 -24 0
-622 -25 0
-622 -26 0
-622 -27 0
-622 -32 0
-622 -33 0
-622 -34 0
-622 -35 0
-622 -36 0
-622 -37 0
-622 -38 0
-622 -39 0
-622 -40 0
-622 -41 0
-622 -42 0
-622 -43 0
-622 -44 0
-622 -45 0
-622 -50 0
-622 -51 0
-622 -52 0
-622 -53 0
-622 -54 0
-622 -55 0
-622 -56 0
-622 -57 0
-622 -58 0
-622 -59 0
-622 -60 0
-622 -61 0
-622 -62 0
-622 -63 0
-622 -68 0
-622 -69 0
-622 -70 0
-622 -71 0
-622 -72 0
-623 -1 0
-623 -2 0
-623 -3 0
-623 -4 0
-623 -5 0
-623 -6 0
-623 -7 0
-623 -8 0
-623 -9 0
-623 -10 0
-623 -15 0
-623 -16 0
-623 -17 0
-623 -18 0
-623 -19 0
-623 -20 0
-623 -21 0
-623 -22 0
-623 -23 0
-623 -24 0
-623 -25 0
-623 -26 0
-623 -27 0
-623 -28 0
-623 -33 0
-623 -34 0
-623 -35 0
-623 -36 0
-623 -37 0
-623 -38 0
-623 -39 0
-623 -40 0
-623 -41 0
-623 -42 0
-623 -43 0
-623 -44 0
-623 -45 0
-623 -46 0
-623 -51 0
-623 -52 0
-623 -53 0
-623 -54 0
-623 -55 0
-623 -56 0
-623 -57 0
-623 -58 0
-623 -59 0
-623 -60 0
-623 -61 0
-623 -62 0
-623 -63 0
-623 -64 0
-623 -69 0
-623 -70 0
-623 -71 0
-623 -72 0
-624 -1 0
-624 -2 0
-624 -3 0
-624 -4 0
-624 -5 0
-624 -6 0
-624 -7 0
-624 -8 0
-624 -9 0
-624 -10 0
-624 -11 0
-624 -16 0
-624 -17 0
-624 -18 0
-624 -19 0
-624 -20 0
-624 -21 0
-624 -22 0
-624 -23 0
-624 -24 0
-624 -25 0
-624 -26 0
-624 -27 0
-624 -28 0
-624 -29 0
-624 -34 0
-624 -35 0
-624 -36 0
-624 -37 0
-624 -38 0
-624 -39 0
-624 -40 0
-624 -41 0
-624 -42 0
-624 -43 0
-624 -44 0
-624 -45 0
-624 -46 0
-624 -47 0
-624 -52 0
-624 -53 0
-624 -54 0
-624 -55 0
-624 -56 0
-624 -57 0
-624 -58 0
-624 -59 0
-624 -60 0
-624 -61 0
-624 -62 0
-624 -63 0
-624 -64 0
-624 -65 0
-624 -70 0
-624 -71 0
-624 -72 0
-625 -1 0
-625 -2 0
-625 -3 0
-625 -4 0
-625 -5 0
-625 -6 0
-625 -7 0
-625 -8 0
-625 -9 0
-625 -10 0
-625 -11 0
-625 -12 0
-625 -17 0
-625 -18 0
-625 -19 0
-625 -20 0
-625 -21 0
-625 -22 0
-625 -23 0
-625 -24 0
-625 -25 0
-625 -26 0
-625 -27 0
-625 -28 0
-625 -29 0
-625 -30 0
-625 -35 0
-625 -36 0
-625 -37 0
-625 -38 0
-625 -39 0
-625 -40 0
-625 -41 0
-625 -42 0
-625 -43 0
-625 -44 0
-625 -45 0
-625 -46 0
-625 -47 0
-625 -48 0
-625 -53 0
-625 -54 0
-625 -55 0
-625 -56 0
-625 -57 0
-625 -58 0
-625 -59 0
-625 -60 0
-625 -61 0
-625 -62 0
-625 -63 0
-625 -64 0
-625 -65 0
-625 -66 0
-625 -71 0
-625 -72 0
-626 -1 0
-626 -2 0
-626 -3 0
-626 -4 0
-626 -5 0
-626 -6 0
-626 -7 0
-626 -8 0
-626 -9 0
-626 -10 0
-626 -11 0
-626 -12 0
-626 -13 0
-626 -18 0
-626 -19 0
-626 -20 0
-626 -21 0
-626 -22 0
-626 -23 0
-626 -24 0
-626 -25 0
-626 -26 0
-626 -27 0
-626 -28 0
-626 -29 0
-626 -30 0
-626 -31 0
-626 -36 0
-626 -37 0
-626 -38 0
-626 -39 0
-626 -40 0
-626 -41 0
-626 -42 0
-626 -43 0
-626 -44 0
-626 -45 0
-626 -46 0
-626 -47 0
-626 -48 0
-626 -49 0
-626 -54 0
-626 -55 0
-626 -56 0
-626 -57 0
-626 -58 0
-626 -59 0
-626 -60 0
-626 -61 0
-626 -62 0
-626 -63 0
-626 -64 0
-626 -65 0
-626 -66 0
-626 -67 0
-626 -72 0
-627 -1 0
-627 -2 0
-627 -3 0
-627 -4 0
-627 -5 0
-627 -6 0
-627 -7 0
-627 -8 0
-627 -9 0
-627 -10 0
-627 -11 0
-627 -12 0
-627 -13 0
-627 -14 0
-627 -19 0
-627 -20 0
-627 -21 0
-627 -22 0
-627 -23 0
-627 -24 0
-627 -25 0
-627 -26 0
-627 -27 0
-627 -28 0
-627 -29 0
-627 -30 0
-627 -31 0
-627 -32 0
-627 -37 0
-627 -38 0
-627 -39 0
-627 -40 0
-627 -41 0
-627 -42 0
-627 -43 0
-627 -44 0
-627 -45 0
-627 -46 0
-627 -47 0
-627 -48 0
-627 -49 0
-627 -50 0
-627 -55 0
-627 -56 0
-627 -57 0
-627 -58 0
-627 -59 0
-627 -60 0
-627 -61 0
-627 -62 0
-627 -63 0
-627 -64 0
-627 -65 0
-627 -66 0
-627 -67 0
-627 -68 0
-73 -91 0
-73 -109 0
-91 -109 0
-74 -92 0
-74 -110 0
-92 -110 0
-75 -93 0
-75 -111 0
-93 -111 0
-76 -94 0
-76 -112 0
-94 -112 0
-77 -95 0
-77 -113 0
-95 -113 0
-78 -96 0
-78 -114 0
-96 -114 0
-79 -97 0
-79 -115 0
-97 -115 0
-80 -98 0
-80 -116 0
-98 -116 0
-81 -99 0
-81 -117 0
-99 -117 0
-82 -100 0
-82 -118 0
-100 -118 0
-83 -101 0
-83 -119 0
-101 -119 0
-84 -102 0
-84 -120 0
-102 -120 0
-85 -103 0
-85 -121 0
-103 -121 0
-86 -104 0
-86 -122 0
-104 -122 0
-87 -105 0
-87 -123 0
-105 -123 0
-88 -106 0
-88 -124 0
-106 -124 0
-89 -107 0
-89 -125 0
-107 -125 0
-90 -108 0
-90 -126 0
-108 -126 0
628 629 630 631 632 633 634 635 636 637 638 639 640 641 642 643 0
-628 -629 0
-628 -630 0
-628 -631 0
-628 -632 0
-628 -633 0
-628 -634 0
-628 -635 0
-628 -636 0
-628 -637 0
-628 -638 0
-628 -639 0
-628 -640 0
-628 -641 0
-628 -642 0
-628 -643 0
-629 -630 0
-629 -631 0
-629 -632 0
-629 -633 0
-629 -634 0
-629 -635 0
-629 -636 0
-629 -637 0
-629 -638 0
-629 -639 0
-629 -640 0
-629 -641 0
-629 -642 0
-629 -643 0
-630 -631 0
-630 -632 0
-630 -633 0
-630 -634 0
-630 -635 0
-630 -636 0
-630 -637 0
-630 -638 0
-630 -639 0
-630 -640 0
-630 -641 0
-630 -642 0
-630 -643 0
-631 -632 0
-631 -633 0
-631 -634 0
-631 -635 0
-631 -636 0
-631 -637 0
-631 -638 0
-631 -639 0
-631 -640 0
-631 -641 0
-631 -642 0
-631 -643 0
-632 -633 0
-632 -634 0
-632 -635 0
-632 -636 0
-632 -637 0
-632 -638 0
-632 -639 0
-632 -640 0
-632 -641 0
-632 -642 0
-632 -643 0
-633 -634 0
-633 -635 0
-633 -636 0
-633 -637 0
-633 -638 0
-633 -639 0
-633 -640 0
-633 -641 0
-633 -642 0
-633 -643 0
-634 -635 0
-634 -636 0
-634 -637 0
-634 -638 0
-634 -639 0
-634 -640 0
-634 -641 0
-634 -642 0
-634 -643 0
-635 -636 0
-635 -637 0
-635 -638 0
-635 -639 0
-635 -640 0
-635 -641 0
-635 -642 0
-635 -643 0
-636 -637 0
-636 -638 0
-636 -639 0
-636 -640 0
-636 -641 0
-636 -642 0
-636 -643 0
-637 -638 0
-637 -639 0
-637 -640 0
-637 -641 0
-637 -642 0
-637 -643 0
-638 -639 0
-638 -640 0
-638 -641 0
-638 -642 0
-638 -643 0
-639 -640 0
-639 -641 0
-639 -642 0
-639 -643 0
-640 -641 0
-640 -642 0
-640 -643 0
-641 -642 0
-641 -643 0
-642 -643 0
-73 628 0
-74 628 629 0
-75 628 629 630 0
-76 629 630 631 0
-77 630 631 632 0
-78 631 632 633 0
-79 632 633 634 0
-80 633 634 635 0
-81 634 635 636 0
-82 635 636 637 0
-83 636 637 638 0
-84 637 638 639 0
-85 638 639 640 0
-86 639 640 641 0
-87 640 641 642 0
-88 641 642 643 0
-89 642 643 0
-90 643 0
-91 628 0
-92 628 629 0
-93 628 629 630 0
-94 629 630 631 0
-95 630 631 632 0
-96 631 632 633 0
-97 632 633 634 0
-98 633 634 635 0
-99 634 635 636 0
-100 635 636 637 0
-101 636 637 638 0
-102 637 638 639 0
-103 638 639 640 0
-104 639 640 641 0
-105 640 641 642 0
-106 641 642 643 0
-107 642 643 0
-108 643 0
-109 628 0
-110 628 629 0
-111 628 629 630 0
-112 629 630 631 0
-113 630 631 632 0
-114 631 632 633 0
-115 632 633 634 0
-116 633 634 635 0
-117 634 635 636 0
-118 635 636 637 0
-119 636 637 638 0
-120 637 638 639 0
-121 638 639 640 0
-122 639 640 641 0
-123 640 641 642 0
-124 641 642 643 0
-125 642 643 0
-126 643 0
-628 -76 0
-628 -77 0
-628 -78 0
-628 -79 0
-628 -80 0
-628 -81 0
-628 -82 0
-628 -83 0
-628 -84 0
-628 -85 0
-628 -86 0
-628 -87 0
-628 -88 0
-628 -89 0
-628 -90 0
-628 -94 0
-628 -95 0
-628 -96 0
-628 -97 0
-628 -98 0
-628 -99 0
-628 -100 0
-628 -101 0
-628 -102 0
-628 -103 0
-628 -104 0
-628 -105 0
-628 -106 0
-628 -107 0
-628 -108 0
-628 -112 0
-628 -113 0
-628 -114 0
-628 -115 0
-628 -116 0
-628 -117 0
-628 -118 0
-628 -119 0
-628 -120 0
-628 -121 0
-628 -122 0
-628 -123 0
-628 -124 0
-628 -125 0
-628 -126 0
-629 -73 0
-629 -77 0
-629 -78 0
-629 -79 0
-629 -80 0
-629 -81 0
-629 -82 0
-629 -83 0
-629 -84 0
-629 -85 0
-629 -86 0
-629 -87 0
-629 -88 0
-629 -89 0
-629 -90 0
-629 -91 0
-629 -95 0
-629 -96 0
-629 -97 0
-629 -98 0
-629 -99 0
-629 -100 0
-629 -101 0
-629 -102 0
-629 -103 0
-629 -104 0
-629 -105 0
-629 -106 0
-629 -107 0
-629 -108 0
-629 -109 0
-629 -113 0
-629 -114 0
-629 -115 0
-629 -116 0
-629 -117 0
-629 -118 0
-629 -119 0
-629 -120 0
-629 -121 0
-629 -122 0
-629 -123 0
-629 -124 0
-629 -125 0
-629 -126 0
-630 -73 0
-630 -74 0
-630 -78 0
-630 -79 0
-630 -80 0
-630 -81 0
-630 -82 0
-630 -83 0
-630 -84 0
-630 -85 0
-630 -86 0
-630 -87 0
-630 -88 0
-630 -89 0
-630 -90 0
-630 -91 0
-630 -92 0
-630 -96 0
-630 -97 0
-630 -98 0
-630 -99 0
-630 -100 0
-630 -101 0
-630 -102 0
-630 -103 0
-630 -104 0
-630 -105 0
-630 -106 0
-630 -107 0
-630 -108 0
-630 -109 0
-630 -110 0
-630 -114 0
-630 -115 0
-630 -116 0
-630 -117 0
-630 -118 0
-630 -119 0
-630 -120 0
-630 -121 0
-630 -122 0
-630 -123 0
-630 -124 0
-630 -125 0
-630 -126 0
-631 -73 0
-631 -74 0
-631 -75 0
-631 -79 0
-631 -80 0
-631 -81 0
-631 -82 0
-631 -83 0
-631 -84 0
-631 -85 0
-631 -86 0
-631 -87 0
-631 -88 0
-631 -89 0
-631 -90 0
-631 -91 0
-631 -92 0
-631 -93 0
-631 -97 0
-631 -98 0
-631 -99 0
-631 -100 0
-631 -101 0
-631 -102 0
-631 -103 0
-631 -104 0
-631 -105 0
-631 -106 0
-631 -107 0
-631 -108 0
-631 -109 0
-631 -110 0
-631 -111 0
-631 -115 0
-631 -116 0
-631 -117 0
-631 -118 0
-631 -119 0
-631 -120 0
-631 -121 0
-631 -122 0
-631 -123 0
-631 -124 0
-631 -125 0
-631 -126 0
-632 -73 0
-632 -74 0
-632 -75 0
-632 -76 0
-632 -80 0
-632 -81 0
-632 -82 0
-632 -83 0
-632 -84 0
-632 -85 0
-632 -86 0
-632 -87 0
-632 -88 0
-632 -89 0
-632 -90 0
-632 -91 0
-632 -92 0
-632 -93 0
-632 -94 0
-632 -98 0
-632 -99 0
-632 -100 0
-632 -101 0
-632 -102 0
-632 -103 0
-632 -104 0
-632 -105 0
-632 -106 0
-632 -107 0
-632 -108 0
-632 -109 0
-632 -110 0
-632 -111 0
-632 -112 0
-632 -116 0
-632 -117 0
-632 -118 0
-632 -119 0
-632 -120 0
-632 -121 0
-632 -122 0
-632 -123 0
-632 -124 0
-632 -125 0
-632 -126 0
-633 -73 0
-633 -74 0
-633 -75 0
-633 -76 0
-633 -77 0
-633 -81 0
-633 -82 0
-633 -83 0
-633 -84 0
-633 -85 0
-633 -86 0
-633 -87 0
-633 -88 0
-633 -89 0
-633 -90 0
-633 -91 0
-633 -92 0
-633 -93 0
-633 -94 0
-633 -95 0
-633 -99 0
-633 -100 0
-633 -101 0
-633 -102 0
-633 -103 0
-633 -104 0
-633 -105 0
-633 -106 0
-633 -107 0
-633 -108 0
-633 -109 0
-633 -110 0
-633 -111 0
-633 -112 0
-633 -113 0
-633 -117 0
-633 -118 0
-633 -119 0
-633 -120 0
-633 -121 0
-633 -122 0
-633 -123 0
-633 -124 0
-633 -125 0
-633 -126 0
-634 -73 0
-634 -74 0
-634 -75 0
-634 -76 0
-634 -77 0
-634 -78 0
-634 -82 0
-634 -83 0
-634 -84 0
-634 -85 0
-634 -86 0
-634 -87 0
-634 -88 0
-634 -89 0
-634 -90 0
-634 -91 0
-634 -92 0
-634 -93 0
-634 -94 0
-634 -95 0
-634 -96 0
-634 -100 0
-634 -101 0
-634 -102 0
-634 -103 0
-634 -104 0
-634 -105 0
-634 -106 0
-634 -107 0
-634 -108 0
-634 -109 0
-634 -110 0
-634 -111 0
-634 -112 0
-634 -113 0
-634 -114 0
-634 -118 0
-634 -119 0
-634 -120 0
-634 -121 0
-634 -122 0
-634 -123 0
-634 -124 0
-634 -125 0
-634 -126 0
-635 -73 0
-635 -74 0
-635 -75 0
-635 -76 0
-635 -77 0
-635 -78 0
-635 -79 0
-635 -83 0
-635 -84 0
-635 -85 0
-635 -86 0
-635 -87 0
-635 -88 0
-635 -89 0
-635 -90 0
-635 -91 0
-635 -92 0
-635 -93 0
-635 -94 0
-635 -95 0
-635 -96 0
-635 -97 0
-635 -101 0
-635 -102 0
-635 -103 0
-635 -104 0
-635 -105 0
-635 -106 0
-635 -107 0
-635 -108 0
-635 -109 0
-635 -110 0
-635 -111 0
-635 -112 0
-635 -113 0
-635 -114 0
-635 -115 0
-635 -119 0
-635 -120 0
-635 -121 0
-635 -122 0
-635 -123 0
-635 -124 0
-635 -125 0
-635 -126 0
-636 -73 0
-636 -74 0
-636 -75 0
-636 -76 0
-636 -77 0
-636 -78 0
-636 -79 0
-636 -80 0
-636 -84 0
-636 -85 0
-636 -86 0
-636 -87 0
-636 -88 0
-636 -89 0
-636 -90 0
-636 -91 0
-636 -92 0
-636 -93 0
-636 -94 0
-636 -95 0
-636 -96 0
-636 -97 0
-636 -98 0
-636 -102 0
-636 -103 0
-636 -104 0
-636 -105 0
-636 -106 0
-636 -107 0
-636 -108 0
-636 -109 0
-636 -110 0
-636 -111 0
-636 -112 0
-636 -113 0
-636 -114 0
-636 -115 0
-636 -116 0
-636 -120 0
-636 -121 0
-636 -122 0
-636 -123 0
-636 -124 0
-636 -125 0
-636 -126 0
-637 -73 0
-637 -74 0
-637 -75 0
-637 -76 0
-637 -77 0
-637 -78 0
-637 -79 0
-637 -80 0
-637 -81 0
-637 -85 0
-637 -86 0
-637 -87 0
-637 -88 0
-637 -89 0
-637 -90 0
-637 -91 0
-637 -92 0
-637 -93 0
-637 -94 0
-637 -95 0
-637 -96 0
-637 -97 0
-637 -98 0
-637 -99 0
-637 -103 0
-637 -104 0
-637 -105 0
-637 -106 0
-637 -107 0
-637 -108 0
-637 -109 0
-637 -110 0
-637 -111 0
-637 -112 0
-637 -113 0
-637 -114 0
-637 -115 0
-637 -116 0
-637 -117 0
-637 -121 0
-637 -122 0
-637 -123 0
-637 -124 0
-637 -125 0
-637 -126 0
-638 -73 0
-638 -74 0
-638 -75 0
-638 -76 0
-638 -77 0
-638 -78 0
-638 -79 0
-638 -80 0
-638 -81 0
-638 -82 0
-638 -86 0
-638 -87 0
-638 -88 0
-638 -89 0
-638 -90 0
-638 -91 0
-638 -92 0
-638 -93 0
-638 -94 0
-638 -95 0
-638 -96 0
-638 -97 0
-638 -98 0
-638 -99 0
-638 -100 0
-638 -104 0
-638 -105 0
-638 -106 0
-638 -107 0
-638 -108 0
-638 -109 0
-638 -110 0
-638 -111 0
-638 -112 0
-638 -113 0
-638 -114 0
-638 -115 0
-638 -116 0
-638 -117 0
-638 -118 0
-638 -122 0
-638 -123 0
-638 -124 0
-638 -125 0
-638 -126 0
-639 -73 0
-639 -74 0
-639 -75 0
-639 -76 0
-639 -77 0
-639 -78 0
-639 -79 0
-639 -80 0
-639 -81 0
-639 -82 0
-639 -83 0
-639 -87 0
-639 -88 0
-639 -89 0
-639 -90 0
-639 -91 0
-639 -92 0
-639 -93 0
-639 -94 0
-639 -95 0
-639 -96 0
-639 -97 0
-639 -98 0
-639 -99 0
-639 -100 0
-639 -101 0
-639 -105 0
-639 -106 0
-639 -107 0
-639 -108 0
-639 -109 0
-639 -110 0
-639 -111 0
-639 -112 0
-639 -113 0
-639 -114 0
-639 -115 0
-639 -116 0
-639 -117 0
-639 -118 0
-639 -119 0
-639 -123 0
-639 -124 0
-639 -125 0
-639 -126 0
-640 -73 0
-640 -74 0
-640 -75 0
-640 -76 0
-640 -77 0
-640 -78 0
-640 -79 0
-640 -80 0
-640 -81 0
-640 -82 0
-640 -83 0
-640 -84 0
-640 -88 0
-640 -89 0
-640 -90 0
-640 -91 0
-640 -92 0
-640 -93 0
-640 -94 0
-640 -95 0
-640 -96 0
-640 -97 0
-640 -98 0
-640 -99 0
-640 -100 0
-640 -101 0
-640 -102 0
-640 -106 0
-640 -107 0
-640 -108 0
-640 -109 0
-640 -110 0
-640 -111 0
-640 -112 0
-640 -113 0
-640 -114 0
-640 -115 0
-640 -116 0
-640 -117 0
-640 -118 0
-640 -119 0
-640 -120 0
-640 -124 0
-640 -125 0
-640 -126 0
-641 -73 0
-641 -74 0
-641 -75 0
-641 -76 0
-641 -77 0
-641 -78 0
-641 -79 0
-641 -80 0
-641 -81 0
-641 -82 0
-641 -83 0
-641 -84 0
-641 -85 0
-641 -89 0
-641 -90 0
-641 -91 0
-641 -92 0
-641 -93 0
-641 -94 0
-641 -95 0
-641 -96 0
-641 -97 0
-641 -98 0
-641 -99 0
-641 -100 0
-641 -101 0
-641 -102 0
-641 -103 0
-641 -107 0
-641 -108 0
-641 -109 0
-641 -110 0
-641 -111 0
-641 -112 0
-641 -113 0
-641 -114 0
-641 -115 0
-641 -116 0
-641 -117 0
-641 -118 0
-641 -119 0
-641 -120 0
-641 -121 0
-641 -125 0
-641 -126 0
-642 -73 0
-642 -74 0
-642 -75 0
-642 -76 0
-642 -77 0
-642 -78 0
-642 -79 0
-642 -80 0
-642 -81 0
-642 -82 0
-642 -83 0
-642 -84 0
-642 -85 0
-642 -86 0
-642 -90 0
-642 -91 0
-642 -92 0
-642 -93 0
-642 -94 0
-642 -95 0
-642 -96 0
-642 -97 0
-642 -98 0
-642 -99 0
-642 -100 0
-642 -101 0
-642 -102 0
-642 -103 0
-642 -104 0
-642 -108 0
-642 -109 0
-642 -110 0
-642 -111 0
-642 -112 0
-642 -113 0
-642 -114 0
-642 -115 0
-642 -116 0
-642 -117 0
-642 -118 0
-642 -119 0
-642 -120 0
-642 -121 0
-642 -122 0
-642 -126 0
-643 -73 0
-643 -74 0
-643 -75 0
-643 -76 0
-643 -77 0
-643 -78 0
-643 -79 0
-643 -80 0
-643 -81 0
-643 -82 0
-643 -83 0
-643 -84 0
-643 -85 0
-643 -86 0
-643 -87 0
-643 -91 0
-643 -92 0
-643 -93 0
-643 -94 0
-643 -95 0
-643 -96 0
-643 -97 0
-643 -98 0
-643 -99 0
-643 -100 0
-643 -101 0
-643 -102 0
-643 -103 0
-643 -104 0
-643 -105 0
-643 -109 0
-643 -110 0
-643 -111 0
-643 -112 0
-643 -113 0
-643 -114 0
-643 -115 0
-643 -116 0
-643 -117 0
-643 -118 0
-643 -119 0
-643 -120 0
-643 -121 0
-643 -122 0
-643 -123 0
-127 -145 0
-127 -163 0
-145 -163 0
-128 -146 0
-128 -164 0
-146 -164 0
-129 -147 0
-129 -165 0
-147 -165 0
-130 -148 0
-130 -166 0
-148 -166 0
-131 -149 0
-131 -167 0
-149 -167 0
-132 -150 0
-132 -168 0
-150 -168 0
-133 -151 0
-133 -169 0
-151 -169 0
-134 -152 0
-134 -170 0
-152 -170 0
-135 -153 0
-135 -171 0
-153 -171 0
-136 -154 0
-136 -172 0
-154 -172 0
-137 -155 0
-137 -173 0
-155 -173 0
-138 -156 0
-138 -174 0
-156 -174 0
-139 -157 0
-139 -175 0
-157 -175 0
-140 -158 0
-140 -176 0
-158 -176 0
-141 -159 0
-141 -177 0
-159 -177 0
-142 -160 0
-142 -178 0
-160 -178 0
-143 -161 0
-143 -179 0
-161 -179 0
-144 -162 0
-144 -180 0
-162 -180 0
644 645 646 647 648 649 650 651 652 653 654 655 656 657 658 659 0
-644 -645 0
-644 -646 0
-644 -647 0
-644 -648 0
-644 -649 0
-644 -650 0
-644 -651 0
-644 -652 0
-644 -653 0
-644 -654 0
-644 -655 0
-644 -656 0
-644 -657 0
-644 -658 0
-644 -659 0
-645 -646 0
-645 -647 0
-645 -648 0
-645 -649 0
-645 -650 0
-645 -651 0
-645 -652 0
-645 -653 0
-645 -654 0
-645 -655 0
-645 -656 0
-645 -657 0
-645 -658 0
-645 -659 0
-646 -647 0
-646 -648 0
-646 -649 0
-646 -650 0
-646 -651 0
-646 -652 0
-646 -653 0
-646 -654 0
-646 -655 0
-646 -656 0
-646 -657 0
-646 -658 0
-646 -659 0
-647 -648 0
-647 -649 0
-647 -650 0
-647 -651 0
-647 -652 0
-647 -653 0
-647 -654 0
-647 -655 0
-647 -656 0
-647 -657 0
-647 -658 0
-647 -659 0
-648 -649 0
-648 -650 0
-648 -651 0
-648 -652 0
-648 -653 0
-648 -654 0
-648 -655 0
-648 -656 0
-648 -657 0
-648 -658 0
-648 -659 0
-649 -650 0
-649 -651 0
-649 -652 0
-649 -653 0
-649 -654 0
-649 -655 0
-649 -656 0
-649 -657 0
-649 -658 0
-649 -659 0
-650 -651 0
-650 -652 0
-650 -653 0
-650 -654 0
-650 -655 0
-650 -656 0
-650 -657 0
-650 -658 0
-650 -659 0
-651 -652 0
-651 -653 0
-651 -654 0
-651 -655 0
-651 -656 0
-651 -657 0
-651 -658 0
-651 -659 0
-652 -653 0
-652 -654 0
-652 -655 0
-652 -656 0
-652 -657 0
-652 -658 0
-652 -659 0
-653 -654 0
-653 -655 0
-653 -656 0
-653 -657 0
-653 -658 0
-653 -659 0
-654 -655 0
-654 -656 0
-654 -657 0
-654 -658 0
-654 -659 0
-655 -656 0
-655 -657 0
-655 -658 0
-655 -659 0
-656 -657 0
-656 -658 0
-656 -659 0
-657 -658 0
-657 -659 0
-658 -659 0
-127 644 0
-128 644 645 0
-129 644 645 646 0
-130 645 646 647 0
-131 646 647 648 0
-132 647 648 649 0
-133 648 649 650 0
-134 649 650 651 0
-135 650 651 652 0
-136 651 652 653 0
-137 652 653 654 0
-138 653 654 655 0
-139 654 655 656 0
-140 655 656 657 0
-141 656 657 658 0
-142 657 658 659 0
-143 658 659 0
-144 659 0
-145 644 0
-146 644 645 0
-147 644 645 646 0
-148 645 646 647 0
-149 646 647 648 0
-150 647 648 649 0
-151 648 649 650 0
-152 649 650 651 0
-153 650 651 652 0
-154 651 652 653 0
-155 652 653 654 0
-156 653 654 655 0
-157 654 655 656 0
-158 655 656 657 0
-159 656 657 658 0
-160 657 658 659 0
-161 658 659 0
-162 659 0
-163 644 0
-164 644 645 0
-165 644 645 646 0
-166 645 646 647 0
-167 646 647 648 0
-168 647 648 649 0
-169 648 649 650 0
-170 649 650 651 0
-171 650 651 652 0
-172 651 652 653 0
-173 652 653 654 0
-174 653 654 655 0
-175 654 655 656 0
-176 655 656 657 0
-177 656 657 658 0
-178 657 658 659 0
-179 658 659 0
-180 659 0
-644 -130 0
-644 -131 0
-644 -132 0
-644 -133 0
-644 -134 0
-644 -135 0
-644 -136 0
-644 -137 0
-644 -138 0
-644 -139 0
-644 -140 0
-644 -141 0
-644 -142 0
-644 -143 0
-644 -144 0
-644 -148 0
-644 -149 0
-644 -150 0
-644 -151 0
-644 -152 0
-644 -153 0
-644 -154 0
-644 -155 0
-644 -156 0
-644 -157 0
-644 -158 0
-644 -159 0
-644 -160 0
-644 -161 0
-644 -162 0
-644 -166 0
-644 -167 0
-644 -168 0
-644 -169 0
-644 -170 0
-644 -171 0
-644 -172 0
-644 -173 0
-644 -174 0
-644 -175 0
-644 -176 0
-644 -177 0
-644 -178 0
-644 -179 0
-644 -180 0
-645 -127 0
-645 -131 0
-645 -132 0
-645 -133 0
-645 -134 0
-645 -135 0
-645 -136 0
-645 -137 0
-645 -138 0
-645 -139 0
-645 -140 0
-645 -141 0
-645 -142 0
-645 -143 0
-645 -144 0
-645 -145 0
-645 -149 0
-645 -150 0
-645 -151 0
-645 -152 0
-645 -153 0
-645 -154 0
-645 -155 0
-645 -156 0
-645 -157 0
-645 -158 0
-645 -159 0
-645 -160 0
-645 -161 0
-645 -162 0
-645 -163 0
-645 -167 0
-645 -168 0
-645 -169 0
-645 -170 0
-645 -171 0
-645 -172 0
-645 -173 0
-645 -174 0
-645 -175 0
-645 -176 0
-645 -177 0
-645 -178 0
-645 -179 0
-645 -180 0
-646 -127 0
-646 -128 0
-646 -132 0
-646 -133 0
-646 -134 0
-646 -135 0
-646 -136 0
-646 -137 0
-646 -138 0
-646 -139 0
-646 -140 0
-646 -141 0
-646 -142 0
-646 -143 0
-646 -144 0
-646 -145 0
-646 -146 0
-646 -150 0
-646 -151 0
-646 -152 0
-646 -153 0
-646 -154 0
-646 -155 0
-646 -156 0
-646 -157 0
-646 -158 0
-646 -159 0
-646 -160 0
-646 -161 0
-646 -162 0
-646 -163 0
-646 -164 0
-646 -168 0
-646 -169 0
-646 -170 0
-646 -171 0
-646 -172 0
-646 -173 0
-646 -174 0
-646 -175 0
-646 -176 0
-646 -177 0
-646 -178 0
-646 -179 0
-646 -180 0
-647 -127 0
-647 -128 0
-647 -129 0
-647 -133 0
-647 -134 0
-647 -135 0
-647 -136 0
-647 -137 0
-647 -138 0
-647 -139 0
-647 -140 0
-647 -141 0
-647 -142 0
-647 -143 0
-647 -144 0
-647 -145 0
-647 -146 0
-647 -147 0
-647 -151 0
-647 -152 0
-647 -153 0
-647 -154 0
-647 -155 0
-647 -156 0
-647 -157 0
-647 -158 0
-647 -159 0
-647 -160 0
-647 -161 0
-647 -162 0
-647 -163 0
-647 -164 0
-647 -165 0
-647 -169 0
-647 -170 0
-647 -171 0
-647 -172 0
-647 -173 0
-647 -174 0
-647 -175 0
-647 -176 0
-647 -177 0
-647 -178 0
-647 -179 0
-647 -180 0
-648 -127 0
-648 -128 0
-648 -129 0
-648 -130 0
-648 -134 0
-648 -135 0
-648 -136 0
-648 -137 0
-648 -138 0
-648 -139 0
-648 -140 0
-648 -141 0
-648 -142 0
-648 -143 0
-648 -144 0
-648 -145 0
-648 -146 0
-648 -147 0
-648 -148 0
-648 -152 0
-648 -153 0
-648 -154 0
-648 -155 0
-648 -156 0
-648 -157 0
-648 -158 0
-648 -159 0
-648 -160 0
-648 -161 0
-648 -162 0
-648 -163 0
-648 -164 0
-648 -165 0
-648 -166 0
-648 -170 0
-648 -171 0
-648 -172 0
-648 -173 0
-648 -174 0
-648 -175 0
-648 -176 0
-648 -177 0
-648 -178 0
-648 -179 0
-648 -180 0
-649 -127 0
-649 -128 0
-649 -129 0
-649 -130 0
-649 -131 0
-649 -135 0
-649 -136 0
-649 -137 0
-649 -138 0
-649 -139 0
-649 -140 0
-649 -141 0
-649 -142 0
-649 -143 0
-649 -144 0
-649 -145 0
-649 -146 0
-649 -147 0
-649 -148 0
-649 -149 0
-649 -153 0
-649 -154 0
-649 -155 0
-649 -156 0
-649 -157 0
-649 -158 0
-649 -159 0
-649 -160 0
-649 -161 0
-649 -162 0
-649 -163 0
-649 -164 0
-649 -165 0
-649 -166 0
-649 -167 0
-649 -171 0
-649 -172 0
-649 -173 0
-649 -174 0
-649 -175 0
-649 -176 0
-649 -177 0
-649 -178 0
-649 -179 0
-649 -180 0
-650 -127 0
-650 -128 0
-650 -129 0
-650 -130 0
-650 -131 0
-650 -132 0
-650 -136 0
-650 -137 0
-650 -138 0
-650 -139 0
-650 -140 0
-650 -141 0
-650 -142 0
-650 -143 0
-650 -144 0
-650 -145 0
-650 -146 0
-650 -147 0
-650 -148 0
-650 -149 0
-650 -150 0
-650 -154 0
-650 -155 0
-650 -156 0
-650 -157 0
-650 -158 0
-650 -159 0
-650 -160 0
-650 -161 0
-650 -162 0
-650 -163 0
-650 -164 0
-650 -165 0
-650 -166 0
-650 -167 0
-650 -168 0
-650 -172 0
-650 -173 0
-650 -174 0
-650 -175 0
-650 -176 0
-650 -177 0
-650 -178 0
-650 -179 0
-650 -180 0
-651 -127 0
-651 -128 0
-651 -129 0
-651 -130 0
-651 -131 0
-651 -132 0
-651 -133 0
-651 -137 0
-651 -138 0
-651 -139 0
-651 -140 0
-651 -141 0
-651 -142 0
-651 -143 0
-651 -144 0
-651 -145 0
-651 -146 0
-651 -147 0
-651 -148 0
-651 -149 0
-651 -150 0
-651 -151 0
-651 -155 0
-651 -156 0
-651 -157 0
-651 -158 0
-651 -159 0
-651 -160 0
-651 -161 0
-651 -162 0
-651 -163 0
-651 -164 0
-651 -165 0
-651 -166 0
-651 -167 0
-651 -168 0
-651 -169 0
-651 -173 0
-651 -174 0
-651 -175 0
-651 -176 0
-651 -177 0
-651 -178 0
-651 -179 0
-651 -180 0
-652 -127 0
-652 -128 0
-652 -129 0
-652 -130 0
-652 -131 0
-652 -132 0
-652 -133 0
-652 -134 0
-652 -138 0
-652 -139 0
-652 -140 0
-652 -141 0
-652 -142 0
-652 -143 0
-652 -144 0
-652 -145 0
-652 -146 0
-652 -147 0
-652 -148 0
-652 -149 0
-652 -150 0
-652 -151 0
-652 -152 0
-652 -156 0
-652 -157 0
-652 -158 0
-652 -159 0
-652 -160 0
-652 -161 0
-652 -162 0
-652 -163 0
-652 -164 0
-652 -165 0
-652 -166 0
-652 -167 0
-652 -168 0
-652 -169 0
-652 -170 0
-652 -174 0
-652 -175 0
-652 -176 0
-652 -177 0
-652 -178 0
-652 -179 0
-652 -180 0
-653 -127 0
-653 -128 0
-653 -129 0
-653 -130 0
-653 -131 0
-653 -132 0
-653 -133 0
-653 -134 0
-653 -135 0
-653 -139 0
-653 -140 0
-653 -141 0
-653 -142 0
-653 -143 0
-653 -144 0
-653 -145 0
-653 -146 0
-653 -147 0
-653 -148 0
-653 -149 0
-653 -150 0
-653 -151 0
-653 -152 0
-653 -153 0
-653 -157 0
-653 -158 0
-653 -159 0
-653 -160 0
-653 -161 0
-653 -162 0
-653 -163 0
-653 -164 0
-653 -165 0
-653 -166 0
-653 -167 0
-653 -168 0
-653 -169 0
-653 -170 0
-653 -171 0
-653 -175 0
-653 -176 0
-653 -177 0
-653 -178 0
-653 -179 0
-653 -180 0
-654 -127 0
-654 -128 0
-654 -129 0
-654 -130 0
-654 -131 0
-654 -132 0
-654 -133 0
-654 -134 0
-654 -135 0
-654 -136 0
-654 -140 0
-654 -141 0
-654 -142 0
-654 -143 0
-654 -144 0
-654 -145 0
-654 -146 0
-654 -147 0
-654 -148 0
-654 -149 0
-654 -150 0
-654 -151 0
-654 -152 0
-654 -153 0
-654 -154 0
-654 -158 0
-654 -159 0
-654 -160 0
-654 -161 0
-654 -162 0
-654 -163 0
-654 -164 0
-654 -165 0
-654 -166 0
-654 -167 0
-654 -168 0
-654 -169 0
-654 -170 0
-654 -171 0
-654 -172 0
-654 -176 0
-654 -177 0
-654 -178 0
-654 -179 0
-654 -180 0
-655 -127 0
-655 -128 0
-655 -129 0
-655 -130 0
-655 -131 0
-655 -132 0
-655 -133 0
-655 -134 0
-655 -135 0
-655 -136 0
-655 -137 0
-655 -141 0
-655 -142 0
-655 -143 0
-655 -144 0
-655 -145 0
-655 -146 0
-655 -147 0
-655 -148 0
-655 -149 0
-655 -150 0
-655 -151 0
-655 -152 0
-655 -153 0
-655 -154 0
-655 -155 0
-655 -159 0
-655 -160 0
-655 -161 0
-655 -162 0
-655 -163 0
-655 -164 0
-655 -165 0
-655 -166 0
-655 -167 0
-655 -168 0
-655 -169 0
-655 -170 0
-655 -171 0
-655 -172 0
-655 -173 0
-655 -177 0
-655 -178 0
-655 -179 0
-655 -180 0
-656 -127 0
-656 -128 0
-656 -129 0
-656 -130 0
-656 -131 0
-656 -132 0
-656 -133 0
-656 -134 0
-656 -135 0
-656 -136 0
-656 -137 0
-656 -138 0
-656 -142 0
-656 -143 0
-656 -144 0
-656 -145 0
-656 -146 0
-656 -147 0
-656 -148 0
-656 -149 0
-656 -150 0
-656 -151 0
-656 -152 0
-656 -153 0
-656 -154 0
-656 -155 0
-656 -156 0
-656 -160 0
-656 -161 0
-656 -162 0
-656 -163 0
-656 -164 0
-656 -165 0
-656 -166 0
-656 -167 0
-656 -168 0
-656 -169 0
-656 -170 0
-656 -171 0
-656 -172 0
-656 -173 0
-656 -174 0
-656 -178 0
-656 -179 0
-656 -180 0
-657 -127 0
-657 -128 0
-657 -129 0
-657 -130 0
-657 -131 0
-657 -132 0
-657 -133 0
-657 -134 0
-657 -135 0
-657 -136 0
-657 -137 0
-657 -138 0
-657 -139 0
-657 -143 0
-657 -144 0
-657 -145 0
-657 -146 0
-657 -147 0
-657 -148 0
-657 -149 0
-657 -150 0
-657 -151 0
-657 -152 0
-657 -153 0
-657 -154 0
-657 -155 0
-657 -156 0
-657 -157 0
-657 -161 0
-657 -162 0
-657 -163 0
-657 -164 0
-657 -165 0
-657 -166 0
-657 -167 0
-657 -168 0
-657 -169 0
-657 -170 0
-657 -171 0
-657 -172 0
-657 -173 0
-657 -174 0
-657 -175 0
-657 -179 0
-657 -180 0
-658 -127 0
-658 -128 0
-658 -129 0
-658 -130 0
-658 -131 0
-658 -132 0
-658 -133 0
-658 -134 0
-658 -135 0
-658 -136 0
-658 -137 0
-658 -138 0
-658 -139 0
-658 -140 0
-658 -144 0
-658 -145 0
-658 -146 0
-658 -147 0
-658 -148 0
-658 -149 0
-658 -150 0
-658 -151 0
-658 -152 0
-658 -153 0
-658 -154 0
-658 -155 0
-658 -156 0
-658 -157 0
-658 -158 0
-658 -162 0
-658 -163 0
-658 -164 0
-658 -165 0
-658 -166 0
-658 -167 0
-658 -168 0
-658 -169 0
-658 -170 0
-658 -171 0
-658 -172 0
-658 -173 0
-658 -174 0
-658 -175 0
-658 -176 0
-658 -180 0
-659 -127 0
-659 -128 0
-659 -129 0
-659 -130 0
-659 -131 0
-659 -132 0
-659 -133 0
-659 -134 0
-659 -135 0
-659 -136 0
-659 -137 0
-659 -138 0
-659 -139 0
-659 -140 0
-659 -141 0
-659 -145 0
-659 -146 0
-659 -147 0
-659 -148 0
-659 -149 0
-659 -150 0
-659 -151 0
-659 -152 0
-659 -153 0
-659 -154 0
-659 -155 0
-659 -156 0
-659 -157 0
-659 -158 0
-659 -159 0
-659 -163 0
-659 -164 0
-659 -165 0
-659 -166 0
-659 -167 0
-659 -168 0
-659 -169 0
-659 -170 0
-659 -171 0
-659 -172 0
-659 -173 0
-659 -174 0
-659 -175 0
-659 -176 0
-659 -177 0
-181 -199 0
-181 -217 0
-199 -217 0
-182 -200 0
-182 -218 0
-200 -218 0
-183 -201 0
-183 -219 0
-201 -219 0
-184 -202 0
-184 -220 0
-202 -220 0
-185 -203 0
-185 -221 0
-203 -221 0
-186 -204 0
-186 -222 0
-204 -222 0
-187 -205 0
-187 -223 0
-205 -223 0
-188 -206 0
-188 -224 0
-206 -224 0
-189 -207 0
-189 -225 0
-207 -225 0
-190 -208 0
-190 -226 0
-208 -226 0
-191 -209 0
-191 -227 0
-209 -227 0
-192 -210 0
-192 -228 0
-210 -228 0
-193 -211 0
-193 -229 0
-211 -229 0
-194 -212 0
-194 -230 0
-212 -230 0
-195 -213 0
-195 -231 0
-213 -231 0
-196 -214 0
-196 -232 0
-214 -232 0
-197 -215 0
-197 -233 0
-215 -233 0
-198 -216 0
-198 -234 0
-216 -234 0
660 661 662 663 664 665 666 667 668 669 670 671 672 673 674 675 0
-660 -661 0
-660 -662 0
-660 -663 0
-660 -664 0
-660 -665 0
-660 -666 0
-660 -667 0
-660 -668 0
-660 -669 0
-660 -670 0
-660 -671 0
-660 -672 0
-660 -673 0
-660 -674 0
-660 -675 0
-661 -662 0
-661 -663 0
-661 -664 0
-661 -665 0
-661 -666 0
-661 -667 0
-661 -668 0
-661 -669 0
-661 -670 0
-661 -671 0
-661 -672 0
-661 -673 0
-661 -674 0
-661 -675 0
-662 -663 0
-662 -664 0
-662 -665 0
-662 -666 0
-662 -667 0
-662 -668 0
-662 -669 0
-662 -670 0
-662 -671 0
-662 -672 0
-662 -673 0
-662 -674 0
-662 -675 0
-663 -664 0
-663 -665 0
-663 -666 0
-663 -667 0
-663 -668 0
-663 -669 0
-663 -670 0
-663 -671 0
-663 -672 0
-663 -673 0
-663 -674 0
-663 -675 0
-664 -665 0
-664 -666 0
-664 -667 0
-664 -668 0
-664 -669 0
-664 -670 0
-664 -671 0
-664 -672 0
-664 -673 0
-664 -674 0
-664 -675 0
-665 -666 0
-665 -667 0
-665 -668 0
-665 -669 0
-665 -670 0
-665 -671 0
-665 -672 0
-665 -673 0
-665 -674 0
-665 -675 0
-666 -667 0
-666 -668 0
-666 -669 0
-666 -670 0
-666 -671 0
-666 -672 0
-666 -673 0
-666 -674 0
-666 -675 0
-667 -668 0
-667 -669 0
-667 -670 0
-667 -671 0
-667 -672 0
-667 -673 0
-667 -674 0
-667 -675 0
-668 -669 0
-668 -670 0
-668 -671 0
-668 -672 0
-668 -673 0
-668 -674 0
-668 -675 0
-669 -670 0
-669 -671 0
-669 -672 0
-669 -673 0
-669 -674 0
-669 -675 0
-670 -671 0
-670 -672 0
-670 -673 0
-670 -674 0
-670 -675 0
-671 -672 0
-671 -673 0
-671 -674 0
-671 -675 0
-672 -673 0
-672 -674 0
-672 -675 0
-673 -674 0
-673 -675 0
-674 -675 0
-181 660 0
-182 660 661 0
-183 660 661 662 0
-184 661 662 663 0
-185 662 663 664 0
-186 663 664 665 0
-187 664 665 666 0
-188 665 666 667 0
-189 666 667 668 0
-190 667 668 669 0
-191 668 669 670 0
-192 669 670 671 0
-193 670 671 672 0
-194 671 672 673 0
-195 672 673 674 0
-196 673 674 675 0
-197 674 675 0
-198 675 0
-199 660 0
-200 660 661 0
-201 660 661 662 0
-202 661 662 663 0
-203 662 663 664 0
-204 663 664 665 0
-205 664 665 666 0
-206 665 666 667 0
-207 666 667 668 0
-208 667 668 669 0
-209 668 669 670 0
-210 669 670 671 0
-211 670 671 672 0
-212 671 672 673 0
-213 672 673 674 0
-214 673 674 675 0
-215 674 675 0
-216 675 0
-217 660 0
-218 660 661 0
-219 660 661 662 0
-220 661 662 663 0
-221 662 663 664 0
-222 663 664 665 0
-223 664 665 666 0
-224 665 666 667 0
-225 666 667 668 0
-226 667 668 669 0
-227 668 669 670 0
-228 669 670 671 0
-229 670 671 672 0
-230 671 672 673 0
-231 672 673 674 0
-232 673 674 675 0
-233 674 675 0
-234 675 0
-660 -184 0
-660 -185 0
-660 -186 0
-660 -187 0
-660 -188 0
-660 -189 0
-660 -190 0
-660 -191 0
-660 -192 0
-660 -193 0
-660 -194 0
-660 -195 0
-660 -196 0
-660 -197 0
-660 -198 0
-660 -202 0
-660 -203 0
-660 -204 0
-660 -205 0
-660 -206 0
-660 -207 0
-660 -208 0
-660 -209 0
-660 -210 0
-660 -211 0
-660 -212 0
-660 -213 0
-660 -214 0
-660 -215 0
-660 -216 0
-660 -220 0
-660 -221 0
-660 -222 0
-660 -223 0
-660 -224 0
-660 -225 0
-660 -226 0
-660 -227 0
-660 -228 0
-660 -229 0
-660 -230 0
-660 -231 0
-660 -232 0
-660 -233 0
-660 -234 0
-661 -181 0
-661 -185 0
-661 -186 0
-661 -187 0
-661 -188 0
-661 -189 0
-661 -190 0
-661 -191 0
-661 -192 0
-661 -193 0
-661 -194 0
-661 -195 0
-661 -196 0
-661 -197 0
-661 -198 0
-661 -199 0
-661 -203 0
-661 -204 0
-661 -205 0
-661 -206 0
-661 -207 0
-661 -208 0
-661 -209 0
-661 -210 0
-661 -211 0
-661 -212 0
-661 -213 0
-661 -214 0
-661 -215 0
-661 -216 0
-661 -217 0
-661 -221 0
-661 -222 0
-661 -223 0
-661 -224 0
-661 -225 0
-661 -226 0
-661 -227 0
-661 -228 0
-661 -229 0
-661 -230 0
-661 -231 0
-661 -232 0
-661 -233 0
-661 -234 0
-662 -181 0
-662 -182 0
-662 -186 0
-662 -187 0
-662 -188 0
-662 -189 0
-662 -190 0
-662 -191 0
-662 -192 0
-662 -193 0
-662 -194 0
-662 -195 0
-662 -196 0
-662 -197 0
-662 -198 0
-662 -199 0
-662 -200 0
-662 -204 0
-662 -205 0
-662 -206 0
-662 -207 0
-662 -208 0
-662 -209 0
-662 -210 0
-662 -211 0
-662 -212 0
-662 -213 0
-662 -214 0
-662 -215 0
-662 -216 0
-662 -217 0
-662 -218 0
-662 -222 0
-662 -223 0
-662 -224 0
-662 -225 0
-662 -226 0
-662 -227 0
-662 -228 0
-662 -229 0
-662 -230 0
-662 -231 0
-662 -232 0
-662 -233 0
-662 -234 0
-663 -181 0
-663 -182 0
-663 -183 0
-663 -187 0
-663 -188 0
-663 -189 0
-663 -190 0
-663 -191 0
-663 -192 0
-663 -193 0
-663 -194 0
-663 -195 0
-663 -196 0
-663 -197 0
-663 -198 0
-663 -199 0
-663 -200 0
-663 -201 0
-663 -205 0
-663 -206 0
-663 -207 0
-663 -208 0
-663 -209 0
-663 -210 0
-663 -211 0
-663 -212 0
-663 -213 0
-663 -214 0
-663 -215 0
-663 -216 0
-663 -217 0
-663 -218 0
-663 -219 0
-663 -223 0
-663 -224 0
-663 -225 0
-663 -226 0
-663 -227 0
-663 -228 0
-663 -229 0
-663 -230 0
-663 -231 0
-663 -232 0
-663 -233 0
-663 -234 0
-664 -181 0
-664 -182 0
-664 -183 0
-664 -184 0
-664 -188 0
-664 -189 0
-664 -190 0
-664 -191 0
-664 -192 0
-664 -193 0
-664 -194 0
-664 -195 0
-664 -196 0
-664 -197 0
-664 -198 0
-664 -199 0
-664 -200 0
-664 -201 0
-664 -202 0
-664 -206 0
-664 -207 0
-664 -208 0
-664 -209 0
-664 -210 0
-664 -211 0
-664 -212 0
-664 -213 0
-664 -214 0
-664 -215 0
-664 -216 0
-664 -217 0
-664 -218 0
-664 -219 0
-664 -220 0
-664 -224 0
-664 -225 0
-664 -226 0
-664 -227 0
-664 -228 0
-664 -229 0
-664 -230 0
-664 -231 0
-664 -232 0
-664 -233 0
-664 -234 0
-665 -181 0
-665 -182 0
-665 -183 0
-665 -184 0
-665 -185 0
-665 -189 0
-665 -190 0
-665 -191 0
-665 -192 0
-665 -193 0
-665 -194 0
-665 -195 0
-665 -196 0
-665 -197 0
-665 -198 0
-665 -199 0
-665 -200 0
-665 -201 0
-665 -202 0
-665 -203 0
-665 -207 0
-665 -208 0
-665 -209 0
-665 -210 0
-665 -211 0
-665 -212 0
-665 -213 0
-665 -214 0
-665 -215 0
-665 -216 0
-665 -217 0
-665 -218 0
-665 -219 0
-665 -220 0
-665 -221 0
-665 -225 0
-665 -226 0
-665 -227 0
-665 -228 0
-665 -229 0
-665 -230 0
-665 -231 0
-665 -232 0
-665 -233 0
-665 -234 0
-666 -181 0
-666 -182 0
-666 -183 0
-666 -184 0
-666 -185 0
-666 -186 0
-666 -190 0
-666 -191 0
-666 -192 0
-666 -193 0
-666 -194 0
-666 -195 0
-666 -196 0
-666 -197 0
-666 -198 0
-666 -199 0
-666 -200 0
-666 -201 0
-666 -202 0
-666 -203 0
-666 -204 0
-666 -208 0
-666 -209 0
-666 -210 0
-666 -211 0
-666 -212 0
-666 -213 0
-666 -214 0
-666 -215 0
-666 -216 0
-666 -217 0
-666 -218 0
-666 -219 0
-666 -220 0
-666 -221 0
-666 -222 0
-666 -226 0
-666 -227 0
-666 -228 0
-666 -229 0
-666 -230 0
-666 -231 0
-666 -232 0
-666 -233 0
-666 -234 0
-667 -181 0
-667 -182 0
-667 -183 0
-667 -184 0
-667 -185 0
-667 -186 0
-667 -187 0
-667 -191 0
-667 -192 0
-667 -193 0
-667 -194 0
-667 -195 0
-667 -196 0
-667 -197 0
-667 -198 0
-667 -199 0
-667 -200 0
-667 -201 0
-667 -202 0
-667 -203 0
-667 -204 0
-667 -205 0
-667 -209 0
-667 -210 0
-667 -211 0
-667 -212 0
-667 -213 0
-667 -214 0
-667 -215 0
-667 -216 0
-667 -217 0
-667 -218 0
-667 -219 0
-667 -220 0
-667 -221 0
-667 -222 0
-667 -223 0
-667 -227 0
-667 -228 0
-667 -229 0
-667 -230 0
-667 -231 0
-667 -232 0
-667 -233 0
-667 -234 0
-668 -181 0
-668 -182 0
-668 -183 0
-668 -184 0
-668 -185 0
-668 -186 0
-668 -187 0
-668 -188 0
-668 -192 0
-668 -193 0
-668 -194 0
-668 -195 0
-668 -196 0
-668 -197 0
-668 -198 0
-668 -199 0
-668 -200 0
-668 -201 0
-668 -202 0
-668 -203 0
-668 -204 0
-668 -205 0
-668 -206 0
-668 -210 0
-668 -211 0
-668 -212 0
-668 -213 0
-668 -214 0
-668 -215 0
-668 -216 0
-668 -217 0
-668 -218 0
-668 -219 0
-668 -220 0
-668 -221 0
-668 -222 0
-668 -223 0
-668 -224 0
-668 -228 0
-668 -229 0
-668 -230 0
-668 -231 0
-668 -232 0
-668 -233 0
-668 -234 0
-669 -181 0
-669 -182 0
-669 -183 0
-669 -184 0
-669 -185 0
-669 -186 0
-669 -187 0
-669 -188 0
-669 -189 0
-669 -193 0
-669 -194 0
-669 -195 0
-669 -196 0
-669 -197 0
-669 -198 0
-669 -199 0
-669 -200 0
-669 -201 0
-669 -202 0
-669 -203 0
-669 -204 0
-669 -205 0
-669 -206 0
-669 -207 0
-669 -211 0
-669 -212 0
-669 -213 0
-669 -214 0
-669 -215 0
-669 -216 0
-669 -217 0
-669 -218 0
-669 -219 0
-669 -220 0
-669 -221 0
-669 -222 0
-669 -223 0
-669 -224 0
-669 -225 0
-669 -229 0
-669 -230 0
-669 -231 0
-669 -232 0
-669 -233 0
-669 -234 0
-670 -181 0
-670 -182 0
-670 -183 0
-670 -184 0
-670 -185 0
-670 -186 0
-670 -187 0
-670 -188 0
-670 -189 0
-670 -190 0
-670 -194 0
-670 -195 0
-670 -196 0
-670 -197 0
-670 -198 0
-670 -199 0
-670 -200 0
-670 -201 0
-670 -202 0
-670 -203 0
-670 -204 0
-670 -205 0
-670 -206 0
-670 -207 0
-670 -208 0
-670 -212 0
-670 -213 0
-670 -214 0
-670 -215 0
-670 -216 0
-670 -217 0
-670 -218 0
-670 -219 0
-670 -220 0
-670 -221 0
-670 -222 0
-670 -223 0
-670 -224 0
-670 -225 0
-670 -226 0
-670 -230 0
-670 -231 0
-670 -232 0
-670 -233 0
-670 -234 0
-671 -181 0
-671 -182 0
-671 -183 0
-671 -184 0
-671 -185 0
-671 -186 0
-671 -187 0
-671 -188 0
-671 -189 0
-671 -190 0
-671 -191 0
-671 -195 0
-671 -196 0
-671 -197 0
-671 -198 0
-671 -199 0
-671 -200 0
-671 -201 0
-671 -202 0
-671 -203 0
-671 -204 0
-671 -205 0
-671 -206 0
-671 -207 0
-671 -208 0
-671 -209 0
-671 -213 0
-671 -214 0
-671 -215 0
-671 -216 0
-671 -217 0
-671 -218 0
-671 -219 0
-671 -220 0
-671 -221 0
-671 -222 0
-671 -223 0
-671 -224 0
-671 -225 0
-671 -226 0
-671 -227 0
-671 -231 0
-671 -232 0
-671 -233 0
-671 -234 0
-672 -181 0
-672 -182 0
-672 -183 0
-672 -184 0
-672 -185 0
-672 -186 0
-672 -187 0
-672 -188 0
-672 -189 0
-672 -190 0
-672 -191 0
-672 -192 0
-672 -196 0
-672 -197 0
-672 -198 0
-672 -199 0
-672 -200 0
-672 -201 0
-672 -202 0
-672 -203 0
-672 -204 0
-672 -205 0
-672 -206 0
-672 -207 0
-672 -208 0
-672 -209 0
-672 -210 0
-672 -214 0
-672 -215 0
-672 -216 0
-672 -217 0
-672 -218 0
-672 -219 0
-672 -220 0
-672 -221 0
-672 -222 0
-672 -223 0
-672 -224 0
-672 -225 0
-672 -226 0
-672 -227 0
-672 -228 0
-672 -232 0
-672 -233 0
-672 -234 0
-673 -181 0
-673 -182 0
-673 -183 0
-673 -184 0
-673 -185 0
-673 -186 0
-673 -187 0
-673 -188 0
-673 -189 0
-673 -190 0
-673 -191 0
-673 -192 0
-673 -193 0
-673 -197 0
-673 -198 0
-673 -199 0
-673 -200 0
-673 -201 0
-673 -202 0
-673 -203 0
-673 -204 0
-673 -205 0
-673 -206 0
-673 -207 0
-673 -208 0
-673 -209 0
-673 -210 0
-673 -211 0
-673 -215 0
-673 -216 0
-673 -217 0
-673 -218 0
-673 -219 0
-673 -220 0
-673 -221 0
-673 -222 0
-673 -223 0
-673 -224 0
-673 -225 0
-673 -226 0
-673 -227 0
-673 -228 0
-673 -229 0
-673 -233 0
-673 -234 0
-674 -181 0
-674 -182 0
-674 -183 0
-674 -184 0
-674 -185 0
-674 -186 0
-674 -187 0
-674 -188 0
-674 -189 0
-674 -190 0
-674 -191 0
-674 -192 0
-674 -193 0
-674 -194 0
-674 -198 0
-674 -199 0
-674 -200 0
-674 -201 0
-674 -202 0
-674 -203 0
-674 -204 0
-674 -205 0
-674 -206 0
-674 -207 0
-674 -208 0
-674 -209 0
-674 -210 0
-674 -211 0
-674 -212 0
-674 -216 0
-674 -217 0
-674 -218 0
-674 -219 0
-674 -220 0
-674 -221 0
-674 -222 0
-674 -223 0
-674 -224 0
-674 -225 0
-674 -226 0
-674 -227 0
-674 -228 0
-674 -229 0
-674 -230 0
-674 -234 0
-675 -181 0
-675 -182 0
-675 -183 0
-675 -184 0
-675 -185 0
-675 -186 0
-675 -187 0
-675 -188 0
-675 -189 0
-675 -190 0
-675 -191 0
-675 -192 0
-675 -193 0
-675 -194 0
-675 -195 0
-675 -199 0
-675 -200 0
-675 -201 0
-675 -202 0
-675 -203 0
-675 -204 0
-675 -205 0
-675 -206 0
-675 -207 0
-675 -208 0
-675 -209 0
-675 -210 0
-675 -211 0
-675 -212 0
-675 -213 0
-675 -217 0
-675 -218 0
-675 -219 0
-675 -220 0
-675 -221 0
-675 -222 0
-675 -223 0
-675 -224 0
-675 -225 0
-675 -226 0
-675 -227 0
-675 -228 0
-675 -229 0
-675 -230 0
-675 -231 0
-235 -253 0
-235 -271 0
-253 -271 0
-236 -254 0
-236 -272 0
-254 -272 0
-237 -255 0
-237 -273 0
-255 -273 0
-238 -256 0
-238 -274 0
-256 -274 0
-239 -257 0
-239 -275 0
-257 -275 0
-240 -258 0
-240 -276 0
-258 -276 0
-241 -259 0
-241 -277 0
-259 -277 0
-242 -260 0
-242 -278 0
-260 -278 0
-243 -261 0
-243 -279 0
-261 -279 0
-244 -262 0
-244 -280 0
-262 -280 0
-245 -263 0
-245 -281 0
-263 -281 0
-246 -264 0
-246 -282 0
-264 -282 0
-247 -265 0
-247 -283 0
-265 -283 0
-248 -266 0
-248 -284 0
-266 -284 0
-249 -267 0
-249 -285 0
-267 -285 0
-250 -268 0
-250 -286 0
-268 -286 0
-251 -269 0
-251 -287 0
-269 -287 0
-252 -270 0
-252 -288 0
-270 -288 0
676 677 678 679 680 681 682 683 684 685 686 687 688 689 690 691 0
-676 -677 0
-676 -678 0
-676 -679 0
-676 -680 0
-676 -681 0
-676 -682 0
-676 -683 0
-676 -684 0
-676 -685 0
-676 -686 0
-676 -687 0
-676 -688 0
-676 -689 0
-676 -690 0
-676 -691 0
-677 -678 0
-677 -679 0
-677 -680 0
-677 -681 0
-677 -682 0
-677 -683 0
-677 -684 0
-677 -685 0
-677 -686 0
-677 -687 0
-677 -688 0
-677 -689 0
-677 -690 0
-677 -691 0
-678 -679 0
-678 -680 0
-678 -681 0
-678 -682 0
-678 -683 0
-678 -684 0
-678 -685 0
-678 -686 0
-678 -687 0
-678 -688 0
-678 -689 0
-678 -690 0
-678 -691 0
-679 -680 0
-679 -681 0
-679 -682 0
-679 -683 0
-679 -684 0
-679 -685 0
-679 -686 0
-679 -687 0
-679 -688 0
-679 -689 0
-679 -690 0
-679 -691 0
-680 -681 0
-680 -682 0
-680 -683 0
-680 -684 0
-680 -685 0
-680 -686 0
-680 -687 0
-680 -688 0
-680 -689 0
-680 -690 0
-680 -691 0
-681 -682 0
-681 -683 0
-681 -684 0
-681 -685 0
-681 -686 0
-681 -687 0
-681 -688 0
-681 -689 0
-681 -690 0
-681 -691 0
-682 -683 0
-682 -684 0
-682 -685 0
-682 -686 0
-682 -687 0
-682 -688 0
-682 -689 0
-682 -690 0
-682 -691 0
-683 -684 0
-683 -685 0
-683 -686 0
-683 -687 0
-683 -688 0
-683 -689 0
-683 -690 0
-683 -691 0
-684 -685 0
-684 -686 0
-684 -687 0
-684 -688 0
-684 -689 0
-684 -690 0
-684 -691 0
-685 -686 0
-685 -687 0
-685 -688 0
-685 -689 0
-685 -690 0
-685 -691 0
-686 -687 0
-686 -688 0
-686 -689 0
-686 -690 0
-686 -691 0
-687 -688 0
-687 -689 0
-687 -690 0
-687 -691 0
-688 -689 0
-688 -690 0
-688 -691 0
-689 -690 0
-689 -691 0
-690 -691 0
-235 676 0
-236 676 677 0
-237 676 677 678 0
-238 677 678 679 0
-239 678 679 680 0
-240 679 680 681 0
-241 680 681 682 0
-242 681 682 683 0
-243 682 683 684 0
-244 683 684 685 0
-245 684 685 686 0
-246 685 686 687 0
-247 686 687 688 0
-248 687 688 689 0
-249 688 689 690 0
-250 689 690 691 0
-251 690 691 0
-252 691 0
-253 676 0
-254 676 677 0
-255 676 677 678 0
-256 677 678 679 0
-257 678 679 680 0
-258 679 680 681 0
-259 680 681 682 0
-260 681 682 683 0
-261 682 683 684 0
-262 683 684 685 0
-263 684 685 686 0
-264 685 686 687 0
-265 686 687 688 0
-266 687 688 689 0
-267 688 689 690 0
-268 689 690 691 0
-269 690 691 0
-270 691 0
-271 676 0
-272 676 677 0
-273 676 677 678 0
-274 677 678 679 0
-275 678 679 680 0
-276 679 680 681 0
-277 680 681 682 0
-278 681 682 683 0
-279 682 683 684 0
-280 683 684 685 0
-281 684 685 686 0
-282 685 686 687 0
-283 686 687 688 0
-284 687 688 689 0
-285 688 689 690 0
-286 689 690 691 0
-287 690 691 0
-288 691 0
-676 -238 0
-676 -239 0
-676 -240 0
-676 -241 0
-676 -242 0
-676 -243 0
-676 -244 0
-676 -245 0
-676 -246 0
-676 -247 0
-676 -248 0
-676 -249 0
-676 -250 0
-676 -251 0
-676 -252 0
-676 -256 0
-676 -257 0
-676 -258 0
-676 -259 0
-676 -260 0
-676 -261 0
-676 -262 0
-676 -263 0
-676 -264 0
-676 -265 0
-676 -266 0
-676 -267 0
-676 -268 0
-676 -269 0
-676 -270 0
-676 -274 0
-676 -275 0
-676 -276 0
-676 -277 0
-676 -278 0
-676 -279 0
-676 -280 0
-676 -281 0
-676 -282 0
-676 -283 0
-676 -284 0
-676 -285 0
-676 -286 0
-676 -287 0
-676 -288 0
-677 -235 0
-677 -239 0
-677 -240 0
-677 -241 0
-677 -242 0
-677 -243 0
-677 -244 0
-677 -245 0
-677 -246 0
-677 -247 0
-677 -248 0
-677 -249 0
-677 -250 0
-677 -251 0
-677 -252 0
-677 -253 0
-677 -257 0
-677 -258 0
-677 -259 0
-677 -260 0
-677 -261 0
-677 -262 0
-677 -263 0
-677 -264 0
-677 -265 0
-677 -266 0
-677 -267 0
-677 -268 0
-677 -269 0
-677 -270 0
-677 -271 0
-677 -275 0
-677 -276 0
-677 -277 0
-677 -278 0
-677 -279 0
-677 -280 0
-677 -281 0
-677 -282 0
-677 -283 0
-677 -284 0
-677 -285 0
-677 -286 0
-677 -287 0
-677 -288 0
-678 -235 0
-678 -236 0
-678 -240 0
-678 -241 0
-678 -242 0
-678 -243 0
-678 -244 0
-678 -245 0
-678 -246 0
-678 -247 0
-678 -248 0
-678 -249 0
-678 -250 0
-678 -251 0
-678 -252 0
-678 -253 0
-678 -254 0
-678 -258 0
-678 -259 0
-678 -260 0
-678 -261 0
-678 -262 0
-678 -263 0
-678 -264 0
-678 -265 0
-678 -266 0
-678 -267 0
-678 -268 0
-678 -269 0
-678 -270 0
-678 -271 0
-678 -272 0
-678 -276 0
-678 -277 0
-678 -278 0
-678 -279 0
-678 -280 0
-678 -281 0
-678 -282 0
-678 -283 0
-678 -284 0
-678 -285 0
-678 -286 0
-678 -287 0
-678 -288 0
-679 -235 0
-679 -236 0
-679 -237 0
-679 -241 0
-679 -242 0
-679 -243 0
-679 -244 0
-679 -245 0
-679 -246 0
-679 -247 0
-679 -248 0
-679 -249 0
-679 -250 0
-679 -251 0
-679 -252 0
-679 -253 0
-679 -254 0
-679 -255 0
-679 -259 0
-679 -260 0
-679 -261 0
-679 -262 0
-679 -263 0
-679 -264 0
-679 -265 0
-679 -266 0
-679 -267 0
-679 -268 0
-679 -269 0
-679 -270 0
-679 -271 0
-679 -272 0
-679 -273 0
-679 -277 0
-679 -278 0
-679 -279 0
-679 -280 0
-679 -281 0
-679 -282 0
-679 -283 0
-679 -284 0
-679 -285 0
-679 -286 0
-679 -287 0
-679 -288 0
-680 -235 0
-680 -236 0
-680 -237 0
-680 -238 0
-680 -242 0
-680 -243 0
-680 -244 0
-680 -245 0
-680 -246 0
-680 -247 0
-680 -248 0
-680 -249 0
-680 -250 0
-680 -251 0
-680 -252 0
-680 -253 0
-680 -254 0
-680 -255 0
-680 -256 0
-680 -260 0
-680 -261 0
-680 -262 0
-680 -263 0
-680 -264 0
-680 -265 0
-680 -266 0
-680 -267 0
-680 -268 0
-680 -269 0
-680 -270 0
-680 -271 0
-680 -272 0
-680 -273 0
-680 -274 0
-680 -278 0
-680 -279 0
-680 -280 0
-680 -281 0
-680 -282 0
-680 -283 0
-680 -284 0
-680 -285 0
-680 -286 0
-680 -287 0
-680 -288 0
-681 -235 0
-681 -236 0
-681 -237 0
-681 -238 0
-681 -239 0
-681 -243 0
-681 -244 0
-681 -245 0
-681 -246 0
-681 -247 0
-681 -248 0
-681 -249 0
-681 -250 0
-681 -251 0
-681 -252 0
-681 -253 0
-681 -254 0
-681 -255 0
-681 -256 0
-681 -257 0
-681 -261 0
-681 -262 0
-681 -263 0
-681 -264 0
-681 -265 0
-681 -266 0
-681 -267 0
-681 -268 0
-681 -269 0
-681 -270 0
-681 -271 0
-681 -272 0
-681 -273 0
-681 -274 0
-681 -275 0
-681 -279 0
-681 -280 0
-681 -281 0
-681 -282 0
-681 -283 0
-681 -284 0
-681 -285 0
-681 -286 0
-681 -287 0
-681 -288 0
-682 -235 0
-682 -236 0
-682 -237 0
-682 -238 0
-682 -239 0
-682 -240 0
-682 -244 0
-682 -245 0
-682 -246 0
-682 -247 0
-682 -248 0
-682 -249 0
-682 -250 0
-682 -251 0
-682 -252 0
-682 -253 0
-682 -254 0
-682 -255 0
-682 -256 0
-682 -257 0
-682 -258 0
-682 -262 0
-682 -263 0
-682 -264 0
-682 -265 0
-682 -266 0
-682 -267 0
-682 -268 0
-682 -269 0
-682 -270 0
-682 -271 0
-682 -272 0
-682 -273 0
-682 -274 0
-682 -275 0
-682 -276 0
-682 -280 0
-682 -281 0
-682 -282 0
-682 -283 0
-682 -284 0
-682 -285 0
-682 -286 0
-682 -287 0
-682 -288 0
-683 -235 0
-683 -236 0
-683 -237 0
-683 -238 0
-683 -239 0
-683 -240 0
-683 -241 0
-683 -245 0
-683 -246 0
-683 -247 0
-683 -248 0
-683 -249 0
-683 -250 0
-683 -251 0
-683 -252 0
-683 -253 0
-683 -254 0
-683 -255 0
-683 -256 0
-683 -257 0
-683 -258 0
-683 -259 0
-683 -263 0
-683 -264 0
-683 -265 0
-683 -266 0
-683 -267 0
-683 -268 0
-683 -269 0
-683 -270 0
-683 -271 0
-683 -272 0
-683 -273 0
-683 -274 0
-683 -275 0
-683 -276 0
-683 -277 0
-683 -281 0
-683 -282 0
-683 -283 0
-683 -284 0
-683 -285 0
-683 -286 0
-683 -287 0
-683 -288 0
-684 -235 0
-684 -236 0
-684 -237 0
-684 -238 0
-684 -239 0
-684 -240 0
-684 -241 0
-684 -242 0
-684 -246 0
-684 -247 0
-684 -248 0
-684 -249 0
-684 -250 0
-684 -251 0
-684 -252 0
-684 -253 0
-684 -254 0
-684 -255 0
-684 -256 0
-684 -257 0
-684 -258 0
-684 -259 0
-684 -260 0
-684 -264 0
-684 -265 0
-684 -266 0
-684 -267 0
-684 -268 0
-684 -269 0
-684 -270 0
-684 -271 0
-684 -272 0
-684 -273 0
-684 -274 0
-684 -275 0
-684 -276 0
-684 -277 0
-684 -278 0
-684 -282 0
-684 -283 0
-684 -284 0
-684 -285 0
-684 -286 0
-684 -287 0
-684 -288 0
-685 -235 0
-685 -236 0
-685 -237 0
-685 -238 0
-685 -239 0
-685 -240 0
-685 -241 0
-685 -242 0
-685 -243 0
-685 -247 0
-685 -248 0
-685 -249 0
-685 -250 0
-685 -251 0
-685 -252 0
-685 -253 0
-685 -254 0
-685 -255 0
-685 -256 0
-685 -257 0
-685 -258 0
-685 -259 0
-685 -260 0
-685 -261 0
-685 -265 0
-685 -266 0
-685 -267 0
-685 -268 0
-685 -269 0
-685 -270 0
-685 -271 0
-685 -272 0
-685 -273 0
-685 -274 0
-685 -275 0
-685 -276 0
-685 -277 0
-685 -278 0
-685 -279 0
-685 -283 0
-685 -284 0
-685 -285 0
-685 -286 0
-685 -287 0
-685 -288 0
-686 -235 0
-686 -236 0
-686 -237 0
-686 -238 0
-686 -239 0
-686 -240 0
-686 -241 0
-686 -242 0
-686 -243 0
-686 -244 0
-686 -248 0
-686 -249 0
-686 -250 0
-686 -251 0
-686 -252 0
-686 -253 0
-686 -254 0
-686 -255 0
-686 -256 0
-686 -257 0
-686 -258 0
-686 -259 0
-686 -260 0
-686 -261 0
-686 -262 0
-686 -266 0
-686 -267 0
-686 -268 0
-686 -269 0
-686 -270 0
-686 -271 0
-686 -272 0
-686 -273 0
-686 -274 0
-686 -275 0
-686 -276 0
-686 -277 0
-686 -278 0
-686 -279 0
-686 -280 0
-686 -284 0
-686 -285 0
-686 -286 0
-686 -287 0
-686 -288 0
-687 -235 0
-687 -236 0
-687 -237 0
-687 -238 0
-687 -239 0
-687 -240 0
-687 -241 0
-687 -242 0
-687 -243 0
-687 -244 0
-687 -245 0
-687 -249 0
-687 -250 0
-687 -251 0
-687 -252 0
-687 -253 0
-687 -254 0
-687 -255 0
-687 -256 0
-687 -257 0
-687 -258 0
-687 -259 0
-687 -260 0
-687 -261 0
-687 -262 0
-687 -263 0
-687 -267 0
-687 -268 0
-687 -269 0
-687 -270 0
-687 -271 0
-687 -272 0
-687 -273 0
-687 -274 0
-687 -275 0
-687 -276 0
-687 -277 0
-687 -278 0
-687 -279 0
-687 -280 0
-687 -281 0
-687 -285 0
-687 -286 0
-687 -287 0
-687 -288 0
-688 -235 0
-688 -236 0
-688 -237 0
-688 -238 0
-688 -239 0
-688 -240 0
-688 -241 0
-688 -242 0
-688 -243 0
-688 -244 0
-688 -245 0
-688 -246 0
-688 -250 0
-688 -251 0
-688 -252 0
-688 -253 0
-688 -254 0
-688 -255 0
-688 -256 0
-688 -257 0
-688 -258 0
-688 -259 0
-688 -260 0
-688 -261 0
-688 -262 0
-688 -263 0
-688 -264 0
-688 -268 0
-688 -269 0
-688 -270 0
-688 -271 0
-688 -272 0
-688 -273 0
-688 -274 0
-688 -275 0
-688 -276 0
-688 -277 0
-688 -278 0
-688 -279 0
-688 -280 0
-688 -281 0
-688 -282 0
-688 -286 0
-688 -287 0
-688 -288 0
-689 -235 0
-689 -236 0
-689 -237 0
-689 -238 0
-689 -239 0
-689 -240 0
-689 -241 0
-689 -242 0
-689 -243 0
-689 -244 0
-689 -245 0
-689 -246 0
-689 -247 0
-689 -251 0
-689 -252 0
-689 -253 0
-689 -254 0
-689 -255 0
-689 -256 0
-689 -257 0
-689 -258 0
-689 -259 0
-689 -260 0
-689 -261 0
-689 -262 0
-689 -263 0
-689 -264 0
-689 -265 0
-689 -269 0
-689 -270 0
-689 -271 0
-689 -272 0
-689 -273 0
-689 -274 0
-689 -275 0
-689 -276 0
-689 -277 0
-689 -278 0
-689 -279 0
-689 -280 0
-689 -281 0
-689 -282 0
-689 -283 0
-689 -287 0
-689 -288 0
-690 -235 0
-690 -236 0
-690 -237 0
-690 -238 0
-690 -239 0
-690 -240 0
-690 -241 0
-690 -242 0
-690 -243 0
-690 -244 0
-690 -245 0
-690 -246 0
-690 -247 0
-690 -248 0
-690 -252 0
-690 -253 0
-690 -254 0
-690 -255 0
-690 -256 0
-690 -257 0
-690 -258 0
-690 -259 0
-690 -260 0
-690 -261 0
-690 -262 0
-690 -263 0
-690 -264 0
-690 -265 0
-690 -266 0
-690 -270 0
-690 -271 0
-690 -272 0
-690 -273 0
-690 -274 0
-690 -275 0
-690 -276 0
-690 -277 0
-690 -278 0
-690 -279 0
-690 -280 0
-690 -281 0
-690 -282 0
-690 -283 0
-690 -284 0
-690 -288 0
-691 -235 0
-691 -236 0
-691 -237 0
-691 -238 0
-691 -239 0
-691 -240 0
-691 -241 0
-691 -242 0
-691 -243 0
-691 -244 0
-691 -245 0
-691 -246 0
-691 -247 0
-691 -248 0
-691 -249 0
-691 -253 0
-691 -254 0
-691 -255 0
-691 -256 0
-691 -257 0
-691 -258 0
-691 -259 0
-691 -260 0
-691 -261 0
-691 -262 0
-691 -263 0
-691 -264 0
-691 -265 0
-691 -266 0
-691 -267 0
-691 -271 0
-691 -272 0
-691 -273 0
-691 -274 0
-691 -275 0
-691 -276 0
-691 -277 0
-691 -278 0
-691 -279 0
-691 -280 0
-691 -281 0
-691 -282 0
-691 -283 0
-691 -284 0
-691 -285 0
-289 -307 0
-289 -325 0
-307 -325 0
-290 -308 0
-290 -326 0
-308 -326 0
-291 -309 0
-291 -327 0
-309 -327 0
-292 -310 0
-292 -328 0
-310 -328 0
-293 -311 0
-293 -329 0
-311 -329 0
-294 -312 0
-294 -330 0
-312 -330 0
-295 -313 0
-295 -331 0
-313 -331 0
-296 -314 0
-296 -332 0
-314 -332 0
-297 -315 0
-297 -333 0
-315 -333 0
-298 -316 0
-298 -334 0
-316 -334 0
-299 -317 0
-299 -335 0
-317 -335 0
-300 -318 0
-300 -336 0
-318 -336 0
-301 -319 0
-301 -337 0
-319 -337 0
-302 -320 0
-302 -338 0
-320 -338 0
-303 -321 0
-303 -339 0
-321 -339 0
-304 -322 0
-304 -340 0
-322 -340 0
-305 -323 0
-305 -341 0
-323 -341 0
-306 -324 0
-306 -342 0
-324 -342 0
692 693 694 695 696 697 698 699 700 701 702 703 704 705 706 707 0
-692 -693 0
-692 -694 0
-692 -695 0
-692 -696 0
-692 -697 0
-692 -698 0
-692 -699 0
-692 -700 0
-692 -701 0
-692 -702 0
-692 -703 0
-692 -704 0
-692 -705 0
-692 -706 0
-692 -707 0
-693 -694 0
-693 -695 0
-693 -696 0
-693 -697 0
-693 -698 0
-693 -699 0
-693 -700 0
-693 -701 0
-693 -702 0
-693 -703 0
-693 -704 0
-693 -705 0
-693 -706 0
-693 -707 0
-694 -695 0
-694 -696 0
-694 -697 0
-694 -698 0
-694 -699 0
-694 -700 0
-694 -701 0
-694 -702 0
-694 -703 0
-694 -704 0
-694 -705 0
-694 -706 0
-694 -707 0
-695 -696 0
-695 -697 0
-695 -698 0
-695 -699 0
-695 -700 0
-695 -701 0
-695 -702 0
-695 -703 0
-695 -704 0
-695 -705 0
-695 -706 0
-695 -707 0
-696 -697 0
-696 -698 0
-696 -699 0
-696 -700 0
-696 -701 0
-696 -702 0
-696 -703 0
-696 -704 0
-696 -705 0
-696 -706 0
-696 -707 0
-697 -698 0
-697 -699 0
-697 -700 0
-697 -701 0
-697 -702 0
-697 -703 0
-697 -704 0
-697 -705 0
-697 -706 0
-697 -707 0
-698 -699 0
-698 -700 0
-698 -701 0
-698 -702 0
-698 -703 0
-698 -704 0
-698 -705 0
-698 -706 0
-698 -707 0
-699 -700 0
-699 -701 0
-699 -702 0
-699 -703 0
-699 -704 0
-699 -705 0
-699 -706 0
-699 -707 0
-700 -701 0
-700 -702 0
-700 -703 0
-700 -704 0
-700 -705 0
-700 -706 0
-700 -707 0
-701 -702 0
-701 -703 0
-701 -704 0
-701 -705 0
-701 -706 0
-701 -707 0
-702 -703 0
-702 -704 0
-702 -705 0
-702 -706 0
-702 -707 0
-703 -704 0
-703 -705 0
-703 -706 0
-703 -707 0
-704 -705 0
-704 -706 0
-704 -707 0
-705 -706 0
-705 -707 0
-706 -707 0
-289 692 0
-290 692 693 0
-291 692 693 694 0
-292 693 694 695 0
-293 694 695 696 0
-294 695 696 697 0
-295 696 697 698 0
-296 697 698 699 0
-297 698 699 700 0
-298 699 700 701 0
-299 700 701 702 0
-300 701 702 703 0
-301 702 703 704 0
-302 703 704 705 0
-303 704 705 706 0
-304 705 706 707 0
-305 706 707 0
-306 707 0
-307 692 0
-308 692 693 0
-309 692 693 694 0
-310 693 694 695 0
-311 694 695 696 0
-312 695 696 697 0
-313 696 697 698 0
-314 697 698 699 0
-315 698 699 700 0
-316 699 700 701 0
-317 700 701 702 0
-318 701 702 703 0
-319 702 703 704 0
-320 703 704 705 0
-321 704 705 706 0
-322 705 706 707 0
-323 706 707 0
-324 707 0
-325 692 0
-326 692 693 0
-327 692 693 694 0
-328 693 694 695 0
-329 694 695 696 0
-330 695 696 697 0
-331 696 697 698 0
-332 697 698 699 0
-333 698 699 700 0
-334 699 700 701 0
-335 700 701 702 0
-336 701 702 703 0
-337 702 703 704 0
-338 703 704 705 0
-339 704 705 706 0
-340 705 706 707 0
-341 706 707 0
-342 707 0
-692 -292 0
-692 -293 0
-692 -294 0
-692 -295 0
-692 -296 0
-692 -297 0
-692 -298 0
-692 -299 0
-692 -300 0
-692 -301 0
-692 -302 0
-692 -303 0
-692 -304 0
-692 -305 0
-692 -306 0
-692 -310 0
-692 -311 0
-692 -312 0
-692 -313 0
-692 -314 0
-692 -315 0
-692 -316 0
-692 -317 0
-692 -318 0
-692 -319 0
-692 -320 0
-692 -321 0
-692 -322 0
-692 -323 0
-692 -324 0
-692 -328 0
-692 -329 0
-692 -330 0
-692 -331 0
-692 -332 0
-692 -333 0
-692 -334 0
-692 -335 0
-692 -336 0
-692 -337 0
-692 -338 0
-692 -339 0
-692 -340 0
-692 -341 0
-692 -342 0
-693 -289 0
-693 -293 0
-693 -294 0
-693 -295 0
-693 -296 0
-693 -297 0
-693 -298 0
-693 -299 0
-693 -300 0
-693 -301 0
-693 -302 0
-693 -303 0
-693 -304 0
-693 -305 0
-693 -306 0
-693 -307 0
-693 -311 0
-693 -312 0
-693 -313 0
-693 -314 0
-693 -315 0
-693 -316 0
-693 -317 0
-693 -318 0
-693 -319 0
-693 -320 0
-693 -321 0
-693 -322 0
-693 -323 0
-693 -324 0
-693 -325 0
-693 -329 0
-693 -330 0
-693 -331 0
-693 -332 0
-693 -333 0
-693 -334 0
-693 -335 0
-693 -336 0
-693 -337 0
-693 -338 0
-693 -339 0
-693 -340 0
-693 -341 0
-693 -342 0
-694 -289 0
-694 -290 0
-694 -294 0
-694 -295 0
-694 -296 0
-694 -297 0
-694 -298 0
-694 -299 0
-694 -300 0
-694 -301 0
-694 -302 0
-694 -303 0
-694 -304 0
-694 -305 0
-694 -306 0
-694 -307 0
-694 -308 0
-694 -312 0
-694 -313 0
-694 -314 0
-694 -315 0
-694 -316 0
-694 -317 0
-694 -318 0
-694 -319 0
-694 -320 0
-694 -321 0
-694 -322 0
-694 -323 0
-694 -324 0
-694 -325 0
-694 -326 0
-694 -330 0
-694 -331 0
-694 -332 0
-694 -333 0
-694 -334 0
-694 -335 0
-694 -336 0
-694 -337 0
-694 -338 0
-694 -339 0
-694 -340 0
-694 -341 0
-694 -342 0
-695 -289 0
-695 -290 0
-695 -291 0
-695 -295 0
-695 -296 0
-695 -297 0
-695 -298 0
-695 -299 0
-695 -300 0
-695 -301 0
-695 -302 0
-695 -303 0
-695 -304 0
-695 -305 0
-695 -306 0
-695 -307 0
-695 -308 0
-695 -309 0
-695 -313 0
-695 -314 0
-695 -315 0
-695 -316 0
-695 -317 0
-695 -318 0
-695 -319 0
-695 -320 0
-695 -321 0
-695 -322 0
-695 -323 0
-695 -324 0
-695 -325 0
-695 -326 0
-695 -327 0
-695 -331 0
-695 -332 0
-695 -333 0
-695 -334 0
-695 -335 0
-695 -336 0
-695 -337 0
-695 -338 0
-695 -339 0
-695 -340 0
-695 -341 0
-695 -342 0
-696 -289 0
-696 -290 0
-696 -291 0
-696 -292 0
-696 -296 0
-696 -297 0
-696 -298 0
-696 -299 0
-696 -300 0
-696 -301 0
-696 -302 0
-696 -303 0
-696 -304 0
-696 -305 0
-696 -306 0
-696 -307 0
-696 -308 0
-696 -309 0
-696 -310 0
-696 -314 0
-696 -315 0
-696 -316 0
-696 -317 0
-696 -318 0
-696 -319 0
-696 -320 0
-696 -321 0
-696 -322 0
-696 -323 0
-696 -324 0
-696 -325 0
-696 -326 0
-696 -327 0
-696 -328 0
-696 -332 0
-696 -333 0
-696 -334 0
-696 -335 0
-696 -336 0
-696 -337 0
-696 -338 0
-696 -339 0
-696 -340 0
-696 -341 0
-696 -342 0
-697 -289 0
-697 -290 0
-697 -291 0
-697 -292 0
-697 -293 0
-697 -297 0
-697 -298 0
-697 -299 0
-697 -300 0
-697 -301 0
-697 -302 0
-697 -303 0
-697 -304 0
-697 -305 0
-697 -306 0
-697 -307 0
-697 -308 0
-697 -309 0
-697 -310 0
-697 -311 0
-697 -315 0
-697 -316 0
-697 -317 0
-697 -318 0
-697 -319 0
-697 -320 0
-697 -321 0
-697 -322 0
-697 -323 0
-697 -324 0
-697 -325 0
-697 -326 0
-697 -327 0
-697 -328 0
-697 -329 0
-697 -333 0
-697 -334 0
-697 -335 0
-697 -336 0
-697 -337 0
-697 -338 0
-697 -339 0
-697 -340 0
-697 -341 0
-697 -342 0
-698 -289 0
-698 -290 0
-698 -291 0
-698 -292 0
-698 -293 0
-698 -294 0
-698 -298 0
-698 -299 0
-698 -300 0
-698 -301 0
-698 -302 0
-698 -303 0
-698 -304 0
-698 -305 0
-698 -306 0
-698 -307 0
-698 -308 0
-698 -309 0
-698 -310 0
-698 -311 0
-698 -312 0
-698 -316 0
-698 -317 0
-698 -318 0
-698 -319 0
-698 -320 0
-698 -321 0
-698 -322 0
-698 -323 0
-698 -324 0
-698 -325 0
-698 -326 0
-698 -327 0
-698 -328 0
-698 -329 0
-698 -330 0
-698 -334 0
-698 -335 0
-698 -336 0
-698 -337 0
-698 -338 0
-698 -339 0
-698 -340 0
-698 -341 0
-698 -342 0
-699 -289 0
-699 -290 0
-699 -291 0
-699 -292 0
-699 -293 0
-699 -294 0
-699 -295 0
-699 -299 0
-699 -300 0
-699 -301 0
-699 -302 0
-699 -303 0
-699 -304 0
-699 -305 0
-699 -306 0
-699 -307 0
-699 -308 0
-699 -309 0
-699 -310 0
-699 -311 0
-699 -312 0
-699 -313 0
-699 -317 0
-699 -318 0
-699 -319 0
-699 -320 0
-699 -321 0
-699 -322 0
-699 -323 0
-699 -324 0
-699 -325 0
-699 -326 0
-699 -327 0
-699 -328 0
-699 -329 0
-699 -330 0
-699 -331 0
-699 -335 0
-699 -336 0
-699 -337 0
-699 -338 0
-699 -339 0
-699 -340 0
-699 -341 0
-699 -342 0
-700 -289 0
-700 -290 0
-700 -291 0
-700 -292 0
-700 -293 0
-700 -294 0
-700 -295 0
-700 -296 0
-700 -300 0
-700 -301 0
-700 -302 0
-700 -303 0
-700 -304 0
-700 -305 0
-700 -306 0
-700 -307 0
-700 -308 0
-700 -309 0
-700 -310 0
-700 -311 0
-700 -312 0
-700 -313 0
-700 -314 0
-700 -318 0
-700 -319 0
-700 -320 0
-700 -321 0
-700 -322 0
-700 -323 0
-700 -324 0
-700 -325 0
-700 -326 0
-700 -327 0
-700 -328 0
-700 -329 0
-700 -330 0
-700 -331 0
-700 -332 0
-700 -336 0
-700 -337 0
-700 -338 0
-700 -339 0
-700 -340 0
-700 -341 0
-700 -342 0
-701 -289 0
-701 -290 0
-701 -291 0
-701 -292 0
-701 -293 0
-701 -294 0
-701 -295 0
-701 -296 0
-701 -297 0
-701 -301 0
-701 -302 0
-701 -303 0
-701 -304 0
-701 -305 0
-701 -306 0
-701 -307 0
-701 -308 0
-701 -309 0
-701 -310 0
-701 -311 0
-701 -312 0
-701 -313 0
-701 -314 0
-701 -315 0
-701 -319 0
-701 -320 0
-701 -321 0
-701 -322 0
-701 -323 0
-701 -324 0
-701 -325 0
-701 -326 0
-701 -327 0
-701 -328 0
-701 -329 0
-701 -330 0
-701 -331 0
-701 -332 0
-701 -333 0
-701 -337 0
-701 -338 0
-701 -339 0
-701 -340 0
-701 -341 0
-701 -342 0
-702 -289 0
-702 -290 0
-702 -291 0
-702 -292 0
-702 -293 0
-702 -294 0
-702 -295 0
-702 -296 0
-702 -297 0
-702 -298 0
-702 -302 0
-702 -303 0
-702 -304 0
-702 -305 0
-702 -306 0
-702 -307 0
-702 -308 0
-702 -309 0
-702 -310 0
-702 -311 0
-702 -312 0
-702 -313 0
-702 -314 0
-702 -315 0
-702 -316 0
-702 -320 0
-702 -321 0
-702 -322 0
-702 -323 0
-702 -324 0
-702 -325 0
-702 -326 0
-702 -327 0
-702 -328 0
-702 -329 0
-702 -330 0
-702 -331 0
-702 -332 0
-702 -333 0
-702 -334 0
-702 -338 0
-702 -339 0
-702 -340 0
-702 -341 0
-702 -342 0
-703 -289 0
-703 -290 0
-703 -291 0
-703 -292 0
-703 -293 0
-703 -294 0
-703 -295 0
-703 -296 0
-703 -297 0
-703 -298 0
-703 -299 0
-703 -303 0
-703 -304 0
-703 -305 0
-703 -306 0
-703 -307 0
-703 -308 0
-703 -309 0
-703 -310 0
-703 -311 0
-703 -312 0
-703 -313 0
-703 -314 0
-703 -315 0
-703 -316 0
-703 -317 0
-703 -321 0
-703 -322 0
-703 -323 0
-703 -324 0
-703 -325 0
-703 -326 0
-703 -327 0
-703 -328 0
-703 -329 0
-703 -330 0
-703 -331 0
-703 -332 0
-703 -333 0
-703 -334 0
-703 -335 0
-703 -339 0
-703 -340 0
-703 -341 0
-703 -342 0
-704 -289 0
-704 -290 0
-704 -291 0
-704 -292 0
-704 -293 0
-704 -294 0
-704 -295 0
-704 -296 0
-704 -297 0
-704 -298 0
-704 -299 0
-704 -300 0
-704 -304 0
-704 -305 0
-704 -306 0
-704 -307 0
-704 -308 0
-704 -309 0
-704 -310 0
-704 -311 0
-704 -312 0
-704 -313 0
-704 -314 0
-704 -315 0
-704 -316 0
-704 -317 0
-704 -318 0
-704 -322 0
-704 -323 0
-704 -324 0
-704 -325 0
-704 -326 0
-704 -327 0
-704 -328 0
-704 -329 0
-704 -330 0
-704 -331 0
-704 -332 0
-704 -333 0
-704 -334 0
-704 -335 0
-704 -336 0
-704 -340 0
-704 -341 0
-704 -342 0
-705 -289 0
-705 -290 0
-705 -291 0
-705 -292 0
-705 -293 0
-705 -294 0
-705 -295 0
-705 -296 0
-705 -297 0
-705 -298 0
-705 -299 0
-705 -300 0
-705 -301 0
-705 -305 0
-705 -306 0
-705 -307 0
-705 -308 0
-705 -309 0
-705 -310 0
-705 -311 0
-705 -312 0
-705 -313 0
-705 -314 0
-705 -315 0
-705 -316 0
-705 -317 0
-705 -318 0
-705 -319 0
-705 -323 0
-705 -324 0
-705 -325 0
-705 -326 0
-705 -327 0
-705 -328 0
-705 -329 0
-705 -330 0
-705 -331 0
-705 -332 0
-705 -333 0
-705 -334 0
-705 -335 0
-705 -336 0
-705 -337 0
-705 -341 0
-705 -342 0
-706 -289 0
-706 -290 0
-706 -291 0
-706 -292 0
-706 -293 0
-706 -294 0
-706 -295 0
-706 -296 0
-706 -297 0
-706 -298 0
-706 -299 0
-706 -300 0
-706 -301 0
-706 -302 0
-706 -306 0
-706 -307 0
-706 -308 0
-706 -309 0
-706 -310 0
-706 -311 0
-706 -312 0
-706 -313 0
-706 -314 0
-706 -315 0
-706 -316 0
-706 -317 0
-706 -318 0
-706 -319 0
-706 -320 0
-706 -324 0
-706 -325 0
-706 -326 0
-706 -327 0
-706 -328 0
-706 -329 0
-706 -330 0
-706 -331 0
-706 -332 0
-706 -333 0
-706 -334 0
-706 -335 0
-706 -336 0
-706 -337 0
-706 -338 0
-706 -342 0
-707 -289 0
-707 -290 0
-707 -291 0
-707 -292 0
-707 -293 0
-707 -294 0
-707 -295 0
-707 -296 0
-707 -297 0
-707 -298 0
-707 -299 0
-707 -300 0
-707 -301 0
-707 -302 0
-707 -303 0
-707 -307 0
-707 -308 0
-707 -309 0
-707 -310 0
-707 -311 0
-707 -312 0
-707 -313 0
-707 -314 0
-707 -315 0
-707 -316 0
-707 -317 0
-707 -318 0
-707 -319 0
-707 -320 0
-707 -321 0
-707 -325 0
-707 -326 0
-707 -327 0
-707 -328 0
-707 -329 0
-707 -330 0
-707 -331 0
-707 -332 0
-707 -333 0
-707 -334 0
-707 -335 0
-707 -336 0
-707 -337 0
-707 -338 0
-707 -339 0
-343 -361 0
-343 -379 0
-361 -379 0
-344 -362 0
-344 -380 0
-362 -380 0
-345 -363 0
-345 -381 0
-363 -381 0
-346 -364 0
-346 -382 0
-364 -382 0
-347 -365 0
-347 -383 0
-365 -383 0
-348 -366 0
-348 -384 0
-366 -384 0
-349 -367 0
-349 -385 0
-367 -385 0
-350 -368 0
-350 -386 0
-368 -386 0
-351 -369 0
-351 -387 0
-369 -387 0
-352 -370 0
-352 -388 0
-370 -388 0
-353 -371 0
-353 -389 0
-371 -389 0
-354 -372 0
-354 -390 0
-372 -390 0
-355 -373 0
-355 -391 0
-373 -391 0
-356 -374 0
-356 -392 0
-374 -392 0
-357 -375 0
-357 -393 0
-375 -393 0
-358 -376 0
-358 -394 0
-376 -394 0
-359 -377 0
-359 -395 0
-377 -395 0
-360 -378 0
-360 -396 0
-378 -396 0
708 709 710 711 712 713 714 715 716 717 718 719 720 721 722 723 0
-708 -709 0
-708 -710 0
-708 -711 0
-708 -712 0
-708 -713 0
-708 -714 0
-708 -715 0
-708 -716 0
-708 -717 0
-708 -718 0
-708 -719 0
-708 -720 0
-708 -721 0
-708 -722 0
-708 -723 0
-709 -710 0
-709 -711 0
-709 -712 0
-709 -713 0
-709 -714 0
-709 -715 0
-709 -716 0
-709 -717 0
-709 -718 0
-709 -719 0
-709 -720 0
-709 -721 0
-709 -722 0
-709 -723 0
-710 -711 0
-710 -712 0
-710 -713 0
-710 -714 0
-710 -715 0
-710 -716 0
-710 -717 0
-710 -718 0
-710 -719 0
-710 -720 0
-710 -721 0
-710 -722 0
-710 -723 0
-711 -712 0
-711 -713 0
-711 -714 0
-711 -715 0
-711 -716 0
-711 -717 0
-711 -718 0
-711 -719 0
-711 -720 0
-711 -721 0
-711 -722 0
-711 -723 0
-712 -713 0
-712 -714 0
-712 -715 0
-712 -716 0
-712 -717 0
-712 -718 0
-712 -719 0
-712 -720 0
-712 -721 0
-712 -722 0
-712 -723 0
-713 -714 0
-713 -715 0
-713 -716 0
-713 -717 0
-713 -718 0
-713 -719 0
-713 -720 0
-713 -721 0
-713 -722 0
-713 -723 0
-714 -715 0
-714 -716 0
-714 -717 0
-714 -718 0
-714 -719 0
-714 -720 0
-714 -721 0
-714 -722 0
-714 -723 0
-715 -716 0
-715 -717 0
-715 -718 0
-715 -719 0
-715 -720 0
-715 -721 0
-715 -722 0
-715 -723 0
-716 -717 0
-716 -718 0
-716 -719 0
-716 -720 0
-716 -721 0
-716 -722 0
-716 -723 0
-717 -718 0
-717 -719 0
-717 -720 0
-717 -721 0
-717 -722 0
-717 -723 0
-718 -719 0
-718 -720 0
-718 -721 0
-718 -722 0
-718 -723 0
-719 -720 0
-719 -721 0
-719 -722 0
-719 -723 0
-720 -721 0
-720 -722 0
-720 -723 0
-721 -722 0
-721 -723 0
-722 -723 0
-343 708 0
-344 708 709 0
-345 708 709 710 0
-346 709 710 711 0
-347 710 711 712 0
-348 711 712 713 0
-349 712 713 714 0
-350 713 714 715 0
-351 714 715 716 0
-352 715 716 717 0
-353 716 717 718 0
-354 717 718 719 0
-355 718 719 720 0
-356 719 720 721 0
-357 720 721 722 0
-358 721 722 723 0
-359 722 723 0
-360 723 0
-361 708 0
-362 708 709 0
-363 708 709 710 0
-364 709 710 711 0
-365 710 711 712 0
-366 711 712 713 0
-367 712 713 714 0
-368 713 714 715 0
-369 714 715 716 0
-370 715 716 717 0
-371 716 717 718 0
-372 717 718 719 0
-373 718 719 720 0
-374 719 720 721 0
-375 720 721 722 0
-376 721 722 723 0
-377 722 723 0
-378 723 0
-379 708 0
-380 708 709 0
-381 708 709 710 0
-382 709 710 711 0
-383 710 711 712 0
-384 711 712 713 0
-385 712 713 714 0
-386 713 714 715 0
-387 714 715 716 0
-388 715 716 717 0
-389 716 717 718 0
-390 717 718 719 0
-391 718 719 720 0
-392 719 720 721 0
-393 720 721 722 0
-394 721 722 723 0
-395 722 723 0
-396 723 0
-708 -346 0
-708 -347 0
-708 -348 0
-708 -349 0
-708 -350 0
-708 -351 0
-708 -352 0
-708 -353 0
-708 -354 0
-708 -355 0
-708 -356 0
-708 -357 0
-708 -358 0
-708 -359 0
-708 -360 0
-708 -364 0
-708 -365 0
-708 -366 0
-708 -367 0
-708 -368 0
-708 -369 0
-708 -370 0
-708 -371 0
-708 -372 0
-708 -373 0
-708 -374 0
-708 -375 0
-708 -376 0
-708 -377 0
-708 -378 0
-708 -382 0
-708 -383 0
-708 -384 0
-708 -385 0
-708 -386 0
-708 -387 0
-708 -388 0
-708 -389 0
-708 -390 0
-708 -391 0
-708 -392 0
-708 -393 0
-708 -394 0
-708 -395 0
-708 -396 0
-709 -343 0
-709 -347 0
-709 -348 0
-709 -349 0
-709 -350 0
-709 -351 0
-709 -352 0
-709 -353 0
-709 -354 0
-709 -355 0
-709 -356 0
-709 -357 0
-709 -358 0
-709 -359 0
-709 -360 0
-709 -361 0
-709 -365 0
-709 -366 0
-709 -367 0
-709 -368 0
-709 -369 0
-709 -370 0
-709 -371 0
-709 -372 0
-709 -373 0
-709 -374 0
-709 -375 0
-709 -376 0
-709 -377 0
-709 -378 0
-709 -379 0
-709 -383 0
-709 -384 0
-709 -385 0
-709 -386 0
-709 -387 0
-709 -388 0
-709 -389 0
-709 -390 0
-709 -391 0
-709 -392 0
-709 -393 0
-709 -394 0
-709 -395 0
-709 -396 0
-710 -343 0
-710 -344 0
-710 -348 0
-710 -349 0
-710 -350 0
-710 -351 0
-710 -352 0
-710 -353 0
-710 -354 0
-710 -355 0
-710 -356 0
-710 -357 0
-710 -358 0
-710 -359 0
-710 -360 0
-710 -361 0
-710 -362 0
-710 -366 0
-710 -367 0
-710 -368 0
-710 -369 0
-710 -370 0
-710 -371 0
-710 -372 0
-710 -373 0
-710 -374 0
-710 -375 0
-710 -376 0
-710 -377 0
-710 -378 0
-710 -379 0
-710 -380 0
-710 -384 0
-710 -385 0
-710 -386 0
-710 -387 0
-710 -388 0
-710 -389 0
-710 -390 0
-710 -391 0
-710 -392 0
-710 -393 0
-710 -394 0
-710 -395 0
-710 -396 0
-711 -343 0
-711 -344 0
-711 -345 0
-711 -349 0
-711 -350 0
-711 -351 0
-711 -352 0
-711 -353 0
-711 -354 0
-711 -355 0
-711 -356 0
-711 -357 0
-711 -358 0
-711 -359 0
-711 -360 0
-711 -361 0
-711 -362 0
-711 -363 0
-711 -367 0
-711 -368 0
-711 -369 0
-711 -370 0
-711 -371 0
-711 -372 0
-711 -373 0
-711 -374 0
-711 -375 0
-711 -376 0
-711 -377 0
-711 -378 0
-711 -379 0
-711 -380 0
-711 -381 0
-711 -385 0
-711 -386 0
-711 -387 0
-711 -388 0
-711 -389 0
-711 -390 0
-711 -391 0
-711 -392 0
-711 -393 0
-711 -394 0
-711 -395 0
-711 -396 0
-712 -343 0
-712 -344 0
-712 -345 0
-712 -346 0
-712 -350 0
-712 -351 0
-712 -352 0
-712 -353 0
-712 -354 0
-712 -355 0
-712 -356 0
-712 -357 0
-712 -358 0
-712 -359 0
-712 -360 0
-712 -361 0
-712 -362 0
-712 -363 0
-712 -364 0
-712 -368 0
-712 -369 0
-712 -370 0
-712 -371 0
-712 -372 0
-712 -373 0
-712 -374 0
-712 -375 0
-712 -376 0
-712 -377 0
-712 -378 0
-712 -379 0
-712 -380 0
-712 -381 0
-712 -382 0
-712 -386 0
-712 -387 0
-712 -388 0
-712 -389 0
-712 -390 0
-712 -391 0
-712 -392 0
-712 -393 0
-712 -394 0
-712 -395 0
-712 -396 0
-713 -343 0
-713 -344 0
-713 -345 0
-713 -346 0
-713 -347 0
-713 -351 0
-713 -352 0
-713 -353 0
-713 -354 0
-713 -355 0
-713 -356 0
-713 -357 0
-713 -358 0
-713 -359 0
-713 -360 0
-713 -361 0
-713 -362 0
-713 -363 0
-713 -364 0
-713 -365 0
-713 -369 0
-713 -370 0
-713 -371 0
-713 -372 0
-713 -373 0
-713 -374 0
-713 -375 0
-713 -376 0
-713 -377 0
-713 -378 0
-713 -379 0
-713 -380 0
-713 -381 0
-713 -382 0
-713 -383 0
-713 -387 0
-713 -388 0
-713 -389 0
-713 -390 0
-713 -391 0
-713 -392 0
-713 -393 0
-713 -394 0
-713 -395 0
-713 -396 0
-714 -343 0
-714 -344 0
-714 -345 0
-714 -346 0
-714 -347 0
-714 -348 0
-714 -352 0
-714 -353 0
-714 -354 0
-714 -355 0
-714 -356 0
-714 -357 0
-714 -358 0
-714 -359 0
-714 -360 0
-714 -361 0
-714 -362 0
-714 -363 0
-714 -364 0
-714 -365 0
-714 -366 0
-714 -370 0
-714 -371 0
-714 -372 0
-714 -373 0
-714 -374 0
-714 -375 0
-714 -376 0
-714 -377 0
-714 -378 0
-714 -379 0
-714 -380 0
-714 -381 0
-714 -382 0
-714 -383 0
-714 -384 0
-714 -388 0
-714 -389 0
-714 -390 0
-714 -391 0
-714 -392 0
-714 -393 0
-714 -394 0
-714 -395 0
-714 -396 0
-715 -343 0
-715 -344 0
-715 -345 0
-715 -346 0
-715 -347 0
-715 -348 0
-715 -349 0
-715 -353 0
-715 -354 0
-715 -355 0
-715 -356 0
-715 -357 0
-715 -358 0
-715 -359 0
-715 -360 0
-715 -361 0
-715 -362 0
-715 -363 0
-715 -364 0
-715 -365 0
-715 -366 0
-715 -367 0
-715 -371 0
-715 -372 0
-715 -373 0
-715 -374 0
-715 -375 0
-715 -376 0
-715 -377 0
-715 -378 0
-715 -379 0
-715 -380 0
-715 -381 0
-715 -382 0
-715 -383 0
-715 -384 0
-715 -385 0
-715 -389 0
-715 -390 0
-715 -391 0
-715 -392 0
-715 -393 0
-715 -394 0
-715 -395 0
-715 -396 0
-716 -343 0
-716 -344 0
-716 -345 0
-716 -346 0
-716 -347 0
-716 -348 0
-716 -349 0
-716 -350 0
-716 -354 0
-716 -355 0
-716 -356 0
-716 -357 0
-716 -358 0
-716 -359 0
-716 -360 0
-716 -361 0
-716 -362 0
-716 -363 0
-716 -364 0
-716 -365 0
-716 -366 0
-716 -367 0
-716 -368 0
-716 -372 0
-716 -373 0
-716 -374 0
-716 -375 0
-716 -376 0
-716 -377 0
-716 -378 0
-716 -379 0
-716 -380 0
-716 -381 0
-716 -382 0
-716 -383 0
-716 -384 0
-716 -385 0
-716 -386 0
-716 -390 0
-716 -391 0
-716 -392 0
-716 -393 0
-716 -394 0
-716 -395 0
-716 -396 0
-717 -343 0
-717 -344 0
-717 -345 0
-717 -346 0
-717 -347 0
-717 -348 0
-717 -349 0
-717 -350 0
-717 -351 0
-717 -355 0
-717 -356 0
-717 -357 0
-717 -358 0
-717 -359 0
-717 -360 0
-717 -361 0
-717 -362 0
-717 -363 0
-717 -364 0
-717 -365 0
-717 -366 0
-717 -367 0
-717 -368 0
-717 -369 0
-717 -373 0
-717 -374 0
-717 -375 0
-717 -376 0
-717 -377 0
-717 -378 0
-717 -379 0
-717 -380 0
-717 -381 0
-717 -382 0
-717 -383 0
-717 -384 0
-717 -385 0
-717 -386 0
-717 -387 0
-717 -391 0
-717 -392 0
-717 -393 0
-717 -394 0
-717 -395 0
-717 -396 0
-718 -343 0
-718 -344 0
-718 -345 0
-718 -346 0
-718 -347 0
-718 -348 0
-718 -349 0
-718 -350 0
-718 -351 0
-718 -352 0
-718 -356 0
-718 -357 0
-718 -358 0
-718 -359 0
-718 -360 0
-718 -361 0
-718 -362 0
-718 -363 0
-718 -364 0
-718 -365 0
-718 -366 0
-718 -367 0
-718 -368 0
-718 -369 0
-718 -370 0
-718 -374 0
-718 -375 0
-718 -376 0
-718 -377 0
-718 -378 0
-718 -379 0
-718 -380 0
-718 -381 0
-718 -382 0
-718 -383 0
-718 -384 0
-718 -385 0
-718 -386 0
-718 -387 0
-718 -388 0
-718 -392 0
-718 -393 0
-718 -394 0
-718 -395 0
-718 -396 0
-719 -343 0
-719 -344 0
-719 -345 0
-719 -346 0
-719 -347 0
-719 -348 0
-719 -349 0
-719 -350 0
-719 -351 0
-719 -352 0
-719 -353 0
-719 -357 0
-719 -358 0
-719 -359 0
-719 -360 0
-719 -361 0
-719 -362 0
-719 -363 0
-719 -364 0
-719 -365 0
-719 -366 0
-719 -367 0
-719 -368 0
-719 -369 0
-719 -370 0
-719 -371 0
-719 -375 0
-719 -376 0
-719 -377 0
-719 -378 0
-719 -379 0
-719 -380 0
-719 -381 0
-719 -382 0
-719 -383 0
-719 -384 0
-719 -385 0
-719 -386 0
-719 -387 0
-719 -388 0
-719 -389 0
-719 -393 0
-719 -394 0
-719 -395 0
-719 -396 0
-720 -343 0
-720 -344 0
-720 -345 0
-720 -346 0
-720 -347 0
-720 -348 0
-720 -349 0
-720 -350 0
-720 -351 0
-720 -352 0
-720 -353 0
-720 -354 0
-720 -358 0
-720 -359 0
-720 -360 0
-720 -361 0
-720 -362 0
-720 -363 0
-720 -364 0
-720 -365 0
-720 -366 0
-720 -367 0
-720 -368 0
-720 -369 0
-720 -370 0
-720 -371 0
-720 -372 0
-720 -376 0
-720 -377 0
-720 -378 0
-720 -379 0
-720 -380 0
-720 -381 0
-720 -382 0
-720 -383 0
-720 -384 0
-720 -385 0
-720 -386 0
-720 -387 0
-720 -388 0
-720 -389 0
-720 -390 0
-720 -394 0
-720 -395 0
-720 -396 0
-721 -343 0
-721 -344 0
-721 -345 0
-721 -346 0
-721 -347 0
-721 -348 0
-721 -349 0
-721 -350 0
-721 -351 0
-721 -352 0
-721 -353 0
-721 -354 0
-721 -355 0
-721 -359 0
-721 -360 0
-721 -361 0
-721 -362 0
-721 -363 0
-721 -364 0
-721 -365 0
-721 -366 0
-721 -367 0
-721 -368 0
-721 -369 0
-721 -370 0
-721 -371 0
-721 -372 0
-721 -373 0
-721 -377 0
-721 -378 0
-721 -379 0
-721 -380 0
-721 -381 0
-721 -382 0
-721 -383 0
-721 -384 0
-721 -385 0
-721 -386 0
-721 -387 0
-721 -388 0
-721 -389 0
-721 -390 0
-721 -391 0
-721 -395 0
-721 -396 0
-722 -343 0
-722 -344 0
-722 -345 0
-722 -346 0
-722 -347 0
-722 -348 0
-722 -349 0
-722 -350 0
-722 -351 0
-722 -352 0
-722 -353 0
-722 -354 0
-722 -355 0
-722 -356 0
-722 -360 0
-722 -361 0
-722 -362 0
-722 -363 0
-722 -364 0
-722 -365 0
-722 -366 0
-722 -367 0
-722 -368 0
-722 -369 0
-722 -370 0
-722 -371 0
-722 -372 0
-722 -373 0
-722 -374 0
-722 -378 0
-722 -379 0
-722 -380 0
-722 -381 0
-722 -382 0
-722 -383 0
-722 -384 0
-722 -385 0
-722 -386 0
-722 -387 0
-722 -388 0
-722 -389 0
-722 -390 0
-722 -391 0
-722 -392 0
-722 -396 0
-723 -343 0
-723 -344 0
-723 -345 0
-723 -346 0
-723 -347 0
-723 -348 0
-723 -349 0
-723 -350 0
-723 -351 0
-723 -352 0
-723 -353 0
-723 -354 0
-723 -355 0
-723 -356 0
-723 -357 0
-723 -361 0
-723 -362 0
-723 -363 0
-723 -364 0
-723 -365 0
-723 -366 0
-723 -367 0
-723 -368 0
-723 -369 0
-723 -370 0
-723 -371 0
-723 -372 0
-723 -373 0
-723 -374 0
-723 -375 0
-723 -379 0
-723 -380 0
-723 -381 0
-723 -382 0
-723 -383 0
-723 -384 0
-723 -385 0
-723 -386 0
-723 -387 0
-723 -388 0
-723 -389 0
-723 -390 0
-723 -391 0
-723 -392 0
-723 -393 0
-397 -415 0
-397 -433 0
-415 -433 0
-398 -416 0
-398 -434 0
-416 -434 0
-399 -417 0
-399 -435 0
-417 -435 0
-400 -418 0
-400 -436 0
-418 -436 0
-401 -419 0
-401 -437 0
-419 -437 0
-402 -420 0
-402 -438 0
-420 -438 0
-403 -421 0
-403 -439 0
-421 -439 0
-404 -422 0
-404 -440 0
-422 -440 0
-405 -423 0
-405 -441 0
-423 -441 0
-406 -424 0
-406 -442 0
-424 -442 0
-407 -425 0
-407 -443 0
-425 -443 0
-408 -426 0
-408 -444 0
-426 -444 0
-409 -427 0
-409 -445 0
-427 -445 0
-410 -428 0
-410 -446 0
-428 -446 0
-411 -429 0
-411 -447 0
-429 -447 0
-412 -430 0
-412 -448 0
-430 -448 0
-413 -431 0
-413 -449 0
-431 -449 0
-414 -432 0
-414 -450 0
-432 -450 0
724 725 726 727 728 729 730 731 732 733 734 735 736 737 738 739 0
-724 -725 0
-724 -726 0
-724 -727 0
-724 -728 0
-724 -729 0
-724 -730 0
-724 -731 0
-724 -732 0
-724 -733 0
-724 -734 0
-724 -735 0
-724 -736 0
-724 -737 0
-724 -738 0
-724 -739 0
-725 -726 0
-725 -727 0
-725 -728 0
-725 -729 0
-725 -730 0
-725 -731 0
-725 -732 0
-725 -733 0
-725 -734 0
-725 -735 0
-725 -736 0
-725 -737 0
-725 -738 0
-725 -739 0
-726 -727 0
-726 -728 0
-726 -729 0
-726 -730 0
-726 -731 0
-726 -732 0
-726 -733 0
-726 -734 0
-726 -735 0
-726 -736 0
-726 -737 0
-726 -738 0
-726 -739 0
-727 -728 0
-727 -729 0
-727 -730 0
-727 -731 0
-727 -732 0
-727 -733 0
-727 -734 0
-727 -735 0
-727 -736 0
-727 -737 0
-727 -738 0
-727 -739 0
-728 -729 0
-728 -730 0
-728 -731 0
-728 -732 0
-728 -733 0
-728 -734 0
-728 -735 0
-728 -736 0
-728 -737 0
-728 -738 0
-728 -739 0
-729 -730 0
-729 -731 0
-729 -732 0
-729 -733 0
-729 -734 0
-729 -735 0
-729 -736 0
-729 -737 0
-729 -738 0
-729 -739 0
-730 -731 0
-730 -732 0
-730 -733 0
-730 -734 0
-730 -735 0
-730 -736 0
-730 -737 0
-730 -738 0
-730 -739 0
-731 -732 0
-731 -733 0
-731 -734 0
-731 -735 0
-731 -736 0
-731 -737 0
-731 -738 0
-731 -739 0
-732 -733 0
-732 -734 0
-732 -735 0
-732 -736 0
-732 -737 0
-732 -738 0
-732 -739 0
-733 -734 0
-733 -735 0
-733 -736 0
-733 -737 0
-733 -738 0
-733 -739 0
-734 -735 0
-734 -736 0
-734 -737 0
-734 -738 0
-734 -739 0
-735 -736 0
-735 -737 0
-735 -738 0
-735 -739 0
-736 -737 0
-736 -738 0
-736 -739 0
-737 -738 0
-737 -739 0
-738 -739 0
-397 724 0
-398 724 725 0
-399 724 725 726 0
-400 725 726 727 0
-401 726 727 728 0
-402 727 728 729 0
-403 728 729 730 0
-404 729 730 731 0
-405 730 731 732 0
-406 731 732 733 0
-407 732 733 734 0
-408 733 734 735 0
-409 734 735 736 0
-410 735 736 737 0
-411 736 737 738 0
-412 737 738 739 0
-413 738 739 0
-414 739 0
-415 724 0
-416 724 725 0
-417 724 725 726 0
-418 725 726 727 0
-419 726 727 728 0
-420 727 728 729 0
-421 728 729 730 0
-422 729 730 731 0
-423 730 731 732 0
-424 731 732 733 0
-425 732 733 734 0
-426 733 734 735 0
-427 734 735 736 0
-428 735 736 737 0
-429 736 737 738 0
-430 737 738 739 0
-431 738 739 0
-432 739 0
-433 724 0
-434 724 725 0
-435 724 725 726 0
-436 725 726 727 0
-437 726 727 728 0
-438 727 728 729 0
-439 728 729 730 0
-440 729 730 731 0
-441 730 731 732 0
-442 731 732 733 0
-443 732 733 734 0
-444 733 734 735 0
-445 734 735 736 0
-446 735 736 737 0
-447 736 737 738 0
-448 737 738 739 0
-449 738 739 0
-450 739 0
-724 -400 0
-724 -401 0
-724 -402 0
-724 -403 0
-724 -404 0
-724 -405 0
-724 -406 0
-724 -407 0
-724 -408 0
-724 -409 0
-724 -410 0
-724 -411 0
-724 -412 0
-724 -413 0
-724 -414 0
-724 -418 0
-724 -419 0
-724 -420 0
-724 -421 0
-724 -422 0
-724 -423 0
-724 -424 0
-724 -425 0
-724 -426 0
-724 -427 0
-724 -428 0
-724 -429 0
-724 -430 0
-724 -431 0
-724 -432 0
-724 -436 0
-724 -437 0
-724 -438 0
-724 -439 0
-724 -440 0
-724 -441 0
-724 -442 0
-724 -443 0
-724 -444 0
-724 -445 0
-724 -446 0
-724 -447 0
-724 -448 0
-724 -449 0
-724 -450 0
-725 -397 0
-725 -401 0
-725 -402 0
-725 -403 0
-725 -404 0
-725 -405 0
-725 -406 0
-725 -407 0
-725 -408 0
-725 -409 0
-725 -410 0
-725 -411 0
-725 -412 0
-725 -413 0
-725 -414 0
-725 -415 0
-725 -419 0
-725 -420 0
-725 -421 0
-725 -422 0
-725 -423 0
-725 -424 0
-725 -425 0
-725 -426 0
-725 -427 0
-725 -428 0
-725 -429 0
-725 -430 0
-725 -431 0
-725 -432 0
-725 -433 0
-725 -437 0
-725 -438 0
-725 -439 0
-725 -440 0
-725 -441 0
-725 -442 0
-725 -443 0
-725 -444 0
-725 -445 0
-725 -446 0
-725 -447 0
-725 -448 0
-725 -449 0
-725 -450 0
-726 -397 0
-726 -398 0
-726 -402 0
-726 -403 0
-726 -404 0
-726 -405 0
-726 -406 0
-726 -407 0
-726 -408 0
-726 -409 0
-726 -410 0
-726 -411 0
-726 -412 0
-726 -413 0
-726 -414 0
-726 -415 0
-726 -416 0
-726 -420 0
-726 -421 0
-726 -422 0
-726 -423 0
-726 -424 0
-726 -425 0
-726 -426 0
-726 -427 0
-726 -428 0
-726 -429 0
-726 -430 0
-726 -431 0
-726 -432 0
-726 -433 0
-726 -434 0
-726 -438 0
-726 -439 0
-726 -440 0
-726 -441 0
-726 -442 0
-726 -443 0
-726 -444 0
-726 -445 0
-726 -446 0
-726 -447 0
-726 -448 0
-726 -449 0
-726 -450 0
-727 -397 0
-727 -398 0
-727 -399 0
-727 -403 0
-727 -404 0
-727 -405 0
-727 -406 0
-727 -407 0
-727 -408 0
-727 -409 0
-727 -410 0
-727 -411 0
-727 -412 0
-727 -413 0
-727 -414 0
-727 -415 0
-727 -416 0
-727 -417 0
-727 -421 0
-727 -422 0
-727 -423 0
-727 -424 0
-727 -425 0
-727 -426 0
-727 -427 0
-727 -428 0
-727 -429 0
-727 -430 0
-727 -431 0
-727 -432 0
-727 -433 0
-727 -434 0
-727 -435 0
-727 -439 0
-727 -440 0
-727 -441 0
-727 -442 0
-727 -443 0
-727 -444 0
-727 -445 0
-727 -446 0
-727 -447 0
-727 -448 0
-727 -449 0
-727 -450 0
-728 -397 0
-728 -398 0
-728 -399 0
-728 -400 0
-728 -404 0
-728 -405 0
-728 -406 0
-728 -407 0
-728 -408 0
-728 -409 0
-728 -410 0
-728 -411 0
-728 -412 0
-728 -413 0
-728 -414 0
-728 -415 0
-728 -416 0
-728 -417 0
-728 -418 0
-728 -422 0
-728 -423 0
-728 -424 0
-728 -425 0
-728 -426 0
-728 -427 0
-728 -428 0
-728 -429 0
-728 -430 0
-728 -431 0
-728 -432 0
-728 -433 0
-728 -434 0
-728 -435 0
-728 -436 0
-728 -440 0
-728 -441 0
-728 -442 0
-728 -443 0
-728 -444 0
-728 -445 0
-728 -446 0
-728 -447 0
-728 -448 0
-728 -449 0
-728 -450 0
-729 -397 0
-729 -398 0
-729 -399 0
-729 -400 0
-729 -401 0
-729 -405 0
-729 -406 0
-729 -407 0
-729 -408 0
-729 -409 0
-729 -410 0
-729 -411 0
-729 -412 0
-729 -413 0
-729 -414 0
-729 -415 0
-729 -416 0
-729 -417 0
-729 -418 0
-729 -419 0
-729 -423 0
-729 -424 0
-729 -425 0
-729 -426 0
-729 -427 0
-729 -428 0
-729 -429 0
-729 -430 0
-729 -431 0
-729 -432 0
-729 -433 0
-729 -434 0
-729 -435 0
-729 -436 0
-729 -437 0
-729 -441 0
-729 -442 0
-729 -443 0
-729 -444 0
-729 -445 0
-729 -446 0
-729 -447 0
-729 -448 0
-729 -449 0
-729 -450 0
-730 -397 0
-730 -398 0
-730 -399 0
-730 -400 0
-730 -401 0
-730 -402 0
-730 -406 0
-730 -407 0
-730 -408 0
-730 -409 0
-730 -410 0
-730 -411 0
-730 -412 0
-730 -413 0
-730 -414 0
-730 -415 0
-730 -416 0
-730 -417 0
-730 -418 0
-730 -419 0
-730 -420 0
-730 -424 0
-730 -425 0
-730 -426 0
-730 -427 0
-730 -428 0
-730 -429 0
-730 -430 0
-730 -431 0
-730 -432 0
-730 -433 0
-730 -434 0
-730 -435 0
-730 -436 0
-730 -437 0
-730 -438 0
-730 -442 0
-730 -443 0
-730 -444 0
-730 -445 0
-730 -446 0
-730 -447 0
-730 -448 0
-730 -449 0
-730 -450 0
-731 -397 0
-731 -398 0
-731 -399 0
-731 -400 0
-731 -401 0
-731 -402 0
-731 -403 0
-731 -407 0
-731 -408 0
-731 -409 0
-731 -410 0
-731 -411 0
-731 -412 0
-731 -413 0
-731 -414 0
-731 -415 0
-731 -416 0
-731 -417 0
-731 -418 0
-731 -419 0
-731 -420 0
-731 -421 0
-731 -425 0
-731 -426 0
-731 -427 0
-731 -428 0
-731 -429 0
-731 -430 0
-731 -431 0
-731 -432 0
-731 -433 0
-731 -434 0
-731 -435 0
-731 -436 0
-731 -437 0
-731 -438 0
-731 -439 0
-731 -443 0
-731 -444 0
-731 -445 0
-731 -446 0
-731 -447 0
-731 -448 0
-731 -449 0
-731 -450 0
-732 -397 0
-732 -398 0
-732 -399 0
-732 -400 0
-732 -401 0
-732 -402 0
-732 -403 0
-732 -404 0
-732 -408 0
-732 -409 0
-732 -410 0
-732 -411 0
-732 -412 0
-732 -413 0
-732 -414 0
-732 -415 0
-732 -416 0
-732 -417 0
-732 -418 0
-732 -419 0
-732 -420 0
-732 -421 0
-732 -422 0
-732 -426 0
-732 -427 0
-732 -428 0
-732 -429 0
-732 -430 0
-732 -431 0
-732 -432 0
-732 -433 0
-732 -434 0
-732 -435 0
-732 -436 0
-732 -437 0
-732 -438 0
-732 -439 0
-732 -440 0
-732 -444 0
-732 -445 0
-732 -446 0
-732 -447 0
-732 -448 0
-732 -449 0
-732 -450 0
-733 -397 0
-733 -398 0
-733 -399 0
-733 -400 0
-733 -401 0
-733 -402 0
-733 -403 0
-733 -404 0
-733 -405 0
-733 -409 0
-733 -410 0
-733 -411 0
-733 -412 0
-733 -413 0
-733 -414 0
-733 -415 0
-733 -416 0
-733 -417 0
-733 -418 0
-733 -419 0
-733 -420 0
-733 -421 0
-733 -422 0
-733 -423 0
-733 -427 0
-733 -428 0
-733 -429 0
-733 -430 0
-733 -431 0
-733 -432 0
-733 -433 0
-733 -434 0
-733 -435 0
-733 -436 0
-733 -437 0
-733 -438 0
-733 -439 0
-733 -440 0
-733 -441 0
-733 -445 0
-733 -446 0
-733 -447 0
-733 -448 0
-733 -449 0
-733 -450 0
-734 -397 0
-734 -398 0
-734 -399 0
-734 -400 0
-734 -401 0
-734 -402 0
-734 -403 0
-734 -404 0
-734 -405 0
-734 -406 0
-734 -410 0
-734 -411 0
-734 -412 0
-734 -413 0
-734 -414 0
-734 -415 0
-734 -416 0
-734 -417 0
-734 -418 0
-734 -419 0
-734 -420 0
-734 -421 0
-734 -422 0
-734 -423 0
-734 -424 0
-734 -428 0
-734 -429 0
-734 -430 0
-734 -431 0
-734 -432 0
-734 -433 0
-734 -434 0
-734 -435 0
-734 -436 0
-734 -437 0
-734 -438 0
-734 -439 0
-734 -440 0
-734 -441 0
-734 -442 0
-734 -446 0
-734 -447 0
-734 -448 0
-734 -449 0
-734 -450 0
-735 -397 0
-735 -398 0
-735 -399 0
-735 -400 0
-735 -401 0
-735 -402 0
-735 -403 0
-735 -404 0
-735 -405 0
-735 -406 0
-735 -407 0
-735 -411 0
-735 -412 0
-735 -413 0
-735 -414 0
-735 -415 0
-735 -416 0
-735 -417 0
-735 -418 0
-735 -419 0
-735 -420 0
-735 -421 0
-735 -422 0
-735 -423 0
-735 -424 0
-735 -425 0
-735 -429 0
-735 -430 0
-735 -431 0
-735 -432 0
-735 -433 0
-735 -434 0
-735 -435 0
-735 -436 0
-735 -437 0
-735 -438 0
-735 -439 0
-735 -440 0
-735 -441 0
-735 -442 0
-735 -443 0
-735 -447 0
-735 -448 0
-735 -449 0
-735 -450 0
-736 -397 0
-736 -398 0
-736 -399 0
-736 -400 0
-736 -401 0
-736 -402 0
-736 -403 0
-736 -404 0
-736 -405 0
-736 -406 0
-736 -407 0
-736 -408 0
-736 -412 0
-736 -413 0
-736 -414 0
-736 -415 0
-736 -416 0
-736 -417 0
-736 -418 0
-736 -419 0
-736 -420 0
-736 -421 0
-736 -422 0
-736 -423 0
-736 -424 0
-736 -425 0
-736 -426 0
-736 -430 0
-736 -431 0
-736 -432 0
-736 -433 0
-736 -434 0
-736 -435 0
-736 -436 0
-736 -437 0
-736 -438 0
-736 -439 0
-736 -440 0
-736 -441 0
-736 -442 0
-736 -443 0
-736 -444 0
-736 -448 0
-736 -449 0
-736 -450 0
-737 -397 0
-737 -398 0
-737 -399 0
-737 -400 0
-737 -401 0
-737 -402 0
-737 -403 0
-737 -404 0
-737 -405 0
-737 -406 0
-737 -407 0
-737 -408 0
-737 -409 0
-737 -413 0
-737 -414 0
-737 -415 0
-737 -416 0
-737 -417 0
-737 -418 0
-737 -419 0
-737 -420 0
-737 -421 0
-737 -422 0
-737 -423 0
-737 -424 0
-737 -425 0
-737 -426 0
-737 -427 0
-737 -431 0
-737 -432 0
-737 -433 0
-737 -434 0
-737 -435 0
-737 -436 0
-737 -437 0
-737 -438 0
-737 -439 0
-737 -440 0
-737 -441 0
-737 -442 0
-737 -443 0
-737 -444 0
-737 -445 0
-737 -449 0
-737 -450 0
-738 -397 0
-738 -398 0
-738 -399 0
-738 -400 0
-738 -401 0
-738 -402 0
-738 -403 0
-738 -404 0
-738 -405 0
-738 -406 0
-738 -407 0
-738 -408 0
-738 -409 0
-738 -410 0
-738 -414 0
-738 -415 0
-738 -416 0
-738 -417 0
-738 -418 0
-738 -419 0
-738 -420 0
-738 -421 0
-738 -422 0
-738 -423 0
-738 -424 0
-738 -425 0
-738 -426 0
-738 -427 0
-738 -428 0
-738 -432 0
-738 -433 0
-738 -434 0
-738 -435 0
-738 -436 0
-738 -437 0
-738 -438 0
-738 -439 0
-738 -440 0
-738 -441 0
-738 -442 0
-738 -443 0
-738 -444 0
-738 -445 0
-738 -446 0
-738 -450 0
-739 -397 0
-739 -398 0
-739 -399 0
-739 -400 0
-739 -401 0
-739 -402 0
-739 -403 0
-739 -404 0
-739 -405 0
-739 -406 0
-739 -407 0
-739 -408 0
-739 -409 0
-739 -410 0
-739 -411 0
-739 -415 0
-739 -416 0
-739 -417 0
-739 -418 0
-739 -419 0
-739 -420 0
-739 -421 0
-739 -422 0
-739 -423 0
-739 -424 0
-739 -425 0
-739 -426 0
-739 -427 0
-739 -428 0
-739 -429 0
-739 -433 0
-739 -434 0
-739 -435 0
-739 -436 0
-739 -437 0
-739 -438 0
-739 -439 0
-739 -440 0
-739 -441 0
-739 -442 0
-739 -443 0
-739 -444 0
-739 -445 0
-739 -446 0
-739 -447 0
-451 -469 0
-451 -487 0
-469 -487 0
-452 -470 0
-452 -488 0
-470 -488 0
-453 -471 0
-453 -489 0
-471 -489 0
-454 -472 0
-454 -490 0
-472 -490 0
-455 -473 0
-455 -491 0
-473 -491 0
-456 -474 0
-456 -492 0
-474 -492 0
-457 -475 0
-457 -493 0
-475 -493 0
-458 -476 0
-458 -494 0
-476 -494 0
-459 -477 0
-459 -495 0
-477 -495 0
-460 -478 0
-460 -496 0
-478 -496 0
-461 -479 0
-461 -497 0
-479 -497 0
-462 -480 0
-462 -498 0
-480 -498 0
-463 -481 0
-463 -499 0
-481 -499 0
-464 -482 0
-464 -500 0
-482 -500 0
-465 -483 0
-465 -501 0
-483 -501 0
-466 -484 0
-466 -502 0
-484 -502 0
-467 -485 0
-467 -503 0
-485 -503 0
-468 -486 0
-468 -504 0
-486 -504 0
740 741 742 743 744 745 746 747 748 749 750 751 752 753 754 755 0
-740 -741 0
-740 -742 0
-740 -743 0
-740 -744 0
-740 -745 0
-740 -746 0
-740 -747 0
-740 -748 0
-740 -749 0
-740 -750 0
-740 -751 0
-740 -752 0
-740 -753 0
-740 -754 0
-740 -755 0
-741 -742 0
-741 -743 0
-741 -744 0
-741 -745 0
-741 -746 0
-741 -747 0
-741 -748 0
-741 -749 0
-741 -750 0
-741 -751 0
-741 -752 0
-741 -753 0
-741 -754 0
-741 -755 0
-742 -743 0
-742 -744 0
-742 -745 0
-742 -746 0
-742 -747 0
-742 -748 0
-742 -749 0
-742 -750 0
-742 -751 0
-742 -752 0
-742 -753 0
-742 -754 0
-742 -755 0
-743 -744 0
-743 -745 0
-743 -746 0
-743 -747 0
-743 -748 0
-743 -749 0
-743 -750 0
-743 -751 0
-743 -752 0
-743 -753 0
-743 -754 0
-743 -755 0
-744 -745 0
-744 -746 0
-744 -747 0
-744 -748 0
-744 -749 0
-744 -750 0
-744 -751 0
-744 -752 0
-744 -753 0
-744 -754 0
-744 -755 0
-745 -746 0
-745 -747 0
-745 -748 0
-745 -749 0
-745 -750 0
-745 -751 0
-745 -752 0
-745 -753 0
-745 -754 0
-745 -755 0
-746 -747 0
-746 -748 0
-746 -749 0
-746 -750 0
-746 -751 0
-746 -752 0
-746 -753 0
-746 -754 0
-746 -755 0
-747 -748 0
-747 -749 0
-747 -750 0
-747 -751 0
-747 -752 0
-747 -753 0
-747 -754 0
-747 -755 0
-748 -749 0
-748 -750 0
-748 -751 0
-748 -752 0
-748 -753 0
-748 -754 0
-748 -755 0
-749 -750 0
-749 -751 0
-749 -752 0
-749 -753 0
-749 -754 0
-749 -755 0
-750 -751 0
-750 -752 0
-750 -753 0
-750 -754 0
-750 -755 0
-751 -752 0
-751 -753 0
-751 -754 0
-751 -755 0
-752 -753 0
-752 -754 0
-752 -755 0
-753 -754 0
-753 -755 0
-754 -755 0
-451 740 0
-452 740 741 0
-453 740 741 742 0
-454 741 742 743 0
-455 742 743 744 0
-456 743 744 745 0
-457 744 745 746 0
-458 745 746 747 0
-459 746 747 748 0
-460 747 748 749 0
-461 748 749 750 0
-462 749 750 751 0
-463 750 751 752 0
-464 751 752 753 0
-465 752 753 754 0
-466 753 754 755 0
-467 754 755 0
-468 755 0
-469 740 0
-470 740 741 0
-471 740 741 742 0
-472 741 742 743 0
-473 742 743 744 0
-474 743 744 745 0
-475 744 745 746 0
-476 745 746 747 0
-477 746 747 748 0
-478 747 748 749 0
-479 748 749 750 0
-480 749 750 751 0
-481 750 751 752 0
-482 751 752 753 0
-483 752 753 754 0
-484 753 754 755 0
-485 754 755 0
-486 755 0
-487 740 0
-488 740 741 0
-489 740 741 742 0
-490 741 742 743 0
-491 742 743 744 0
-492 743 744 745 0
-493 744 745 746 0
-494 745 746 747 0
-495 746 747 748 0
-496 747 748 749 0
-497 748 749 750 0
-498 749 750 751 0
-499 750 751 752 0
-500 751 752 753 0
-501 752 753 754 0
-502 753 754 755 0
-503 754 755 0
-504 755 0
-740 -454 0
-740 -455 0
-740 -456 0
-740 -457 0
-740 -458 0
-740 -459 0
-740 -460 0
-740 -461 0
-740 -462 0
-740 -463 0
-740 -464 0
-740 -465 0
-740 -466 0
-740 -467 0
-740 -468 0
-740 -472 0
-740 -473 0
-740 -474 0
-740 -475 0
-740 -476 0
-740 -477 0
-740 -478 0
-740 -479 0
-740 -480 0
-740 -481 0
-740 -482 0
-740 -483 0
-740 -484 0
-740 -485 0
-740 -486 0
-740 -490 0
-740 -491 0
-740 -492 0
-740 -493 0
-740 -494 0
-740 -495 0
-740 -496 0
-740 -497 0
-740 -498 0
-740 -499 0
-740 -500 0
-740 -501 0
-740 -502 0
-740 -503 0
-740 -504 0
-741 -451 0
-741 -455 0
-741 -456 0
-741 -457 0
-741 -458 0
-741 -459 0
-741 -460 0
-741 -461 0
-741 -462 0
-741 -463 0
-741 -464 0
-741 -465 0
-741 -466 0
-741 -467 0
-741 -468 0
-741 -469 0
-741 -473 0
-741 -474 0
-741 -475 0
-741 -476 0
-741 -477 0
-741 -478 0
-741 -479 0
-741 -480 0
-741 -481 0
-741 -482 0
-741 -483 0
-741 -484 0
-741 -485 0
-741 -486 0
-741 -487 0
-741 -491 0
-741 -492 0
-741 -493 0
-741 -494 0
-741 -495 0
-741 -496 0
-741 -497 0
-741 -498 0
-741 -499 0
-741 -500 0
-741 -501 0
-741 -502 0
-741 -503 0
-741 -504 0
-742 -451 0
-742 -452 0
-742 -456 0
-742 -457 0
-742 -458 0
-742 -459 0
-742 -460 0
-742 -461 0
-742 -462 0
-742 -463 0
-742 -464 0
-742 -465 0
-742 -466 0
-742 -467 0
-742 -468 0
-742 -469 0
-742 -470 0
-742 -474 0
-742 -475 0
-742 -476 0
-742 -477 0
-742 -478 0
-742 -479 0
-742 -480 0
-742 -481 0
-742 -482 0
-742 -483 0
-742 -484 0
-742 -485 0
-742 -486 0
-742 -487 0
-742 -488 0
-742 -492 0
-742 -493 0
-742 -494 0
-742 -495 0
-742 -496 0
-742 -497 0
-742 -498 0
-742 -499 0
-742 -500 0
-742 -501 0
-742 -502 0
-742 -503 0
-742 -504 0
-743 -451 0
-743 -452 0
-743 -453 0
-743 -457 0
-743 -458 0
-743 -459 0
-743 -460 0
-743 -461 0
-743 -462 0
-743 -463 0
-743 -464 0
-743 -465 0
-743 -466 0
-743 -467 0
-743 -468 0
-743 -469 0
-743 -470 0
-743 -471 0
-743 -475 0
-743 -476 0
-743 -477 0
-743 -478 0
-743 -479 0
-743 -480 0
-743 -481 0
-743 -482 0
-743 -483 0
-743 -484 0
-743 -485 0
-743 -486 0
-743 -487 0
-743 -488 0
-743 -489 0
-743 -493 0
-743 -494 0
-743 -495 0
-743 -496 0
-743 -497 0
-743 -498 0
-743 -499 0
-743 -500 0
-743 -501 0
-743 -502 0
-743 -503 0
-743 -504 0
-744 -451 0
-744 -452 0
-744 -453 0
-744 -454 0
-744 -458 0
-744 -459 0
-744 -460 0
-744 -461 0
-744 -462 0
-744 -463 0
-744 -464 0
-744 -465 0
-744 -466 0
-744 -467 0
-744 -468 0
-744 -469 0
-744 -470 0
-744 -471 0
-744 -472 0
-744 -476 0
-744 -477 0
-744 -478 0
-744 -479 0
-744 -480 0
-744 -481 0
-744 -482 0
-744 -483 0
-744 -484 0
-744 -485 0
-744 -486 0
-744 -487 0
-744 -488 0
-744 -489 0
-744 -490 0
-744 -494 0
-744 -495 0
-744 -496 0
-744 -497 0
-744 -498 0
-744 -499 0
-744 -500 0
-744 -501 0
-744 -502 0
-744 -503 0
-744 -504 0
-745 -451 0
-745 -452 0
-745 -453 0
-745 -454 0
-745 -455 0
-745 -459 0
-745 -460 0
-745 -461 0
-745 -462 0
-745 -463 0
-745 -464 0
-745 -465 0
-745 -466 0
-745 -467 0
-745 -468 0
-745 -469 0
-745 -470 0
-745 -471 0
-745 -472 0
-745 -473 0
-745 -477 0
-745 -478 0
-745 -479 0
-745 -480 0
-745 -481 0
-745 -482 0
-745 -483 0
-745 -484 0
-745 -485 0
-745 -486 0
-745 -487 0
-745 -488 0
-745 -489 0
-745 -490 0
-745 -491 0
-745 -495 0
-745 -496 0
-745 -497 0
-745 -498 0
-745 -499 0
-745 -500 0
-745 -501 0
-745 -502 0
-745 -503 0
-745 -504 0
-746 -451 0
-746 -452 0
-746 -453 0
-746 -454 0
-746 -455 0
-746 -456 0
-746 -460 0
-746 -461 0
-746 -462 0
-746 -463 0
-746 -464 0
-746 -465 0
-746 -466 0
-746 -467 0
-746 -468 0
-746 -469 0
-746 -470 0
-746 -471 0
-746 -472 0
-746 -473 0
-746 -474 0
-746 -478 0
-746 -479 0
-746 -480 0
-746 -481 0
-746 -482 0
-746 -483 0
-746 -484 0
-746 -485 0
-746 -486 0
-746 -487 0
-746 -488 0
-746 -489 0
-746 -490 0
-746 -491 0
-746 -492 0
-746 -496 0
-746 -497 0
-746 -498 0
-746 -499 0
-746 -500 0
-746 -501 0
-746 -502 0
-746 -503 0
-746 -504 0
-747 -451 0
-747 -452 0
-747 -453 0
-747 -454 0
-747 -455 0
-747 -456 0
-747 -457 0
-747 -461 0
-747 -462 0
-747 -463 0
-747 -464 0
-747 -465 0
-747 -466 0
-747 -467 0
-747 -468 0
-747 -469 0
-747 -470 0
-747 -471 0
-747 -472 0
-747 -473 0
-747 -474 0
-747 -475 0
-747 -479 0
-747 -480 0
-747 -481 0
-747 -482 0
-747 -483 0
-747 -484 0
-747 -485 0
-747 -486 0
-747 -487 0
-747 -488 0
-747 -489 0
-747 -490 0
-747 -491 0
-747 -492 0
-747 -493 0
-747 -497 0
-747 -498 0
-747 -499 0
-747 -500 0
-747 -501 0
-747 -502 0
-747 -503 0
-747 -504 0
-748 -451 0
-748 -452 0
-748 -453 0
-748 -454 0
-748 -455 0
-748 -456 0
-748 -457 0
-748 -458 0
-748 -462 0
-748 -463 0
-748 -464 0
-748 -465 0
-748 -466 0
-748 -467 0
-748 -468 0
-748 -469 0
-748 -470 0
-748 -471 0
-748 -472 0
-748 -473 0
-748 -474 0
-748 -475 0
-748 -476 0
-748 -480 0
-748 -481 0
-748 -482 0
-748 -483 0
-748 -484 0
-748 -485 0
-748 -486 0
-748 -487 0
-748 -488 0
-748 -489 0
-748 -490 0
-748 -491 0
-748 -492 0
-748 -493 0
-748 -494 0
-748 -498 0
-748 -499 0
-748 -500 0
-748 -501 0
-748 -502 0
-748 -503 0
-748 -504 0
-749 -451 0
-749 -452 0
-749 -453 0
-749 -454 0
-749 -455 0
-749 -456 0
-749 -457 0
-749 -458 0
-749 -459 0
-749 -463 0
-749 -464 0
-749 -465 0
-749 -466 0
-749 -467 0
-749 -468 0
-749 -469 0
-749 -470 0
-749 -471 0
-749 -472 0
-749 -473 0
-749 -474 0
-749 -475 0
-749 -476 0
-749 -477 0
-749 -481 0
-749 -482 0
-749 -483 0
-749 -484 0
-749 -485 0
-749 -486 0
-749 -487 0
-749 -488 0
-749 -489 0
-749 -490 0
-749 -491 0
-749 -492 0
-749 -493 0
-749 -494 0
-749 -495 0
-749 -499 0
-749 -500 0
-749 -501 0
-749 -502 0
-749 -503 0
-749 -504 0
-750 -451 0
-750 -452 0
-750 -453 0
-750 -454 0
-750 -455 0
-750 -456 0
-750 -457 0
-750 -458 0
-750 -459 0
-750 -460 0
-750 -464 0
-750 -465 0
-750 -466 0
-750 -467 0
-750 -468 0
-750 -469 0
-750 -470 0
-750 -471 0
-750 -472 0
-750 -473 0
-750 -474 0
-750 -475 0
-750 -476 0
-750 -477 0
-750 -478 0
-750 -482 0
-750 -483 0
-750 -484 0
-750 -485 0
-750 -486 0
-750 -487 0
-750 -488 0
-750 -489 0
-750 -490 0
-750 -491 0
-750 -492 0
-750 -493 0
-750 -494 0
-750 -495 0
-750 -496 0
-750 -500 0
-750 -501 0
-750 -502 0
-750 -503 0
-750 -504 0
-751 -451 0
-751 -452 0
-751 -453 0
-751 -454 0
-751 -455 0
-751 -456 0
-751 -457 0
-751 -458 0
-751 -459 0
-751 -460 0
-751 -461 0
-751 -465 0
-751 -466 0
-751 -467 0
-751 -468 0
-751 -469 0
-751 -470 0
-751 -471 0
-751 -472 0
-751 -473 0
-751 -474 0
-751 -475 0
-751 -476 0
-751 -477 0
-751 -478 0
-751 -479 0
-751 -483 0
-751 -484 0
-751 -485 0
-751 -486 0
-751 -487 0
-751 -488 0
-751 -489 0
-751 -490 0
-751 -491 0
-751 -492 0
-751 -493 0
-751 -494 0
-751 -495 0
-751 -496 0
-751 -497 0
-751 -501 0
-751 -502 0
-751 -503 0
-751 -504 0
-752 -451 0
-752 -452 0
-752 -453 0
-752 -454 0
-752 -455 0
-752 -456 0
-752 -457 0
-752 -458 0
-752 -459 0
-752 -460 0
-752 -461 0
-752 -462 0
-752 -466 0
-752 -467 0
-752 -468 0
-752 -469 0
-752 -470 0
-752 -471 0
-752 -472 0
-752 -473 0
-752 -474 0
-752 -475 0
-752 -476 0
-752 -477 0
-752 -478 0
-752 -479 0
-752 -480 0
-752 -484 0
-752 -485 0
-752 -486 0
-752 -487 0
-752 -488 0
-752 -489 0
-752 -490 0
-752 -491 0
-752 -492 0
-752 -493 0
-752 -494 0
-752 -495 0
-752 -496 0
-752 -497 0
-752 -498 0
-752 -502 0
-752 -503 0
-752 -504 0
-753 -451 0
-753 -452 0
-753 -453 0
-753 -454 0
-753 -455 0
-753 -456 0
-753 -457 0
-753 -458 0
-753 -459 0
-753 -460 0
-753 -461 0
-753 -462 0
-753 -463 0
-753 -467 0
-753 -468 0
-753 -469 0
-753 -470 0
-753 -471 0
-753 -472 0
-753 -473 0
-753 -474 0
-753 -475 0
-753 -476 0
-753 -477 0
-753 -478 0
-753 -479 0
-753 -480 0
-753 -481 0
-753 -485 0
-753 -486 0
-753 -487 0
-753 -488 0
-753 -489 0
-753 -490 0
-753 -491 0
-753 -492 0
-753 -493 0
-753 -494 0
-753 -495 0
-753 -496 0
-753 -497 0
-753 -498 0
-753 -499 0
-753 -503 0
-753 -504 0
-754 -451 0
-754 -452 0
-754 -453 0
-754 -454 0
-754 -455 0
-754 -456 0
-754 -457 0
-754 -458 0
-754 -459 0
-754 -460 0
-754 -461 0
-754 -462 0
-754 -463 0
-754 -464 0
-754 -468 0
-754 -469 0
-754 -470 0
-754 -471 0
-754 -472 0
-754 -473 0
-754 -474 0
-754 -475 0
-754 -476 0
-754 -477 0
-754 -478 0
-754 -479 0
-754 -480 0
-754 -481 0
-754 -482 0
-754 -486 0
-754 -487 0
-754 -488 0
-754 -489 0
-754 -490 0
-754 -491 0
-754 -492 0
-754 -493 0
-754 -494 0
-754 -495 0
-754 -496 0
-754 -497 0
-754 -498 0
-754 -499 0
-754 -500 0
-754 -504 0
-755 -451 0
-755 -452 0
-755 -453 0
-755 -454 0
-755 -455 0
-755 -456 0
-755 -457 0
-755 -458 0
-755 -459 0
-755 -460 0
-755 -461 0
-755 -462 0
-755 -463 0
-755 -464 0
-755 -465 0
-755 -469 0
-755 -470 0
-755 -471 0
-755 -472 0
-755 -473 0
-755 -474 0
-755 -475 0
-755 -476 0
-755 -477 0
-755 -478 0
-755 -479 0
-755 -480 0
-755 -481 0
-755 -482 0
-755 -483 0
-755 -487 0
-755 -488 0
-755 -489 0
-755 -490 0
-755 -491 0
-755 -492 0
-755 -493 0
-755 -494 0
-755 -495 0
-755 -496 0
-755 -497 0
-755 -498 0
-755 -499 0
-755 -500 0
-755 -501 0
-505 -523 0
-505 -541 0
-523 -541 0
-506 -524 0
-506 -542 0
-524 -542 0
-507 -525 0
-507 -543 0
-525 -543 0
-508 -526 0
-508 -544 0
-526 -544 0
-509 -527 0
-509 -545 0
-527 -545 0
-510 -528 0
-510 -546 0
-528 -546 0
-511 -529 0
-511 -547 0
-529 -547 0
-512 -530 0
-512 -548 0
-530 -548 0
-513 -531 0
-513 -549 0
-531 -549 0
-514 -532 0
-514 -550 0
-532 -550 0
-515 -533 0
-515 -551 0
-533 -551 0
-516 -534 0
-516 -552 0
-534 -552 0
-517 -535 0
-517 -553 0
-535 -553 0
-518 -536 0
-518 -554 0
-536 -554 0
-519 -537 0
-519 -555 0
-537 -555 0
-520 -538 0
-520 -556 0
-538 -556 0
-521 -539 0
-521 -557 0
-539 -557 0
-522 -540 0
-522 -558 0
-540 -558 0
756 757 758 759 760 761 762 763 764 765 766 767 768 769 770 771 0
-756 -757 0
-756 -758 0
-756 -759 0
-756 -760 0
-756 -761 0
-756 -762 0
-756 -763 0
-756 -764 0
-756 -765 0
-756 -766 0
-756 -767 0
-756 -768 0
-756 -769 0
-756 -770 0
-756 -771 0
-757 -758 0
-757 -759 0
-757 -760 0
-757 -761 0
-757 -762 0
-757 -763 0
-757 -764 0
-757 -765 0
-757 -766 0
-757 -767 0
-757 -768 0
-757 -769 0
-757 -770 0
-757 -771 0
-758 -759 0
-758 -760 0
-758 -761 0
-758 -762 0
-758 -763 0
-758 -764 0
-758 -765 0
-758 -766 0
-758 -767 0
-758 -768 0
-758 -769 0
-758 -770 0
-758 -771 0
-759 -760 0
-759 -761 0
-759 -762 0
-759 -763 0
-759 -764 0
-759 -765 0
-759 -766 0
-759 -767 0
-759 -768 0
-759 -769 0
-759 -770 0
-759 -771 0
-760 -761 0
-760 -762 0
-760 -763 0
-760 -764 0
-760 -765 0
-760 -766 0
-760 -767 0
-760 -768 0
-760 -769 0
-760 -770 0
-760 -771 0
-761 -762 0
-761 -763 0
-761 -764 0
-761 -765 0
-761 -766 0
-761 -767 0
-761 -768 0
-761 -769 0
-761 -770 0
-761 -771 0
-762 -763 0
-762 -764 0
-762 -765 0
-762 -766 0
-762 -767 0
-762 -768 0
-762 -769 0
-762 -770 0
-762 -771 0
-763 -764 0
-763 -765 0
-763 -766 0
-763 -767 0
-763 -768 0
-763 -769 0
-763 -770 0
-763 -771 0
-764 -765 0
-764 -766 0
-764 -767 0
-764 -768 0
-764 -769 0
-764 -770 0
-764 -771 0
-765 -766 0
-765 -767 0
-765 -768 0
-765 -769 0
-765 -770 0
-765 -771 0
-766 -767 0
-766 -768 0
-766 -769 0
-766 -770 0
-766 -771 0
-767 -768 0
-767 -769 0
-767 -770 0
-767 -771 0
-768 -769 0
-768 -770 0
-768 -771 0
-769 -770 0
-769 -771 0
-770 -771 0
-505 756 0
-506 756 757 0
-507 756 757 758 0
-508 757 758 759 0
-509 758 759 760 0
-510 759 760 761 0
-511 760 761 762 0
-512 761 762 763 0
-513 762 763 764 0
-514 763 764 765 0
-515 764 765 766 0
-516 765 766 767 0
-517 766 767 768 0
-518 767 768 769 0
-519 768 769 770 0
-520 769 770 771 0
-521 770 771 0
-522 771 0
-523 756 0
-524 756 757 0
-525 756 757 758 0
-526 757 758 759 0
-527 758 759 760 0
-528 759 760 761 0
-529 760 761 762 0
-530 761 762 763 0
-531 762 763 764 0
-532 763 764 765 0
-533 764 765 766 0
-534 765 766 767 0
-535 766 767 768 0
-536 767 768 769 0
-537 768 769 770 0
-538 769 770 771 0
-539 770 771 0
-540 771 0
-541 756 0
-542 756 757 0
-543 756 757 758 0
-544 757 758 759 0
-545 758 759 760 0
-546 759 760 761 0
-547 760 761 762 0
-548 761 762 763 0
-549 762 763 764 0
-550 763 764 765 0
-551 764 765 766 0
-552 765 766 767 0
-553 766 767 768 0
-554 767 768 769 0
-555 768 769 770 0
-556 769 770 771 0
-557 770 771 0
-558 771 0
-756 -508 0
-756 -509 0
-756 -510 0
-756 -511 0
-756 -512 0
-756 -513 0
-756 -514 0
-756 -515 0
-756 -516 0
-756 -517 0
-756 -518 0
-756 -519 0
-756 -520 0
-756 -521 0
-756 -522 0
-756 -526 0
-756 -527 0
-756 -528 0
-756 -529 0
-756 -530 0
-756 -531 0
-756 -532 0
-756 -533 0
-756 -534 0
-756 -535 0
-756 -536 0
-756 -537 0
-756 -538 0
-756 -539 0
-756 -540 0
-756 -544 0
-756 -545 0
-756 -546 0
-756 -547 0
-756 -548 0
-756 -549 0
-756 -550 0
-756 -551 0
-756 -552 0
-756 -553 0
-756 -554 0
-756 -555 0
-756 -556 0
-756 -557 0
-756 -558 0
-757 -505 0
-757 -509 0
-757 -510 0
-757 -511 0
-757 -512 0
-757 -513 0
-757 -514 0
-757 -515 0
-757 -516 0
-757 -517 0
-757 -518 0
-757 -519 0
-757 -520 0
-757 -521 0
-757 -522 0
-757 -523 0
-757 -527 0
-757 -528 0
-757 -529 0
-757 -530 0
-757 -531 0
-757 -532 0
-757 -533 0
-757 -534 0
-757 -535 0
-757 -536 0
-757 -537 0
-757 -538 0
-757 -539 0
-757 -540 0
-757 -541 0
-757 -545 0
-757 -546 0
-757 -547 0
-757 -548 0
-757 -549 0
-757 -550 0
-757 -551 0
-757 -552 0
-757 -553 0
-757 -554 0
-757 -555 0
-757 -556 0
-757 -557 0
-757 -558 0
-758 -505 0
-758 -506 0
-758 -510 0
-758 -511 0
-758 -512 0
-758 -513 0
-758 -514 0
-758 -515 0
-758 -516 0
-758 -517 0
-758 -518 0
-758 -519 0
-758 -520 0
-758 -521 0
-758 -522 0
-758 -523 0
-758 -524 0
-758 -528 0
-758 -529 0
-758 -530 0
-758 -531 0
-758 -532 0
-758 -533 0
-758 -534 0
-758 -535 0
-758 -536 0
-758 -537 0
-758 -538 0
-758 -539 0
-758 -540 0
-758 -541 0
-758 -542 0
-758 -546 0
-758 -547 0
-758 -548 0
-758 -549 0
-758 -550 0
-758 -551 0
-758 -552 0
-758 -553 0
-758 -554 0
-758 -555 0
-758 -556 0
-758 -557 0
-758 -558 0
-759 -505 0
-759 -506 0
-759 -507 0
-759 -511 0
-759 -512 0
-759 -513 0
-759 -514 0
-759 -515 0
-759 -516 0
-759 -517 0
-759 -518 0
-759 -519 0
-759 -520 0
-759 -521 0
-759 -522 0
-759 -523 0
-759 -524 0
-759 -525 0
-759 -529 0
-759 -530 0
-759 -531 0
-759 -532 0
-759 -533 0
-759 -534 0
-759 -535 0
-759 -536 0
-759 -537 0
-759 -538 0
-759 -539 0
-759 -540 0
-759 -541 0
-759 -542 0
-759 -543 0
-759 -547 0
-759 -548 0
-759 -549 0
-759 -550 0
-759 -551 0
-759 -552 0
-759 -553 0
-759 -554 0
-759 -555 0
-759 -556 0
-759 -557 0
-759 -558 0
-760 -505 0
-760 -506 0
-760 -507 0
-760 -508 0
-760 -512 0
-760 -513 0
-760 -514 0
-760 -515 0
-760 -516 0
-760 -517 0
-760 -518 0
-760 -519 0
-760 -520 0
-760 -521 0
-760 -522 0
-760 -523 0
-760 -524 0
-760 -525 0
-760 -526 0
-760 -530 0
-760 -531 0
-760 -532 0
-760 -533 0
-760 -534 0
-760 -535 0
-760 -536 0
-760 -537 0
-760 -538 0
-760 -539 0
-760 -540 0
-760 -541 0
-760 -542 0
-760 -543 0
-760 -544 0
-760 -548 0
-760 -549 0
-760 -550 0
-760 -551 0
-760 -552 0
-760 -553 0
-760 -554 0
-760 -555 0
-760 -556 0
-760 -557 0
-760 -558 0
-761 -505 0
-761 -506 0
-761 -507 0
-761 -508 0
-761 -509 0
-761 -513 0
-761 -514 0
-761 -515 0
-761 -516 0
-761 -517 0
-761 -518 0
-761 -519 0
-761 -520 0
-761 -521 0
-761 -522 0
-761 -523 0
-761 -524 0
-761 -525 0
-761 -526 0
-761 -527 0
-761 -531 0
-761 -532 0
-761 -533 0
-761 -534 0
-761 -535 0
-761 -536 0
-761 -537 0
-761 -538 0
-761 -539 0
-761 -540 0
-761 -541 0
-761 -542 0
-761 -543 0
-761 -544 0
-761 -545 0
-761 -549 0
-761 -550 0
-761 -551 0
-761 -552 0
-761 -553 0
-761 -554 0
-761 -555 0
-761 -556 0
-761 -557 0
-761 -558 0
-762 -505 0
-762 -506 0
-762 -507 0
-762 -508 0
-762 -509 0
-762 -510 0
-762 -514 0
-762 -515 0
-762 -516 0
-762 -517 0
-762 -518 0
-762 -519 0
-762 -520 0
-762 -521 0
-762 -522 0
-762 -523 0
-762 -524 0
-762 -525 0
-762 -526 0
-762 -527 0
-762 -528 0
-762 -532 0
-762 -533 0
-762 -534 0
-762 -535 0
-762 -536 0
-762 -537 0
-762 -538 0
-762 -539 0
-762 -540 0
-762 -541 0
-762 -542 0
-762 -543 0
-762 -544 0
-762 -545 0
-762 -546 0
-762 -550 0
-762 -551 0
-762 -552 0
-762 -553 0
-762 -554 0
-762 -555 0
-762 -556 0
-762 -557 0
-762 -558 0
-763 -505 0
-763 -506 0
-763 -507 0
-763 -508 0
-763 -509 0
-763 -510 0
-763 -511 0
-763 -515 0
-763 -516 0
-763 -517 0
-763 -518 0
-763 -519 0
-763 -520 0
-763 -521 0
-763 -522 0
-763 -523 0
-763 -524 0
-763 -525 0
-763 -526 0
-763 -527 0
-763 -528 0
-763 -529 0
-763 -533 0
-763 -534 0
-763 -535 0
-763 -536 0
-763 -537 0
-763 -538 0
-763 -539 0
-763 -540 0
-763 -541 0
-763 -542 0
-763 -543 0
-763 -544 0
-763 -545 0
-763 -546 0
-763 -547 0
-763 -551 0
-763 -552 0
-763 -553 0
-763 -554 0
-763 -555 0
-763 -556 0
-763 -557 0
-763 -558 0
-764 -505 0
-764 -506 0
-764 -507 0
-764 -508 0
-764 -509 0
-764 -510 0
-764 -511 0
-764 -512 0
-764 -516 0
-764 -517 0
-764 -518 0
-764 -519 0
-764 -520 0
-764 -521 0
-764 -522 0
-764 -523 0
-764 -524 0
-764 -525 0
-764 -526 0
-764 -527 0
-764 -528 0
-764 -529 0
-764 -530 0
-764 -534 0
-764 -535 0
-764 -536 0
-764 -537 0
-764 -538 0
-764 -539 0
-764 -540 0
-764 -541 0
-764 -542 0
-764 -543 0
-764 -544 0
-764 -545 0
-764 -546 0
-764 -547 0
-764 -548 0
-764 -552 0
-764 -553 0
-764 -554 0
-764 -555 0
-764 -556 0
-764 -557 0
-764 -558 0
-765 -505 0
-765 -506 0
-765 -507 0
-765 -508 0
-765 -509 0
-765 -510 0
-765 -511 0
-765 -512 0
-765 -513 0
-765 -517 0
-765 -518 0
-765 -519 0
-765 -520 0
-765 -521 0
-765 -522 0
-765 -523 0
-765 -524 0
-765 -525 0
-765 -526 0
-765 -527 0
-765 -528 0
-765 -529 0
-765 -530 0
-765 -531 0
-765 -535 0
-765 -536 0
-765 -537 0
-765 -538 0
-765 -539 0
-765 -540 0
-765 -541 0
-765 -542 0
-765 -543 0
-765 -544 0
-765 -545 0
-765 -546 0
-765 -547 0
-765 -548 0
-765 -549 0
-765 -553 0
-765 -554 0
-765 -555 0
-765 -556 0
-765 -557 0
-765 -558 0
-766 -505 0
-766 -506 0
-766 -507 0
-766 -508 0
-766 -509 0
-766 -510 0
-766 -511 0
-766 -512 0
-766 -513 0
-766 -514 0
-766 -518 0
-766 -519 0
-766 -520 0
-766 -521 0
-766 -522 0
-766 -523 0
-766 -524 0
-766 -525 0
-766 -526 0
-766 -527 0
-766 -528 0
-766 -529 0
-766 -530 0
-766 -531 0
-766 -532 0
-766 -536 0
-766 -537 0
-766 -538 0
-766 -539 0
-766 -540 0
-766 -541 0
-766 -542 0
-766 -543 0
-766 -544 0
-766 -545 0
-766 -546 0
-766 -547 0
-766 -548 0
-766 -549 0
-766 -550 0
-766 -554 0
-766 -555 0
-766 -556 0
-766 -557 0
-766 -558 0
-767 -505 0
-767 -506 0
-767 -507 0
-767 -508 0
-767 -509 0
-767 -510 0
-767 -511 0
-767 -512 0
-767 -513 0
-767 -514 0
-767 -515 0
-767 -519 0
-767 -520 0
-767 -521 0
-767 -522 0
-767 -523 0
-767 -524 0
-767 -525 0
-767 -526 0
-767 -527 0
-767 -528 0
-767 -529 0
-767 -530 0
-767 -531 0
-767 -532 0
-767 -533 0
-767 -537 0
-767 -538 0
-767 -539 0
-767 -540 0
-767 -541 0
-767 -542 0
-767 -543 0
-767 -544 0
-767 -545 0
-767 -546 0
-767 -547 0
-767 -548 0
-767 -549 0
-767 -550 0
-767 -551 0
-767 -555 0
-767 -556 0
-767 -557 0
-767 -558 0
-768 -505 0
-768 -506 0
-768 -507 0
-768 -508 0
-768 -509 0
-768 -510 0
-768 -511 0
-768 -512 0
-768 -513 0
-768 -514 0
-768 -515 0
-768 -516 0
-768 -520 0
-768 -521 0
-768 -522 0
-768 -523 0
-768 -524 0
-768 -525 0
-768 -526 0
-768 -527 0
-768 -528 0
-768 -529 0
-768 -530 0
-768 -531 0
-768 -532 0
-768 -533 0
-768 -534 0
-768 -538 0
-768 -539 0
-768 -540 0
-768 -541 0
-768 -542 0
-768 -543 0
-768 -544 0
-768 -545 0
-768 -546 0
-768 -547 0
-768 -548 0
-768 -549 0
-768 -550 0
-768 -551 0
-768 -552 0
-768 -556 0
-768 -557 0
-768 -558 0
-769 -505 0
-769 -506 0
-769 -507 0
-769 -508 0
-769 -509 0
-769 -510 0
-769 -511 0
-769 -512 0
-769 -513 0
-769 -514 0
-769 -515 0
-769 -516 0
-769 -517 0
-769 -521 0
-769 -522 0
-769 -523 0
-769 -524 0
-769 -525 0
-769 -526 0
-769 -527 0
-769 -528 0
-769 -529 0
-769 -530 0
-769 -531 0
-769 -532 0
-769 -533 0
-769 -534 0
-769 -535 0
-769 -539 0
-769 -540 0
-769 -541 0
-769 -542 0
-769 -543 0
-769 -544 0
-769 -545 0
-769 -546 0
-769 -547 0
-769 -548 0
-769 -549 0
-769 -550 0
-769 -551 0
-769 -552 0
-769 -553 0
-769 -557 0
-769 -558 0
-770 -505 0
-770 -506 0
-770 -507 0
-770 -508 0
-770 -509 0
-770 -510 0
-770 -511 0
-770 -512 0
-770 -513 0
-770 -514 0
-770 -515 0
-770 -516 0
-770 -517 0
-770 -518 0
-770 -522 0
-770 -523 0
-770 -524 0
-770 -525 0
-770 -526 0
-770 -527 0
-770 -528 0
-770 -529 0
-770 -530 0
-770 -531 0
-770 -532 0
-770 -533 0
-770 -534 0
-770 -535 0
-770 -536 0
-770 -540 0
-770 -541 0
-770 -542 0
-770 -543 0
-770 -544 0
-770 -545 0
-770 -546 0
-770 -547 0
-770 -548 0
-770 -549 0
-770 -550 0
-770 -551 0
-770 -552 0
-770 -553 0
-770 -554 0
-770 -558 0
-771 -505 0
-771 -506 0
-771 -507 0
-771 -508 0
-771 -509 0
-771 -510 0
-771 -511 0
-771 -512 0
-771 -513 0
-771 -514 0
-771 -515 0
-771 -516 0
-771 -517 0
-771 -518 0
-771 -519 0
-771 -523 0
-771 -524 0
-771 -525 0
-771 -526 0
-771 -527 0
-771 -528 0
-771 -529 0
-771 -530 0
-771 -531 0
-771 -532 0
-771 -533 0
-771 -534 0
-771 -535 0
-771 -536 0
-771 -537 0
-771 -541 0
-771 -542 0
-771 -543 0
-771 -544 0
-771 -545 0
-771 -546 0
-771 -547 0
-771 -548 0
-771 -549 0
-771 -550 0
-771 -551 0
-771 -552 0
-771 -553 0
-771 -554 0
-771 -555 0
-559 -577 0
-559 -595 0
-577 -595 0
-560 -578 0
-560 -596 0
-578 -596 0
-561 -579 0
-561 -597 0
-579 -597 0
-562 -580 0
-562 -598 0
-580 -598 0
-563 -581 0
-563 -599 0
-581 -599 0
-564 -582 0
-564 -600 0
-582 -600 0
-565 -583 0
-565 -601 0
-583 -601 0
-566 -584 0
-566 -602 0
-584 -602 0
-567 -585 0
-567 -603 0
-585 -603 0
-568 -586 0
-568 -604 0
-586 -604 0
-569 -587 0
-569 -605 0
-587 -605 0
-570 -588 0
-570 -606 0
-588 -606 0
-571 -589 0
-571 -607 0
-589 -607 0
-572 -590 0
-572 -608 0
-590 -608 0
-573 -591 0
-573 -609 0
-591 -609 0
-574 -592 0
-574 -610 0
-592 -610 0
-575 -593 0
-575 -611 0
-593 -611 0
-576 -594 0
-576 -612 0
-594 -612 0
772 773 774 775 776 777 778 779 780 781 782 783 784 785 786 787 0
-772 -773 0
-772 -774 0
-772 -775 0
-772 -776 0
-772 -777 0
-772 -778 0
-772 -779 0
-772 -780 0
-772 -781 0
-772 -782 0
-772 -783 0
-772 -784 0
-772 -785 0
-772 -786 0
-772 -787 0
-773 -774 0
-773 -775 0
-773 -776 0
-773 -777 0
-773 -778 0
-773 -779 0
-773 -780 0
-773 -781 0
-773 -782 0
-773 -783 0
-773 -784 0
-773 -785 0
-773 -786 0
-773 -787 0
-774 -775 0
-774 -776 0
-774 -777 0
-774 -778 0
-774 -779 0
-774 -780 0
-774 -781 0
-774 -782 0
-774 -783 0
-774 -784 0
-774 -785 0
-774 -786 0
-774 -787 0
-775 -776 0
-775 -777 0
-775 -778 0
-775 -779 0
-775 -780 0
-775 -781 0
-775 -782 0
-775 -783 0
-775 -784 0
-775 -785 0
-775 -786 0
-775 -787 0
-776 -777 0
-776 -778 0
-776 -779 0
-776 -780 0
-776 -781 0
-776 -782 0
-776 -783 0
-776 -784 0
-776 -785 0
-776 -786 0
-776 -787 0
-777 -778 0
-777 -779 0
-777 -780 0
-777 -781 0
-777 -782 0
-777 -783 0
-777 -784 0
-777 -785 0
-777 -786 0
-777 -787 0
-778 -779 0
-778 -780 0
-778 -781 0
-778 -782 0
-778 -783 0
-778 -784 0
-778 -785 0
-778 -786 0
-778 -787 0
-779 -780 0
-779 -781 0
-779 -782 0
-779 -783 0
-779 -784 0
-779 -785 0
-779 -786 0
-779 -787 0
-780 -781 0
-780 -782 0
-780 -783 0
-780 -784 0
-780 -785 0
-780 -786 0
-780 -787 0
-781 -782 0
-781 -783 0
-781 -784 0
-781 -785 0
-781 -786 0
-781 -787 0
-782 -783 0
-782 -784 0
-782 -785 0
-782 -786 0
-782 -787 0
-783 -784 0
-783 -785 0
-783 -786 0
-783 -787 0
-784 -785 0
-784 -786 0
-784 -787 0
-785 -786 0
-785 -787 0
-786 -787 0
-559 772 0
-560 772 773 0
-561 772 773 774 0
-562 773 774 775 0
-563 774 775 776 0
-564 775 776 777 0
-565 776 777 778 0
-566 777 778 779 0
-567 778 779 780 0
-568 779 780 781 0
-569 780 781 782 0
-570 781 782 783 0
-571 782 783 784 0
-572 783 784 785 0
-573 784 785 786 0
-574 785 786 787 0
-575 786 787 0
-576 787 0
-577 772 0
-578 772 773 0
-579 772 773 774 0
-580 773 774 775 0
-581 774 775 776 0
-582 775 776 777 0
-583 776 777 778 0
-584 777 778 779 0
-585 778 779 780 0
-586 779 780 781 0
-587 780 781 782 0
-588 781 782 783 0
-589 782 783 784 0
-590 783 784 785 0
-591 784 785 786 0
-592 785 786 787 0
-593 786 787 0
-594 787 0
-595 772 0
-596 772 773 0
-597 772 773 774 0
-598 773 774 775 0
-599 774 775 776 0
-600 775 776 777 0
-601 776 777 778 0
-602 777 778 779 0
-603 778 779 780 0
-604 779 780 781 0
-605 780 781 782 0
-606 781 782 783 0
-607 782 783 784 0
-608 783 784 785 0
-609 784 785 786 0
-610 785 786 787 0
-611 786 787 0
-612 787 0
-772 -562 0
-772 -563 0
-772 -564 0
-772 -565 0
-772 -566 0
-772 -567 0
-772 -568 0
-772 -569 0
-772 -570 0
-772 -571 0
-772 -572 0
-772 -573 0
-772 -574 0
-772 -575 0
-772 -576 0
-772 -580 0
-772 -581 0
-772 -582 0
-772 -583 0
-772 -584 0
-772 -585 0
-772 -586 0
-772 -587 0
-772 -588 0
-772 -589 0
-772 -590 0
-772 -591 0
-772 -592 0
-772 -593 0
-772 -594 0
-772 -598 0
-772 -599 0
-772 -600 0
-772 -601 0
-772 -602 0
-772 -603 0
-772 -604 0
-772 -605 0
-772 -606 0
-772 -607 0
-772 -608 0
-772 -609 0
-772 -610 0
-772 -611 0
-772 -612 0
-773 -559 0
-773 -563 0
-773 -564 0
-773 -565 0
-773 -566 0
-773 -567 0
-773 -568 0
-773 -569 0
-773 -570 0
-773 -571 0
-773 -572 0
-773 -573 0
-773 -574 0
-773 -575 0
-773 -576 0
-773 -577 0
-773 -581 0
-773 -582 0
-773 -583 0
-773 -584 0
-773 -585 0
-773 -586 0
-773 -587 0
-773 -588 0
-773 -589 0
-773 -590 0
-773 -591 0
-773 -592 0
-773 -593 0
-773 -594 0
-773 -595 0
-773 -599 0
-773 -600 0
-773 -601 0
-773 -602 0
-773 -603 0
-773 -604 0
-773 -605 0
-773 -606 0
-773 -607 0
-773 -608 0
-773 -609 0
-773 -610 0
-773 -611 0
-773 -612 0
-774 -559 0
-774 -560 0
-774 -564 0
-774 -565 0
-774 -566 0
-774 -567 0
-774 -568 0
-774 -569 0
-774 -570 0
-774 -571 0
-774 -572 0
-774 -573 0
-774 -574 0
-774 -575 0
-774 -576 0
-774 -577 0
-774 -578 0
-774 -582 0
-774 -583 0
-774 -584 0
-774 -585 0
-774 -586 0
-774 -587 0
-774 -588 0
-774 -589 0
-774 -590 0
-774 -591 0
-774 -592 0
-774 -593 0
-774 -594 0
-774 -595 0
-774 -596 0
-774 -600 0
-774 -601 0
-774 -602 0
-774 -603 0
-774 -604 0
-774 -605 0
-774 -606 0
-774 -607 0
-774 -608 0
-774 -609 0
-774 -610 0
-774 -611 0
-774 -612 0
-775 -559 0
-775 -560 0
-775 -561 0
-775 -565 0
-775 -566 0
-775 -567 0
-775 -568 0
-775 -569 0
-775 -570 0
-775 -571 0
-775 -572 0
-775 -573 0
-775 -574 0
-775 -575 0
-775 -576 0
-775 -577 0
-775 -578 0
-775 -579 0
-775 -583 0
-775 -584 0
-775 -585 0
-775 -586 0
-775 -587 0
-775 -588 0
-775 -589 0
-775 -590 0
-775 -591 0
-775 -592 0
-775 -593 0
-775 -594 0
-775 -595 0
-775 -596 0
-775 -597 0
-775 -601 0
-775 -602 0
-775 -603 0
-775 -604 0
-775 -605 0
-775 -606 0
-775 -607 0
-775 -608 0
-775 -609 0
-775 -610 0
-775 -611 0
-775 -612 0
-776 -559 0
-776 -560 0
-776 -561 0
-776 -562 0
-776 -566 0
-776 -567 0
-776 -568 0
-776 -569 0
-776 -570 0
-776 -571 0
-776 -572 0
-776 -573 0
-776 -574 0
-776 -575 0
-776 -576 0
-776 -577 0
-776 -578 0
-776 -579 0
-776 -580 0
-776 -584 0
-776 -585 0
-776 -586 0
-776 -587 0
-776 -588 0
-776 -589 0
-776 -590 0
-776 -591 0
-776 -592 0
-776 -593 0
-776 -594 0
-776 -595 0
-776 -596 0
-776 -597 0
-776 -598 0
-776 -602 0
-776 -603 0
-776 -604 0
-776 -605 0
-776 -606 0
-776 -607 0
-776 -608 0
-776 -609 0
-776 -610 0
-776 -611 0
-776 -612 0
-777 -559 0
-777 -560 0
-777 -561 0
-777 -562 0
-777 -563 0
-777 -567 0
-777 -568 0
-777 -569 0
-777 -570 0
-777 -571 0
-777 -572 0
-777 -573 0
-777 -574 0
-777 -575 0
-777 -576 0
-777 -577 0
-777 -578 0
-777 -579 0
-777 -580 0
-777 -581 0
-777 -585 0
-777 -586 0
-777 -587 0
-777 -588 0
-777 -589 0
-777 -590 0
-777 -591 0
-777 -592 0
-777 -593 0
-777 -594 0
-777 -595 0
-777 -596 0
-777 -597 0
-777 -598 0
-777 -599 0
-777 -603 0
-777 -604 0
-777 -605 0
-777 -606 0
-777 -607 0
-777 -608 0
-777 -609 0
-777 -610 0
-777 -611 0
-777 -612 0
-778 -559 0
-778 -560 0
-778 -561 0
-778 -562 0
-778 -563 0
-778 -564 0
-778 -568 0
-778 -569 0
-778 -570 0
-778 -571 0
-778 -572 0
-778 -573 0
-778 -574 0
-778 -575 0
-778 -576 0
-778 -577 0
-778 -578 0
-778 -579 0
-778 -580 0
-778 -581 0
-778 -582 0
-778 -586 0
-778 -587 0
-778 -588 0
-778 -589 0
-778 -590 0
-778 -591 0
-778 -592 0
-778 -593 0
-778 -594 0
-778 -595 0
-778 -596 0
-778 -597 0
-778 -598 0
-778 -599 0
-778 -600 0
-778 -604 0
-778 -605 0
-778 -606 0
-778 -607 0
-778 -608 0
-778 -609 0
-778 -610 0
-778 -611 0
-778 -612 0
-779 -559 0
-779 -560 0
-779 -561 0
-779 -562 0
-779 -563 0
-779 -564 0
-779 -565 0
-779 -569 0
-779 -570 0
-779 -571 0
-779 -572 0
-779 -573 0
-779 -574 0
-779 -575 0
-779 -576 0
-779 -577 0
-779 -578 0
-779 -579 0
-779 -580 0
-779 -581 0
-779 -582 0
-779 -583 0
-779 -587 0
-779 -588 0
-779 -589 0
-779 -590 0
-779 -591 0
-779 -592 0
-779 -593 0
-779 -594 0
-779 -595 0
-779 -596 0
-779 -597 0
-779 -598 0
-779 -599 0
-779 -600 0
-779 -601 0
-779 -605 0
-779 -606 0
-779 -607 0
-779 -608 0
-779 -609 0
-779 -610 0
-779 -611 0
-779 -612 0
-780 -559 0
-780 -560 0
-780 -561 0
-780 -562 0
-780 -563 0
-780 -564 0
-780 -565 0
-780 -566 0
-780 -570 0
-780 -571 0
-780 -572 0
-780 -573 0
-780 -574 0
-780 -575 0
-780 -576 0
-780 -577 0
-780 -578 0
-780 -579 0
-780 -580 0
-780 -581 0
-780 -582 0
-780 -583 0
-780 -584 0
-780 -588 0
-780 -589 0
-780 -590 0
-780 -591 0
-780 -592 0
-780 -593 0
-780 -594 0
-780 -595 0
-780 -596 0
-780 -597 0
-780 -598 0
-780 -599 0
-780 -600 0
-780 -601 0
-780 -602 0
-780 -606 0
-780 -607 0
-780 -608 0
-780 -609 0
-780 -610 0
-780 -611 0
-780 -612 0
-781 -559 0
-781 -560 0
-781 -561 0
-781 -562 0
-781 -563 0
-781 -564 0
-781 -565 0
-781 -566 0
-781 -567 0
-781 -571 0
-781 -572 0
-781 -573 0
-781 -574 0
-781 -575 0
-781 -576 0
-781 -577 0
-781 -578 0
-781 -579 0
-781 -580 0
-781 -581 0
-781 -582 0
-781 -583 0
-781 -584 0
-781 -585 0
-781 -589 0
-781 -590 0
-781 -591 0
-781 -592 0
-781 -593 0
-781 -594 0
-781 -595 0
-781 -596 0
-781 -597 0
-781 -598 0
-781 -599 0
-781 -600 0
-781 -601 0
-781 -602 0
-781 -603 0
-781 -607 0
-781 -608 0
-781 -609 0
-781 -610 0
-781 -611 0
-781 -612 0
-782 -559 0
-782 -560 0
-782 -561 0
-782 -562 0
-782 -563 0
-782 -564 0
-782 -565 0
-782 -566 0
-782 -567 0
-782 -568 0
-782 -572 0
-782 -573 0
-782 -574 0
-782 -575 0
-782 -576 0
-782 -577 0
-782 -578 0
-782 -579 0
-782 -580 0
-782 -581 0
-782 -582 0
-782 -583 0
-782 -584 0
-782 -585 0
-782 -586 0
-782 -590 0
-782 -591 0
-782 -592 0
-782 -593 0
-782 -594 0
-782 -595 0
-782 -596 0
-782 -597 0
-782 -598 0
-782 -599 0
-782 -600 0
-782 -601 0
-782 -602 0
-782 -603 0
-782 -604 0
-782 -608 0
-782 -609 0
-782 -610 0
-782 -611 0
-782 -612 0
-783 -559 0
-783 -560 0
-783 -561 0
-783 -562 0
-783 -563 0
-783 -564 0
-783 -565 0
-783 -566 0
-783 -567 0
-783 -568 0
-783 -569 0
-783 -573 0
-783 -574 0
-783 -575 0
-783 -576 0
-783 -577 0
-783 -578 0
-783 -579 0
-783 -580 0
-783 -581 0
-783 -582 0
-783 -583 0
-783 -584 0
-783 -585 0
-783 -586 0
-783 -587 0
-783 -591 0
-783 -592 0
-783 -593 0
-783 -594 0
-783 -595 0
-783 -596 0
-783 -597 0
-783 -598 0
-783 -599 0
-783 -600 0
-783 -601 0
-783 -602 0
-783 -603 0
-783 -604 0
-783 -605 0
-783 -609 0
-783 -610 0
-783 -611 0
-783 -612 0
-784 -559 0
-784 -560 0
-784 -561 0
-784 -562 0
-784 -563 0
-784 -564 0
-784 -565 0
-784 -566 0
-784 -567 0
-784 -568 0
-784 -569 0
-784 -570 0
-784 -574 0
-784 -575 0
-784 -576 0
-784 -577 0
-784 -578 0
-784 -579 0
-784 -580 0
-784 -581 0
-784 -582 0
-784 -583 0
-784 -584 0
-784 -585 0
-784 -586 0
-784 -587 0
-784 -588 0
-784 -592 0
-784 -593 0
-784 -594 0
-784 -595 0
-784 -596 0
-784 -597 0
-784 -598 0
-784 -599 0
-784 -600 0
-784 -601 0
-784 -602 0
-784 -603 0
-784 -604 0
-784 -605 0
-784 -606 0
-784 -610 0
-784 -611 0
-784 -612 0
-785 -559 0
-785 -560 0
-785 -561 0
-785 -562 0
-785 -563 0
-785 -564 0
-785 -565 0
-785 -566 0
-785 -567 0
-785 -568 0
-785 -569 0
-785 -570 0
-785 -571 0
-785 -575 0
-785 -576 0
-785 -577 0
-785 -578 0
-785 -579 0
-785 -580 0
-785 -581 0
-785 -582 0
-785 -583 0
-785 -584 0
-785 -585 0
-785 -586 0
-785 -587 0
-785 -588 0
-785 -589 0
-785 -593 0
-785 -594 0
-785 -595 0
-785 -596 0
-785 -597 0
-785 -598 0
-785 -599 0
-785 -600 0
-785 -601 0
-785 -602 0
-785 -603 0
-785 -604 0
-785 -605 0
-785 -606 0
-785 -607 0
-785 -611 0
-785 -612 0
-786 -559 0
-786 -560 0
-786 -561 0
-786 -562 0
-786 -563 0
-786 -564 0
-786 -565 0
-786 -566 0
-786 -567 0
-786 -568 0
-786 -569 0
-786 -570 0
-786 -571 0
-786 -572 0
-786 -576 0
-786 -577 0
-786 -578 0
-786 -579 0
-786 -580 0
-786 -581 0
-786 -582 0
-786 -583 0
-786 -584 0
-786 -585 0
-786 -586 0
-786 -587 0
-786 -588 0
-786 -589 0
-786 -590 0
-786 -594 0
-786 -595 0
-786 -596 0
-786 -597 0
-786 -598 0
-786 -599 0
-786 -600 0
-786 -601 0
-786 -602 0
-786 -603 0
-786 -604 0
-786 -605 0
-786 -606 0
-786 -607 0
-786 -608 0
-786 -612 0
-787 -559 0
-787 -560 0
-787 -561 0
-787 -562 0
-787 -563 0
-787 -564 0
-787 -565 0
-787 -566 0
-787 -567 0
-787 -568 0
-787 -569 0
-787 -570 0
-787 -571 0
-787 -572 0
-787 -573 0
-787 -577 0
-787 -578 0
-787 -579 0
-787 -580 0
-787 -581 0
-787 -582 0
-787 -583 0
-787 -584 0
-787 -585 0
-787 -586 0
-787 -587 0
-787 -588 0
-787 -589 0
-787 -590 0
-787 -591 0
-787 -595 0
-787 -596 0
-787 -597 0
-787 -598 0
-787 -599 0
-787 -600 0
-787 -601 0
-787 -602 0
-787 -603 0
-787 -604 0
-787 -605 0
-787 -606 0
-787 -607 0
-787 -608 0
-787 -609 0
-55 -109 0
-55 -163 0
-55 -217 0
-55 -271 0
-55 -325 0
-55 -379 0
-55 -433 0
-55 -487 0
-55 -541 0
-55 -595 0
-109 -163 0
-109 -217 0
-109 -271 0
-109 -325 0
-109 -379 0
-109 -433 0
-109 -487 0
-109 -541 0
-109 -595 0
-163 -217 0
-163 -271 0
-163 -325 0
-163 -379 0
-163 -433 0
-163 -487 0
-163 -541 0
-163 -595 0
-217 -271 0
-217 -325 0
-217 -379 0
-217 -433 0
-217 -487 0
-217 -541 0
-217 -595 0
-271 -325 0
-271 -379 0
-271 -433 0
-271 -487 0
-271 -541 0
-271 -595 0
-325 -379 0
-325 -433 0
-325 -487 0
-325 -541 0
-325 -595 0
-379 -433 0
-379 -487 0
-379 -541 0
-379 -595 0
-433 -487 0
-433 -541 0
-433 -595 0
-487 -541 0
-487 -595 0
-541 -595 0
-56 -110 0
-56 -164 0
-56 -218 0
-56 -272 0
-56 -326 0
-56 -380 0
-56 -434 0
-56 -488 0
-56 -542 0
-56 -596 0
-110 -164 0
-110 -218 0
-110 -272 0
-110 -326 0
-110 -380 0
-110 -434 0
-110 -488 0
-110 -542 0
-110 -596 0
-164 -218 0
-164 -272 0
-164 -326 0
-164 -380 0
-164 -434 0
-164 -488 0
-164 -542 0
-164 -596 0
-218 -272 0
-218 -326 0
-218 -380 0
-218 -434 0
-218 -488 0
-218 -542 0
-218 -596 0
-272 -326 0
-272 -380 0
-272 -434 0
-272 -488 0
-272 -542 0
-272 -596 0
-326 -380 0
-326 -434 0
-326 -488 0
-326 -542 0
-326 -596 0
-380 -434 0
-380 -488 0
-380 -542 0
-380 -596 0
-434 -488 0
-434 -542 0
-434 -596 0
-488 -542 0
-488 -596 0
-542 -596 0
-57 -111 0
-57 -165 0
-57 -219 0
-57 -273 0
-57 -327 0
-57 -381 0
-57 -435 0
-57 -489 0
-57 -543 0
-57 -597 0
-111 -165 0
-111 -219 0
-111 -273 0
-111 -327 0
-111 -381 0
-111 -435 0
-111 -489 0
-111 -543 0
-111 -597 0
-165 -219 0
-165 -273 0
-165 -327 0
-165 -381 0
-165 -435 0
-165 -489 0
-165 -543 0
-165 -597 0
-219 -273 0
-219 -327 0
-219 -381 0
-219 -435 0
-219 -489 0
-219 -543 0
-219 -597 0
-273 -327 0
-273 -381 0
-273 -435 0
-273 -489 0
-273 -543 0
-273 -597 0
-327 -381 0
-327 -435 0
-327 -489 0
-327 -543 0
-327 -597 0
-381 -435 0
-381 -489 0
-381 -543 0
-381 -597 0
-435 -489 0
-435 -543 0
-435 -597 0
-489 -543 0
-489 -597 0
-543 -597 0
-58 -112 0
-58 -166 0
-58 -220 0
-58 -274 0
-58 -328 0
-58 -382 0
-58 -436 0
-58 -490 0
-58 -544 0
-58 -598 0
-112 -166 0
-112 -220 0
-112 -274 0
-112 -328 0
-112 -382 0
-112 -436 0
-112 -490 0
-112 -544 0
-112 -598 0
-166 -220 0
-166 -274 0
-166 -328 0
-166 -382 0
-166 -436 0
-166 -490 0
-166 -544 0
-166 -598 0
-220 -274 0
-220 -328 0
-220 -382 0
-220 -436 0
-220 -490 0
-220 -544 0
-220 -598 0
-274 -328 0
-274 -382 0
-274 -436 0
-274 -490 0
-274 -544 0
-274 -598 0
-328 -382 0
-328 -436 0
-328 -490 0
-328 -544 0
-328 -598 0
-382 -436 0
-382 -490 0
-382 -544 0
-382 -598 0
-436 -490 0
-436 -544 0
-436 -598 0
-490 -544 0
-490 -598 0
-544 -598 0
-59 -113 0
-59 -167 0
-59 -221 0
-59 -275 0
-59 -329 0
-59 -383 0
-59 -437 0
-59 -491 0
-59 -545 0
-59 -599 0
-113 -167 0
-113 -221 0
-113 -275 0
-113 -329 0
-113 -383 0
-113 -437 0
-113 -491 0
-113 -545 0
-113 -599 0
-167 -221 0
-167 -275 0
-167 -329 0
-167 -383 0
-167 -437 0
-167 -491 0
-167 -545 0
-167 -599 0
-221 -275 0
-221 -329 0
-221 -383 0
-221 -437 0
-221 -491 0
-221 -545 0
-221 -599 0
-275 -329 0
-275 -383 0
-275 -437 0
-275 -491 0
-275 -545 0
-275 -599 0
-329 -383 0
-329 -437 0
-329 -491 0
-329 -545 0
-329 -599 0
-383 -437 0
-383 -491 0
-383 -545 0
-383 -599 0
-437 -491 0
-437 -545 0
-437 -599 0
-491 -545 0
-491 -599 0
-545 -599 0
-60 -114 0
-60 -168 0
-60 -222 0
-60 -276 0
-60 -330 0
-60 -384 0
-60 -438 0
-60 -492 0
-60 -546 0
-60 -600 0
-114 -168 0
-114 -222 0
-114 -276 0
-114 -330 0
-114 -384 0
-114 -438 0
-114 -492 0
-114 -546 0
-114 -600 0
-168 -222 0
-168 -276 0
-168 -330 0
-168 -384 0
-168 -438 0
-168 -492 0
-168 -546 0
-168 -600 0
-222 -276 0
-222 -330 0
-222 -384 0
-222 -438 0
-222 -492 0
-222 -546 0
-222 -600 0
-276 -330 0
-276 -384 0
-276 -438 0
-276 -492 0
-276 -546 0
-276 -600 0
-330 -384 0
-330 -438 0
-330 -492 0
-330 -546 0
-330 -600 0
-384 -438 0
-384 -492 0
-384 -546 0
-384 -600 0
-438 -492 0
-438 -546 0
-438 -600 0
-492 -546 0
-492 -600 0
-546 -600 0
-61 -115 0
-61 -169 0
-61 -223 0
-61 -277 0
-61 -331 0
-61 -385 0
-61 -439 0
-61 -493 0
-61 -547 0
-61 -601 0
-115 -169 0
-115 -223 0
-115 -277 0
-115 -331 0
-115 -385 0
-115 -439 0
-115 -493 0
-115 -547 0
-115 -601 0
-169 -223 0
-169 -277 0
-169 -331 0
-169 -385 0
-169 -439 0
-169 -493 0
-169 -547 0
-169 -601 0
-223 -277 0
-223 -331 0
-223 -385 0
-223 -439 0
-223 -493 0
-223 -547 0
-223 -601 0
-277 -331 0
-277 -385 0
-277 -439 0
-277 -493 0
-277 -547 0
-277 -601 0
-331 -385 0
-331 -439 0
-331 -493 0
-331 -547 0
-331 -601 0
-385 -439 0
-385 -493 0
-385 -547 0
-385 -601 0
-439 -493 0
-439 -547 0
-439 -601 0
-493 -547 0
-493 -601 0
-547 -601 0
-62 -116 0
-62 -170 0
-62 -224 0
-62 -278 0
-62 -332 0
-62 -386 0
-62 -440 0
-62 -494 0
-62 -548 0
-62 -602 0
-116 -170 0
-116 -224 0
-116 -278 0
-116 -332 0
-116 -386 0
-116 -440 0
-116 -494 0
-116 -548 0
-116 -602 0
-170 -224 0
-170 -278 0
-170 -332 0
-170 -386 0
-170 -440 0
-170 -494 0
-170 -548 0
-170 -602 0
-224 -278 0
-224 -332 0
-224 -386 0
-224 -440 0
-224 -494 0
-224 -548 0
-224 -602 0
-278 -332 0
-278 -386 0
-278 -440 0
-278 -494 0
-278 -548 0
-278 -602 0
-332 -386 0
-332 -440 0
-332 -494 0
-332 -548 0
-332 -602 0
-386 -440 0
-386 -494 0
-386 -548 0
-386 -602 0
-440 -494 0
-440 -548 0
-440 -602 0
-494 -548 0
-494 -602 0
-548 -602 0
-63 -117 0
-63 -171 0
-63 -225 0
-63 -279 0
-63 -333 0
-63 -387 0
-63 -441 0
-63 -495 0
-63 -549 0
-63 -603 0
-117 -171 0
-117 -225 0
-117 -279 0
-117 -333 0
-117 -387 0
-117 -441 0
-117 -495 0
-117 -549 0
-117 -603 0
-171 -225 0
-171 -279 0
-171 -333 0
-171 -387 0
-171 -441 0
-171 -495 0
-171 -549 0
-171 -603 0
-225 -279 0
-225 -333 0
-225 -387 0
-225 -441 0
-225 -495 0
-225 -549 0
-225 -603 0
-279 -333 0
-279 -387 0
-279 -441 0
-279 -495 0
-279 -549 0
-279 -603 0
-333 -387 0
-333 -441 0
-333 -495 0
-333 -549 0
-333 -603 0
-387 -441 0
-387 -495 0
-387 -549 0
-387 -603 0
-441 -495 0
-441 -549 0
-441 -603 0
-495 -549 0
-495 -603 0
-549 -603 0
-64 -118 0
-64 -172 0
-64 -226 0
-64 -280 0
-64 -334 0
-64 -388 0
-64 -442 0
-64 -496 0
-64 -550 0
-64 -604 0
-118 -172 0
-118 -226 0
-118 -280 0
-118 -334 0
-118 -388 0
-118 -442 0
-118 -496 0
-118 -550 0
-118 -604 0
-172 -226 0
-172 -280 0
-172 -334 0
-172 -388 0
-172 -442 0
-172 -496 0
-172 -550 0
-172 -604 0
-226 -280 0
-226 -334 0
-226 -388 0
-226 -442 0
-226 -496 0
-226 -550 0
-226 -604 0
-280 -334 0
-280 -388 0
-280 -442 0
-280 -496 0
-280 -550 0
-280 -604 0
-334 -388 0
-334 -442 0
-334 -496 0
-334 -550 0
-334 -604 0
-388 -442 0
-388 -496 0
-388 -550 0
-388 -604 0
-442 -496 0
-442 -550 0
-442 -604 0
-496 -550 0
-496 -604 0
-550 -604 0
-65 -119 0
-65 -173 0
-65 -227 0
-65 -281 0
-65 -335 0
-65 -389 0
-65 -443 0
-65 -497 0
-65 -551 0
-65 -605 0
-119 -173 0
-119 -227 0
-119 -281 0
-119 -335 0
-119 -389 0
-119 -443 0
-119 -497 0
-119 -551 0
-119 -605 0
-173 -227 0
-173 -281 0
-173 -335 0
-173 -389 0
-173 -443 0
-173 -497 0
-173 -551 0
-173 -605 0
-227 -281 0
-227 -335 0
-227 -389 0
-227 -443 0
-227 -497 0
-227 -551 0
-227 -605 0
-281 -335 0
-281 -389 0
-281 -443 0
-281 -497 0
-281 -551 0
-281 -605 0
-335 -389 0
-335 -443 0
-335 -497 0
-335 -551 0
-335 -605 0
-389 -443 0
-389 -497 0
-389 -551 0
-389 -605 0
-443 -497 0
-443 -551 0
-443 -605 0
-497 -551 0
-497 -605 0
-551 -605 0
-66 -120 0
-66 -174 0
-66 -228 0
-66 -282 0
-66 -336 0
-66 -390 0
-66 -444 0
-66 -498 0
-66 -552 0
-66 -606 0
-120 -174 0
-120 -228 0
-120 -282 0
-120 -336 0
-120 -390 0
-120 -444 0
-120 -498 0
-120 -552 0
-120 -606 0
-174 -228 0
-174 -282 0
-174 -336 0
-174 -390 0
-174 -444 0
-174 -498 0
-174 -552 0
-174 -606 0
-228 -282 0
-228 -336 0
-228 -390 0
-228 -444 0
-228 -498 0
-228 -552 0
-228 -606 0
-282 -336 0
-282 -390 0
-282 -444 0
-282 -498 0
-282 -552 0
-282 -606 0
-336 -390 0
-336 -444 0
-336 -498 0
-336 -552 0
-336 -606 0
-390 -444 0
-390 -498 0
-390 -552 0
-390 -606 0
-444 -498 0
-444 -552 0
-444 -606 0
-498 -552 0
-498 -606 0
-552 -606 0
-67 -121 0
-67 -175 0
-67 -229 0
-67 -283 0
-67 -337 0
-67 -391 0
-67 -445 0
-67 -499 0
-67 -553 0
-67 -607 0
-121 -175 0
-121 -229 0
-121 -283 0
-121 -337 0
-121 -391 0
-121 -445 0
-121 -499 0
-121 -553 0
-121 -607 0
-175 -229 0
-175 -283 0
-175 -337 0
-175 -391 0
-175 -445 0
-175 -499 0
-175 -553 0
-175 -607 0
-229 -283 0
-229 -337 0
-229 -391 0
-229 -445 0
-229 -499 0
-229 -553 0
-229 -607 0
-283 -337 0
-283 -391 0
-283 -445 0
-283 -499 0
-283 -553 0
-283 -607 0
-337 -391 0
-337 -445 0
-337 -499 0
-337 -553 0
-337 -607 0
-391 -445 0
-391 -499 0
-391 -553 0
-391 -607 0
-445 -499 0
-445 -553 0
-445 -607 0
-499 -553 0
-499 -607 0
-553 -607 0
-68 -122 0
-68 -176 0
-68 -230 0
-68 -284 0
-68 -338 0
-68 -392 0
-68 -446 0
-68 -500 0
-68 -554 0
-68 -608 0
-122 -176 0
-122 -230 0
-122 -284 0
-122 -338 0
-122 -392 0
-122 -446 0
-122 -500 0
-122 -554 0
-122 -608 0
-176 -230 0
-176 -284 0
-176 -338 0
-176 -392 0
-176 -446 0
-176 -500 0
-176 -554 0
-176 -608 0
-230 -284 0
-230 -338 0
-230 -392 0
-230 -446 0
-230 -500 0
-230 -554 0
-230 -608 0
-284 -338 0
-284 -392 0
-284 -446 0
-284 -500 0
-284 -554 0
-284 -608 0
-338 -392 0
-338 -446 0
-338 -500 0
-338 -554 0
-338 -608 0
-392 -446 0
-392 -500 0
-392 -554 0
-392 -608 0
-446 -500 0
-446 -554 0
-446 -608 0
-500 -554 0
-500 -608 0
-554 -608 0
-69 -123 0
-69 -177 0
-69 -231 0
-69 -285 0
-69 -339 0
-69 -393 0
-69 -447 0
-69 -501 0
-69 -555 0
-69 -609 0
-123 -177 0
-123 -231 0
-123 -285 0
-123 -339 0
-123 -393 0
-123 -447 0
-123 -501 0
-123 -555 0
-123 -609 0
-177 -231 0
-177 -285 0
-177 -339 0
-177 -393 0
-177 -447 0
-177 -501 0
-177 -555 0
-177 -609 0
-231 -285 0
-231 -339 0
-231 -393 0
-231 -447 0
-231 -501 0
-231 -555 0
-231 -609 0
-285 -339 0
-285 -393 0
-285 -447 0
-285 -501 0
-285 -555 0
-285 -609 0
-339 -393 0
-339 -447 0
-339 -501 0
-339 -555 0
-339 -609 0
-393 -447 0
-393 -501 0
-393 -555 0
-393 -609 0
-447 -501 0
-447 -555 0
-447 -609 0
-501 -555 0
-501 -609 0
-555 -609 0
-70 -124 0
-70 -178 0
-70 -232 0
-70 -286 0
-70 -340 0
-70 -394 0
-70 -448 0
-70 -502 0
-70 -556 0
-70 -610 0
-124 -178 0
-124 -232 0
-124 -286 0
-124 -340 0
-124 -394 0
-124 -448 0
-124 -502 0
-124 -556 0
-124 -610 0
-178 -232 0
-178 -286 0
-178 -340 0
-178 -394 0
-178 -448 0
-178 -502 0
-178 -556 0
-178 -610 0
-232 -286 0
-232 -340 0
-232 -394 0
-232 -448 0
-232 -502 0
-232 -556 0
-232 -610 0
-286 -340 0
-286 -394 0
-286 -448 0
-286 -502 0
-286 -556 0
-286 -610 0
-340 -394 0
-340 -448 0
-340 -502 0
-340 -556 0
-340 -610 0
-394 -448 0
-394 -502 0
-394 -556 0
-394 -610 0
-448 -502 0
-448 -556 0
-448 -610 0
-502 -556 0
-502 -610 0
-556 -610 0
-71 -125 0
-71 -179 0
-71 -233 0
-71 -287 0
-71 -341 0
-71 -395 0
-71 -449 0
-71 -503 0
-71 -557 0
-71 -611 0
-125 -179 0
-125 -233 0
-125 -287 0
-125 -341 0
-125 -395 0
-125 -449 0
-125 -503 0
-125 -557 0
-125 -611 0
-179 -233 0
-179 -287 0
-179 -341 0
-179 -395 0
-179 -449 0
-179 -503 0
-179 -557 0
-179 -611 0
-233 -287 0
-233 -341 0
-233 -395 0
-233 -449 0
-233 -503 0
-233 -557 0
-233 -611 0
-287 -341 0
-287 -395 0
-287 -449 0
-287 -503 0
-287 -557 0
-287 -611 0
-341 -395 0
-341 -449 0
-341 -503 0
-341 -557 0
-341 -611 0
-395 -449 0
-395 -503 0
-395 -557 0
-395 -611 0
-449 -503 0
-449 -557 0
-449 -611 0
-503 -557 0
-503 -611 0
-557 -611 0
-72 -126 0
-72 -180 0
-72 -234 0
-72 -288 0
-72 -342 0
-72 -396 0
-72 -450 0
-72 -504 0
-72 -558 0
-72 -612 0
-126 -180 0
-126 -234 0
-126 -288 0
-126 -342 0
-126 -396 0
-126 -450 0
-126 -504 0
-126 -558 0
-126 -612 0
-180 -234 0
-180 -288 0
-180 -342 0
-180 -396 0
-180 -450 0
-180 -504 0
-180 -558 0
-180 -612 0
-234 -288 0
-234 -342 0
-234 -396 0
-234 -450 0
-234 -504 0
-234 -558 0
-234 -612 0
-288 -342 0
-288 -396 0
-288 -450 0
-288 -504 0
-288 -558 0
-288 -612 0
-342 -396 0
-342 -450 0
-342 -504 0
-342 -558 0
-342 -612 0
-396 -450 0
-396 -504 0
-396 -558 0
-396 -612 0
-450 -504 0
-450 -558 0
-450 -612 0
-504 -558 0
-504 -612 0
-558 -612 0
788 789 790 791 792 793 794 795 0
-788 -789 0
-788 -790 0
-788 -791 0
-788 -792 0
-788 -793 0
-788 -794 0
-788 -795 0
-789 -790 0
-789 -791 0
-789 -792 0
-789 -793 0
-789 -794 0
-789 -795 0
-790 -791 0
-790 -792 0
-790 -793 0
-790 -794 0
-790 -795 0
-791 -792 0
-791 -793 0
-791 -794 0
-791 -795 0
-792 -793 0
-792 -794 0
-792 -795 0
-793 -794 0
-793 -795 0
-794 -795 0
-55 788 0
-56 788 789 0
-57 788 789 790 0
-58 788 789 790 791 0
-59 788 789 790 791 792 0
-60 788 789 790 791 792 793 0
-61 788 789 790 791 792 793 794 0
-62 788 789 790 791 792 793 794 795 0
-63 788 789 790 791 792 793 794 795 0
-64 788 789 790 791 792 793 794 795 0
-65 788 789 790 791 792 793 794 795 0
-66 789 790 791 792 793 794 795 0
-67 790 791 792 793 794 795 0
-68 791 792 793 794 795 0
-69 792 793 794 795 0
-70 793 794 795 0
-71 794 795 0
-72 795 0
-109 788 0
-110 788 789 0
-111 788 789 790 0
-112 788 789 790 791 0
-113 788 789 790 791 792 0
-114 788 789 790 791 792 793 0
-115 788 789 790 791 792 793 794 0
-116 788 789 790 791 792 793 794 795 0
-117 788 789 790 791 792 793 794 795 0
-118 788 789 790 791 792 793 794 795 0
-119 788 789 790 791 792 793 794 795 0
-120 789 790 791 792 793 794 795 0
-121 790 791 792 793 794 795 0
-122 791 792 793 794 795 0
-123 792 793 794 795 0
-124 793 794 795 0
-125 794 795 0
-126 795 0
-163 788 0
-164 788 789 0
-165 788 789 790 0
-166 788 789 790 791 0
-167 788 789 790 791 792 0
-168 788 789 790 791 792 793 0
-169 788 789 790 791 792 793 794 0
-170 788 789 790 791 792 793 794 795 0
-171 788 789 790 791 792 793 794 795 0
-172 788 789 790 791 792 793 794 795 0
-173 788 789 790 791 792 793 794 795 0
-174 789 790 791 792 793 794 795 0
-175 790 791 792 793 794 795 0
-176 791 792 793 794 795 0
-177 792 793 794 795 0
-178 793 794 795 0
-179 794 795 0
-180 795 0
-217 788 0
-218 788 789 0
-219 788 789 790 0
-220 788 789 790 791 0
-221 788 789 790 791 792 0
-222 788 789 790 791 792 793 0
-223 788 789 790 791 792 793 794 0
-224 788 789 790 791 792 793 794 795 0
-225 788 789 790 791 792 793 794 795 0
-226 788 789 790 791 792 793 794 795 0
-227 788 789 790 791 792 793 794 795 0
-228 789 790 791 792 793 794 795 0
-229 790 791 792 793 794 795 0
-230 791 792 793 794 795 0
-231 792 793 794 795 0
-232 793 794 795 0
-233 794 795 0
-234 795 0
-271 788 0
-272 788 789 0
-273 788 789 790 0
-274 788 789 790 791 0
-275 788 789 790 791 792 0
-276 788 789 790 791 792 793 0
-277 788 789 790 791 792 793 794 0
-278 788 789 790 791 792 793 794 795 0
-279 788 789 790 791 792 793 794 795 0
-280 788 789 790 791 792 793 794 795 0
-281 788 789 790 791 792 793 794 795 0
-282 789 790 791 792 793 794 795 0
-283 790 791 792 793 794 795 0
-284 791 792 793 794 795 0
-285 792 793 794 795 0
-286 793 794 795 0
-287 794 795 0
-288 795 0
-325 788 0
-326 788 789 0
-327 788 789 790 0
-328 788 789 790 791 0
-329 788 789 790 791 792 0
-330 788 789 790 791 792 793 0
-331 788 789 790 791 792 793 794 0
-332 788 789 790 791 792 793 794 795 0
-333 788 789 790 791 792 793 794 795 0
-334 788 789 790 791 792 793 794 795 0
-335 788 789 790 791 792 793 794 795 0
-336 789 790 791 792 793 794 795 0
-337 790 791 792 793 794 795 0
-338 791 792 793 794 795 0
-339 792 793 794 795 0
-340 793 794 795 0
-341 794 795 0
-342 795 0
-379 788 0
-380 788 789 0
-381 788 789 790 0
-382 788 789 790 791 0
-383 788 789 790 791 792 0
-384 788 789 790 791 792 793 0
-385 788 789 790 791 792 793 794 0
-386 788 789 790 791 792 793 794 795 0
-387 788 789 790 791 792 793 794 795 0
-388 788 789 790 791 792 793 794 795 0
-389 788 789 790 791 792 793 794 795 0
-390 789 790 791 792 793 794 795 0
-391 790 791 792 793 794 795 0
-392 791 792 793 794 795 0
-393 792 793 794 795 0
-394 793 794 795 0
-395 794 795 0
-396 795 0
-433 788 0
-434 788 789 0
-435 788 789 790 0
-436 788 789 790 791 0
-437 788 789 790 791 792 0
-438 788 789 790 791 792 793 0
-439 788 789 790 791 792 793 794 0
-440 788 789 790 791 792 793 794 795 0
-441 788 789 790 791 792 793 794 795 0
-442 788 789 790 791 792 793 794 795 0
-443 788 789 790 791 792 793 794 795 0
-444 789 790 791 792 793 794 795 0
-445 790 791 792 793 794 795 0
-446 791 792 793 794 795 0
-447 792 793 794 795 0
-448 793 794 795 0
-449 794 795 0
-450 795 0
-487 788 0
-488 788 789 0
-489 788 789 790 0
-490 788 789 790 791 0
-491 788 789 790 791 792 0
-492 788 789 790 791 792 793 0
-493 788 789 790 791 792 793 794 0
-494 788 789 790 791 792 793 794 795 0
-495 788 789 790 791 792 793 794 795 0
-496 788 789 790 791 792 793 794 795 0
-497 788 789 790 791 792 793 794 795 0
-498 789 790 791 792 793 794 795 0
-499 790 791 792 793 794 795 0
-500 791 792 793 794 795 0
-501 792 793 794 795 0
-502 793 794 795 0
-503 794 795 0
-504 795 0
-541 788 0
-542 788 789 0
-543 788 789 790 0
-544 788 789 790 791 0
-545 788 789 790 791 792 0
-546 788 789 790 791 792 793 0
-547 788 789 790 791 792 793 794 0
-548 788 789 790 791 792 793 794 795 0
-549 788 789 790 791 792 793 794 795 0
-550 788 789 790 791 792 793 794 795 0
-551 788 789 790 791 792 793 794 795 0
-552 789 790 791 792 793 794 795 0
-553 790 791 792 793 794 795 0
-554 791 792 793 794 795 0
-555 792 793 794 795 0
-556 793 794 795 0
-557 794 795 0
-558 795 0
-595 788 0
-596 788 789 0
-597 788 789 790 0
-598 788 789 790 791 0
-599 788 789 790 791 792 0
-600 788 789 790 791 792 793 0
-601 788 789 790 791 792 793 794 0
-602 788 789 790 791 792 793 794 795 0
-603 788 789 790 791 792 793 794 795 0
-604 788 789 790 791 792 793 794 795 0
-605 788 789 790 791 792 793 794 795 0
-606 789 790 791 792 793 794 795 0
-607 790 791 792 793 794 795 0
-608 791 792 793 794 795 0
-609 792 793 794 795 0
-610 793 794 795 0
-611 794 795 0
-612 795 0
-788 -66 0
-788 -67 0
-788 -68 0
-788 -69 0
-788 -70 0
-788 -71 0
-788 -72 0
-788 -120 0
-788 -121 0
-788 -122 0
-788 -123 0
-788 -124 0
-788 -125 0
-788 -126 0
-788 -174 0
-788 -175 0
-788 -176 0
-788 -177 0
-788 -178 0
-788 -179 0
-788 -180 0
-788 -228 0
-788 -229 0
-788 -230 0
-788 -231 0
-788 -232 0
-788 -233 0
-788 -234 0
-788 -282 0
-788 -283 0
-788 -284 0
-788 -285 0
-788 -286 0
-788 -287 0
-788 -288 0
-788 -336 0
-788 -337 0
-788 -338 0
-788 -339 0
-788 -340 0
-788 -341 0
-788 -342 0
-788 -390 0
-788 -391 0
-788 -392 0
-788 -393 0
-788 -394 0
-788 -395 0
-788 -396 0
-788 -444 0
-788 -445 0
-788 -446 0
-788 -447 0
-788 -448 0
-788 -449 0
-788 -450 0
-788 -498 0
-788 -499 0
-788 -500 0
-788 -501 0
-788 -502 0
-788 -503 0
-788 -504 0
-788 -552 0
-788 -553 0
-788 -554 0
-788 -555 0
-788 -556 0
-788 -557 0
-788 -558 0
-788 -606 0
-788 -607 0
-788 -608 0
-788 -609 0
-788 -610 0
-788 -611 0
-788 -612 0
-789 -55 0
-789 -67 0
-789 -68 0
-789 -69 0
-789 -70 0
-789 -71 0
-789 -72 0
-789 -109 0
-789 -121 0
-789 -122 0
-789 -123 0
-789 -124 0
-789 -125 0
-789 -126 0
-789 -163 0
-789 -175 0
-789 -176 0
-789 -177 0
-789 -178 0
-789 -179 0
-789 -180 0
-789 -217 0
-789 -229 0
-789 -230 0
-789 -231 0
-789 -232 0
-789 -233 0
-789 -234 0
-789 -271 0
-789 -283 0
-789 -284 0
-789 -285 0
-789 -286 0
-789 -287 0
-789 -288 0
-789 -325 0
-789 -337 0
-789 -338 0
-789 -339 0
-789 -340 0
-789 -341 0
-789 -342 0
-789 -379 0
-789 -391 0
-789 -392 0
-789 -393 0
-789 -394 0
-789 -395 0
-789 -396 0
-789 -433 0
-789 -445 0
-789 -446 0
-789 -447 0
-789 -448 0
-789 -449 0
-789 -450 0
-789 -487 0
-789 -499 0
-789 -500 0
-789 -501 0
-789 -502 0
-789 -503 0
-789 -504 0
-789 -541 0
-789 -553 0
-789 -554 0
-789 -555 0
-789 -556 0
-789 -557 0
-789 -558 0
-789 -595 0
-789 -607 0
-789 -608 0
-789 -609 0
-789 -610 0
-789 -611 0
-789 -612 0
-790 -55 0
-790 -56 0
-790 -68 0
-790 -69 0
-790 -70 0
-790 -71 0
-790 -72 0
-790 -109 0
-790 -110 0
-790 -122 0
-790 -123 0
-790 -124 0
-790 -125 0
-790 -126 0
-790 -163 0
-790 -164 0
-790 -176 0
-790 -177 0
-790 -178 0
-790 -179 0
-790 -180 0
-790 -217 0
-790 -218 0
-790 -230 0
-790 -231 0
-790 -232 0
-790 -233 0
-790 -234 0
-790 -271 0
-790 -272 0
-790 -284 0
-790 -285 0
-790 -286 0
-790 -287 0
-790 -288 0
-790 -325 0
-790 -326 0
-790 -338 0
-790 -339 0
-790 -340 0
-790 -341 0
-790 -342 0
-790 -379 0
-790 -380 0
-790 -392 0
-790 -393 0
-790 -394 0
-790 -395 0
-790 -396 0
-790 -433 0
-790 -434 0
-790 -446 0
-790 -447 0
-790 -448 0
-790 -449 0
-790 -450 0
-790 -487 0
-790 -488 0
-790 -500 0
-790 -501 0
-790 -502 0
-790 -503 0
-790 -504 0
-790 -541 0
-790 -542 0
-790 -554 0
-790 -555 0
-790 -556 0
-790 -557 0
-790 -558 0
-790 -595 0
-790 -596 0
-790 -608 0
-790 -609 0
-790 -610 0
-790 -611 0
-790 -612 0
-791 -55 0
-791 -56 0
-791 -57 0
-791 -69 0
-791 -70 0
-791 -71 0
-791 -72 0
-791 -109 0
-791 -110 0
-791 -111 0
-791 -123 0
-791 -124 0
-791 -125 0
-791 -126 0
-791 -163 0
-791 -164 0
-791 -165 0
-791 -177 0
-791 -178 0
-791 -179 0
-791 -180 0
-791 -217 0
-791 -218 0
-791 -219 0
-791 -231 0
-791 -232 0
-791 -233 0
-791 -234 0
-791 -271 0
-791 -272 0
-791 -273 0
-791 -285 0
-791 -286 0
-791 -287 0
-791 -288 0
-791 -325 0
-791 -326 0
-791 -327 0
-791 -339 0
-791 -340 0
-791 -341 0
-791 -342 0
-791 -379 0
-791 -380 0
-791 -381 0
-791 -393 0
-791 -394 0
-791 -395 0
-791 -396 0
-791 -433 0
-791 -434 0
-791 -435 0
-791 -447 0
-791 -448 0
-791 -449 0
-791 -450 0
-791 -487 0
-791 -488 0
-791 -489 0
-791 -501 0
-791 -502 0
-791 -503 0
-791 -504 0
-791 -541 0
-791 -542 0
-791 -543 0
-791 -555 0
-791 -556 0
-791 -557 0
-791 -558 0
-791 -595 0
-791 -596 0
-791 -597 0
-791 -609 0
-791 -610 0
-791 -611 0
-791 -612 0
-792 -55 0
-792 -56 0
-792 -57 0
-792 -58 0
-792 -70 0
-792 -71 0
-792 -72 0
-792 -109 0
-792 -110 0
-792 -111 0
-792 -112 0
-792 -124 0
-792 -125 0
-792 -126 0
-792 -163 0
-792 -164 0
-792 -165 0
-792 -166 0
-792 -178 0
-792 -179 0
-792 -180 0
-792 -217 0
-792 -218 0
-792 -219 0
-792 -220 0
-792 -232 0
-792 -233 0
-792 -234 0
-792 -271 0
-792 -272 0
-792 -273 0
-792 -274 0
-792 -286 0
-792 -287 0
-792 -288 0
-792 -325 0
-792 -326 0
-792 -327 0
-792 -328 0
-792 -340 0
-792 -341 0
-792 -342 0
-792 -379 0
-792 -380 0
-792 -381 0
-792 -382 0
-792 -394 0
-792 -395 0
-792 -396 0
-792 -433 0
-792 -434 0
-792 -435 0
-792 -436 0
-792 -448 0
-792 -449 0
-792 -450 0
-792 -487 0
-792 -488 0
-792 -489 0
-792 -490 0
-792 -502 0
-792 -503 0
-792 -504 0
-792 -541 0
-792 -542 0
-792 -543 0
-792 -544 0
-792 -556 0
-792 -557 0
-792 -558 0
-792 -595 0
-792 -596 0
-792 -597 0
-792 -598 0
-792 -610 0
-792 -611 0
-792 -612 0
-793 -55 0
-793 -56 0
-793 -57 0
-793 -58 0
-793 -59 0
-793 -71 0
-793 -72 0
-793 -109 0
-793 -110 0
-793 -111 0
-793 -112 0
-793 -113 0
-793 -125 0
-793 -126 0
-793 -163 0
-793 -164 0
-793 -165 0
-793 -166 0
-793 -167 0
-793 -179 0
-793 -180 0
-793 -217 0
-793 -218 0
-793 -219 0
-793 -220 0
-793 -221 0
-793 -233 0
-793 -234 0
-793 -271 0
-793 -272 0
-793 -273 0
-793 -274 0
-793 -275 0
-793 -287 0
-793 -288 0
-793 -325 0
-793 -326 0
-793 -327 0
-793 -328 0
-793 -329 0
-793 -341 0
-793 -342 0
-793 -379 0
-793 -380 0
-793 -381 0
-793 -382 0
-793 -383 0
-793 -395 0
-793 -396 0
-793 -433 0
-793 -434 0
-793 -435 0
-793 -436 0
-793 -437 0
-793 -449 0
-793 -450 0
-793 -487 0
-793 -488 0
-793 -489 0
-793 -490 0
-793 -491 0
-793 -503 0
-793 -504 0
-793 -541 0
-793 -542 0
-793 -543 0
-793 -544 0
-793 -545 0
-793 -557 0
-793 -558 0
-793 -595 0
-793 -596 0
-793 -597 0
-793 -598 0
-793 -599 0
-793 -611 0
-793 -612 0
-794 -55 0
-794 -56 0
-794 -57 0
-794 -58 0
-794 -59 0
-794 -60 0
-794 -72 0
-794 -109 0
-794 -110 0
-794 -111 0
-794 -112 0
-794 -113 0
-794 -114 0
-794 -126 0
-794 -163 0
-794 -164 0
-794 -165 0
-794 -166 0
-794 -167 0
-794 -168 0
-794 -180 0
-794 -217 0
-794 -218 0
-794 -219 0
-794 -220 0
-794 -221 0
-794 -222 0
-794 -234 0
-794 -271 0
-794 -272 0
-794 -273 0
-794 -274 0
-794 -275 0
-794 -276 0
-794 -288 0
-794 -325 0
-794 -326 0
-794 -327 0
-794 -328 0
-794 -329 0
-794 -330 0
-794 -342 0
-794 -379 0
-794 -380 0
-794 -381 0
-794 -382 0
-794 -383 0
-794 -384 0
-794 -396 0
-794 -433 0
-794 -434 0
-794 -435 0
-794 -436 0
-794 -437 0
-794 -438 0
-794 -450 0
-794 -487 0
-794 -488 0
-794 -489 0
-794 -490 0
-794 -491 0
-794 -492 0
-794 -504 0
-794 -541 0
-794 -542 0
-794 -543 0
-794 -544 0
-794 -545 0
-794 -546 0
-794 -558 0
-794 -595 0
-794 -596 0
-794 -597 0
-794 -598 0
-794 -599 0
-794 -600 0
-794 -612 0
-795 -55 0
-795 -56 0
-795 -57 0
-795 -58 0
-795 -59 0
-795 -60 0
-795 -61 0
-795 -109 0
-795 -110 0
-795 -111 0
-795 -112 0
-795 -113 0
-795 -114 0
-795 -115 0
-795 -163 0
-795 -164 0
-795 -165 0
-795 -166 0
-795 -167 0
-795 -168 0
-795 -169 0
-795 -217 0
-795 -218 0
-795 -219 0
-795 -220 0
-795 -221 0
-795 -222 0
-795 -223 0
-795 -271 0
-795 -272 0
-795 -273 0
-795 -274 0
-795 -275 0
-795 -276 0
-795 -277 0
-795 -325 0
-795 -326 0
-795 -327 0
-795 -328 0
-795 -329 0
-795 -330 0
-795 -331 0
-795 -379 0
-795 -380 0
-795 -381 0
-795 -382 0
-795 -383 0
-795 -384 0
-795 -385 0
-795 -433 0
-795 -434 0
-795 -435 0
-795 -436 0
-795 -437 0
-795 -438 0
-795 -439 0
-795 -487 0
-795 -488 0
-795 -489 0
-795 -490 0
-795 -491 0
-795 -492 0
-795 -493 0
-795 -541 0
-795 -542 0
-795 -543 0
-795 -544 0
-795 -545 0
-795 -546 0
-795 -547 0
-795 -595 0
-795 -596 0
-795 -597 0
-795 -598 0
-795 -599 0
-795 -600 0
-795 -601 0
-1 -73 0
-1 -235 0
-1 -289 0
-73 -235 0
-73 -289 0
-235 -289 0
-2 -74 0
-2 -236 0
-2 -290 0
-74 -236 0
-74 -290 0
-236 -290 0
-3 -75 0
-3 -237 0
-3 -291 0
-75 -237 0
-75 -291 0
-237 -291 0
-4 -76 0
-4 -238 0
-4 -292 0
-76 -238 0
-76 -292 0
-238 -292 0
-5 -77 0
-5 -239 0
-5 -293 0
-77 -239 0
-77 -293 0
-239 -293 0
-6 -78 0
-6 -240 0
-6 -294 0
-78 -240 0
-78 -294 0
-240 -294 0
-7 -79 0
-7 -241 0
-7 -295 0
-79 -241 0
-79 -295 0
-241 -295 0
-8 -80 0
-8 -242 0
-8 -296 0
-80 -242 0
-80 -296 0
-242 -296 0
-9 -81 0
-9 -243 0
-9 -297 0
-81 -243 0
-81 -297 0
-243 -297 0
-10 -82 0
-10 -244 0
-10 -298 0
-82 -244 0
-82 -298 0
-244 -298 0
-11 -83 0
-11 -245 0
-11 -299 0
-83 -245 0
-83 -299 0
-245 -299 0
-12 -84 0
-12 -246 0
-12 -300 0
-84 -246 0
-84 -300 0
-246 -300 0
-13 -85 0
-13 -247 0
-13 -301 0
-85 -247 0
-85 -301 0
-247 -301 0
-14 -86 0
-14 -248 0
-14 -302 0
-86 -248 0
-86 -302 0
-248 -302 0
-15 -87 0
-15 -249 0
-15 -303 0
-87 -249 0
-87 -303 0
-249 -303 0
-16 -88 0
-16 -250 0
-16 -304 0
-88 -250 0
-88 -304 0
-250 -304 0
-17 -89 0
-17 -251 0
-17 -305 0
-89 -251 0
-89 -305 0
-251 -305 0
-18 -90 0
-18 -252 0
-18 -306 0
-90 -252 0
-90 -306 0
-252 -306 0
796 797 798 799 800 801 802 803 804 805 806 807 808 809 810 0
-796 -797 0
-796 -798 0
-796 -799 0
-796 -800 0
-796 -801 0
-796 -802 0
-796 -803 0
-796 -804 0
-796 -805 0
-796 -806 0
-796 -807 0
-796 -808 0
-796 -809 0
-796 -810 0
-797 -798 0
-797 -799 0
-797 -800 0
-797 -801 0
-797 -802 0
-797 -803 0
-797 -804 0
-797 -805 0
-797 -806 0
-797 -807 0
-797 -808 0
-797 -809 0
-797 -810 0
-798 -799 0
-798 -800 0
-798 -801 0
-798 -802 0
-798 -803 0
-798 -804 0
-798 -805 0
-798 -806 0
-798 -807 0
-798 -808 0
-798 -809 0
-798 -810 0
-799 -800 0
-799 -801 0
-799 -802 0
-799 -803 0
-799 -804 0
-799 -805 0
-799 -806 0
-799 -807 0
-799 -808 0
-799 -809 0
-799 -810 0
-800 -801 0
-800 -802 0
-800 -803 0
-800 -804 0
-800 -805 0
-800 -806 0
-800 -807 0
-800 -808 0
-800 -809 0
-800 -810 0
-801 -802 0
-801 -803 0
-801 -804 0
-801 -805 0
-801 -806 0
-801 -807 0
-801 -808 0
-801 -809 0
-801 -810 0
-802 -803 0
-802 -804 0
-802 -805 0
-802 -806 0
-802 -807 0
-802 -808 0
-802 -809 0
-802 -810 0
-803 -804 0
-803 -805 0
-803 -806 0
-803 -807 0
-803 -808 0
-803 -809 0
-803 -810 0
-804 -805 0
-804 -806 0
-804 -807 0
-804 -808 0
-804 -809 0
-804 -810 0
-805 -806 0
-805 -807 0
-805 -808 0
-805 -809 0
-805 -810 0
-806 -807 0
-806 -808 0
-806 -809 0
-806 -810 0
-807 -808 0
-807 -809 0
-807 -810 0
-808 -809 0
-808 -810 0
-809 -810 0
-1 796 0
-2 796 797 0
-3 796 797 798 0
-4 796 797 798 799 0
-5 797 798 799 800 0
-6 798 799 800 801 0
-7 799 800 801 802 0
-8 800 801 802 803 0
-9 801 802 803 804 0
-10 802 803 804 805 0
-11 803 804 805 806 0
-12 804 805 806 807 0
-13 805 806 807 808 0
-14 806 807 808 809 0
-15 807 808 809 810 0
-16 808 809 810 0
-17 809 810 0
-18 810 0
-73 796 0
-74 796 797 0
-75 796 797 798 0
-76 796 797 798 799 0
-77 797 798 799 800 0
-78 798 799 800 801 0
-79 799 800 801 802 0
-80 800 801 802 803 0
-81 801 802 803 804 0
-82 802 803 804 805 0
-83 803 804 805 806 0
-84 804 805 806 807 0
-85 805 806 807 808 0
-86 806 807 808 809 0
-87 807 808 809 810 0
-88 808 809 810 0
-89 809 810 0
-90 810 0
-235 796 0
-236 796 797 0
-237 796 797 798 0
-238 796 797 798 799 0
-239 797 798 799 800 0
-240 798 799 800 801 0
-241 799 800 801 802 0
-242 800 801 802 803 0
-243 801 802 803 804 0
-244 802 803 804 805 0
-245 803 804 805 806 0
-246 804 805 806 807 0
-247 805 806 807 808 0
-248 806 807 808 809 0
-249 807 808 809 810 0
-250 808 809 810 0
-251 809 810 0
-252 810 0
-289 796 0
-290 796 797 0
-291 796 797 798 0
-292 796 797 798 799 0
-293 797 798 799 800 0
-294 798 799 800 801 0
-295 799 800 801 802 0
-296 800 801 802 803 0
-297 801 802 803 804 0
-298 802 803 804 805 0
-299 803 804 805 806 0
-300 804 805 806 807 0
-301 805 806 807 808 0
-302 806 807 808 809 0
-303 807 808 809 810 0
-304 808 809 810 0
-305 809 810 0
-306 810 0
-796 -5 0
-796 -6 0
-796 -7 0
-796 -8 0
-796 -9 0
-796 -10 0
-796 -11 0
-796 -12 0
-796 -13 0
-796 -14 0
-796 -15 0
-796 -16 0
-796 -17 0
-796 -18 0
-796 -77 0
-796 -78 0
-796 -79 0
-796 -80 0
-796 -81 0
-796 -82 0
-796 -83 0
-796 -84 0
-796 -85 0
-796 -86 0
-796 -87 0
-796 -88 0
-796 -89 0
-796 -90 0
-796 -239 0
-796 -240 0
-796 -241 0
-796 -242 0
-796 -243 0
-796 -244 0
-796 -245 0
-796 -246 0
-796 -247 0
-796 -248 0
-796 -249 0
-796 -250 0
-796 -251 0
-796 -252 0
-796 -293 0
-796 -294 0
-796 -295 0
-796 -296 0
-796 -297 0
-796 -298 0
-796 -299 0
-796 -300 0
-796 -301 0
-796 -302 0
-796 -303 0
-796 -304 0
-796 -305 0
-796 -306 0
-797 -1 0
-797 -6 0
-797 -7 0
-797 -8 0
-797 -9 0
-797 -10 0
-797 -11 0
-797 -12 0
-797 -13 0
-797 -14 0
-797 -15 0
-797 -16 0
-797 -17 0
-797 -18 0
-797 -73 0
-797 -78 0
-797 -79 0
-797 -80 0
-797 -81 0
-797 -82 0
-797 -83 0
-797 -84 0
-797 -85 0
-797 -86 0
-797 -87 0
-797 -88 0
-797 -89 0
-797 -90 0
-797 -235 0
-797 -240 0
-797 -241 0
-797 -242 0
-797 -243 0
-797 -244 0
-797 -245 0
-797 -246 0
-797 -247 0
-797 -248 0
-797 -249 0
-797 -250 0
-797 -251 0
-797 -252 0
-797 -289 0
-797 -294 0
-797 -295 0
-797 -296 0
-797 -297 0
-797 -298 0
-797 -299 0
-797 -300 0
-797 -301 0
-797 -302 0
-797 -303 0
-797 -304 0
-797 -305 0
-797 -306 0
-798 -1 0
-798 -2 0
-798 -7 0
-798 -8 0
-798 -9 0
-798 -10 0
-798 -11 0
-798 -12 0
-798 -13 0
-798 -14 0
-798 -15 0
-798 -16 0
-798 -17 0
-798 -18 0
-798 -73 0
-798 -74 0
-798 -79 0
-798 -80 0
-798 -81 0
-798 -82 0
-798 -83 0
-798 -84 0
-798 -85 0
-798 -86 0
-798 -87 0
-798 -88 0
-798 -89 0
-798 -90 0
-798 -235 0
-798 -236 0
-798 -241 0
-798 -242 0
-798 -243 0
-798 -244 0
-798 -245 0
-798 -246 0
-798 -247 0
-798 -248 0
-798 -249 0
-798 -250 0
-798 -251 0
-798 -252 0
-798 -289 0
-798 -290 0
-798 -295 0
-798 -296 0
-798 -297 0
-798 -298 0
-798 -299 0
-798 -300 0
-798 -301 0
-798 -302 0
-798 -303 0
-798 -304 0
-798 -305 0
-798 -306 0
-799 -1 0
-799 -2 0
-799 -3 0
-799 -8 0
-799 -9 0
-799 -10 0
-799 -11 0
-799 -12 0
-799 -13 0
-799 -14 0
-799 -15 0
-799 -16 0
-799 -17 0
-799 -18 0
-799 -73 0
-799 -74 0
-799 -75 0
-799 -80 0
-799 -81 0
-799 -82 0
-799 -83 0
-799 -84 0
-799 -85 0
-799 -86 0
-799 -87 0
-799 -88 0
-799 -89 0
-799 -90 0
-799 -235 0
-799 -236 0
-799 -237 0
-799 -242 0
-799 -243 0
-799 -244 0
-799 -245 0
-799 -246 0
-799 -247 0
-799 -248 0
-799 -249 0
-799 -250 0
-799 -251 0
-799 -252 0
-799 -289 0
-799 -290 0
-799 -291 0
-799 -296 0
-799 -297 0
-799 -298 0
-799 -299 0
-799 -300 0
-799 -301 0
-799 -302 0
-799 -303 0
-799 -304 0
-799 -305 0
-799 -306 0
-800 -1 0
-800 -2 0
-800 -3 0
-800 -4 0
-800 -9 0
-800 -10 0
-800 -11 0
-800 -12 0
-800 -13 0
-800 -14 0
-800 -15 0
-800 -16 0
-800 -17 0
-800 -18 0
-800 -73 0
-800 -74 0
-800 -75 0
-800 -76 0
-800 -81 0
-800 -82 0
-800 -83 0
-800 -84 0
-800 -85 0
-800 -86 0
-800 -87 0
-800 -88 0
-800 -89 0
-800 -90 0
-800 -235 0
-800 -236 0
-800 -237 0
-800 -238 0
-800 -243 0
-800 -244 0
-800 -245 0
-800 -246 0
-800 -247 0
-800 -248 0
-800 -249 0
-800 -250 0
-800 -251 0
-800 -252 0
-800 -289 0
-800 -290 0
-800 -291 0
-800 -292 0
-800 -297 0
-800 -298 0
-800 -299 0
-800 -300 0
-800 -301 0
-800 -302 0
-800 -303 0
-800 -304 0
-800 -305 0
-800 -306 0
-801 -1 0
-801 -2 0
-801 -3 0
-801 -4 0
-801 -5 0
-801 -10 0
-801 -11 0
-801 -12 0
-801 -13 0
-801 -14 0
-801 -15 0
-801 -16 0
-801 -17 0
-801 -18 0
-801 -73 0
-801 -74 0
-801 -75 0
-801 -76 0
-801 -77 0
-801 -82 0
-801 -83 0
-801 -84 0
-801 -85 0
-801 -86 0
-801 -87 0
-801 -88 0
-801 -89 0
-801 -90 0
-801 -235 0
-801 -236 0
-801 -237 0
-801 -238 0
-801 -239 0
-801 -244 0
-801 -245 0
-801 -246 0
-801 -247 0
-801 -248 0
-801 -249 0
-801 -250 0
-801 -251 0
-801 -252 0
-801 -289 0
-801 -290 0
-801 -291 0
-801 -292 0
-801 -293 0
-801 -298 0
-801 -299 0
-801 -300 0
-801 -301 0
-801 -302 0
-801 -303 0
-801 -304 0
-801 -305 0
-801 -306 0
-802 -1 0
-802 -2 0
-802 -3 0
-802 -4 0
-802 -5 0
-802 -6 0
-802 -11 0
-802 -12 0
-802 -13 0
-802 -14 0
-802 -15 0
-802 -16 0
-802 -17 0
-802 -18 0
-802 -73 0
-802 -74 0
-802 -75 0
-802 -76 0
-802 -77 0
-802 -78 0
-802 -83 0
-802 -84 0
-802 -85 0
-802 -86 0
-802 -87 0
-802 -88 0
-802 -89 0
-802 -90 0
-802 -235 0
-802 -236 0
-802 -237 0
-802 -238 0
-802 -239 0
-802 -240 0
-802 -245 0
-802 -246 0
-802 -247 0
-802 -248 0
-802 -249 0
-802 -250 0
-802 -251 0
-802 -252 0
-802 -289 0
-802 -290 0
-802 -291 0
-802 -292 0
-802 -293 0
-802 -294 0
-802 -299 0
-802 -300 0
-802 -301 0
-802 -302 0
-802 -303 0
-802 -304 0
-802 -305 0
-802 -306 0
-803 -1 0
-803 -2 0
-803 -3 0
-803 -4 0
-803 -5 0
-803 -6 0
-803 -7 0
-803 -12 0
-803 -13 0
-803 -14 0
-803 -15 0
-803 -16 0
-803 -17 0
-803 -18 0
-803 -73 0
-803 -74 0
-803 -75 0
-803 -76 0
-803 -77 0
-803 -78 0
-803 -79 0
-803 -84 0
-803 -85 0
-803 -86 0
-803 -87 0
-803 -88 0
-803 -89 0
-803 -90 0
-803 -235 0
-803 -236 0
-803 -237 0
-803 -238 0
-803 -239 0
-803 -240 0
-803 -241 0
-803 -246 0
-803 -247 0
-803 -248 0
-803 -249 0
-803 -250 0
-803 -251 0
-803 -252 0
-803 -289 0
-803 -290 0
-803 -291 0
-803 -292 0
-803 -293 0
-803 -294 0
-803 -295 0
-803 -300 0
-803 -301 0
-803 -302 0
-803 -303 0
-803 -304 0
-803 -305 0
-803 -306 0
-804 -1 0
-804 -2 0
-804 -3 0
-804 -4 0
-804 -5 0
-804 -6 0
-804 -7 0
-804 -8 0
-804 -13 0
-804 -14 0
-804 -15 0
-804 -16 0
-804 -17 0
-804 -18 0
-804 -73 0
-804 -74 0
-804 -75 0
-804 -76 0
-804 -77 0
-804 -78 0
-804 -79 0
-804 -80 0
-804 -85 0
-804 -86 0
-804 -87 0
-804 -88 0
-804 -89 0
-804 -90 0
-804 -235 0
-804 -236 0
-804 -237 0
-804 -238 0
-804 -239 0
-804 -240 0
-804 -241 0
-804 -242 0
-804 -247 0
-804 -248 0
-804 -249 0
-804 -250 0
-804 -251 0
-804 -252 0
-804 -289 0
-804 -290 0
-804 -291 0
-804 -292 0
-804 -293 0
-804 -294 0
-804 -295 0
-804 -296 0
-804 -301 0
-804 -302 0
-804 -303 0
-804 -304 0
-804 -305 0
-804 -306 0
-805 -1 0
-805 -2 0
-805 -3 0
-805 -4 0
-805 -5 0
-805 -6 0
-805 -7 0
-805 -8 0
-805 -9 0
-805 -14 0
-805 -15 0
-805 -16 0
-805 -17 0
-805 -18 0
-805 -73 0
-805 -74 0
-805 -75 0
-805 -76 0
-805 -77 0
-805 -78 0
-805 -79 0
-805 -80 0
-805 -81 0
-805 -86 0
-805 -87 0
-805 -88 0
-805 -89 0
-805 -90 0
-805 -235 0
-805 -236 0
-805 -237 0
-805 -238 0
-805 -239 0
-805 -240 0
-805 -241 0
-805 -242 0
-805 -243 0
-805 -248 0
-805 -249 0
-805 -250 0
-805 -251 0
-805 -252 0
-805 -289 0
-805 -290 0
-805 -291 0
-805 -292 0
-805 -293 0
-805 -294 0
-805 -295 0
-805 -296 0
-805 -297 0
-805 -302 0
-805 -303 0
-805 -304 0
-805 -305 0
-805 -306 0
-806 -1 0
-806 -2 0
-806 -3 0
-806 -4 0
-806 -5 0
-806 -6 0
-806 -7 0
-806 -8 0
-806 -9 0
-806 -10 0
-806 -15 0
-806 -16 0
-806 -17 0
-806 -18 0
-806 -73 0
-806 -74 0
-806 -75 0
-806 -76 0
-806 -77 0
-806 -78 0
-806 -79 0
-806 -80 0
-806 -81 0
-806 -82 0
-806 -87 0
-806 -88 0
-806 -89 0
-806 -90 0
-806 -235 0
-806 -236 0
-806 -237 0
-806 -238 0
-806 -239 0
-806 -240 0
-806 -241 0
-806 -242 0
-806 -243 0
-806 -244 0
-806 -249 0
-806 -250 0
-806 -251 0
-806 -252 0
-806 -289 0
-806 -290 0
-806 -291 0
-806 -292 0
-806 -293 0
-806 -294 0
-806 -295 0
-806 -296 0
-806 -297 0
-806 -298 0
-806 -303 0
-806 -304 0
-806 -305 0
-806 -306 0
-807 -1 0
-807 -2 0
-807 -3 0
-807 -4 0
-807 -5 0
-807 -6 0
-807 -7 0
-807 -8 0
-807 -9 0
-807 -10 0
-807 -11 0
-807 -16 0
-807 -17 0
-807 -18 0
-807 -73 0
-807 -74 0
-807 -75 0
-807 -76 0
-807 -77 0
-807 -78 0
-807 -79 0
-807 -80 0
-807 -81 0
-807 -82 0
-807 -83 0
-807 -88 0
-807 -89 0
-807 -90 0
-807 -235 0
-807 -236 0
-807 -237 0
-807 -238 0
-807 -239 0
-807 -240 0
-807 -241 0
-807 -242 0
-807 -243 0
-807 -244 0
-807 -245 0
-807 -250 0
-807 -251 0
-807 -252 0
-807 -289 0
-807 -290 0
-807 -291 0
-807 -292 0
-807 -293 0
-807 -294 0
-807 -295 0
-807 -296 0
-807 -297 0
-807 -298 0
-807 -299 0
-807 -304 0
-807 -305 0
-807 -306 0
-808 -1 0
-808 -2 0
-808 -3 0
-808 -4 0
-808 -5 0
-808 -6 0
-808 -7 0
-808 -8 0
-808 -9 0
-808 -10 0
-808 -11 0
-808 -12 0
-808 -17 0
-808 -18 0
-808 -73 0
-808 -74 0
-808 -75 0
-808 -76 0
-808 -77 0
-808 -78 0
-808 -79 0
-808 -80 0
-808 -81 0
-808 -82 0
-808 -83 0
-808 -84 0
-808 -89 0
-808 -90 0
-808 -235 0
-808 -236 0
-808 -237 0
-808 -238 0
-808 -239 0
-808 -240 0
-808 -241 0
-808 -242 0
-808 -243 0
-808 -244 0
-808 -245 0
-808 -246 0
-808 -251 0
-808 -252 0
-808 -289 0
-808 -290 0
-808 -291 0
-808 -292 0
-808 -293 0
-808 -294 0
-808 -295 0
-808 -296 0
-808 -297 0
-808 -298 0
-808 -299 0
-808 -300 0
-808 -305 0
-808 -306 0
-809 -1 0
-809 -2 0
-809 -3 0
-809 -4 0
-809 -5 0
-809 -6 0
-809 -7 0
-809 -8 0
-809 -9 0
-809 -10 0
-809 -11 0
-809 -12 0
-809 -13 0
-809 -18 0
-809 -73 0
-809 -74 0
-809 -75 0
-809 -76 0
-809 -77 0
-809 -78 0
-809 -79 0
-809 -80 0
-809 -81 0
-809 -82 0
-809 -83 0
-809 -84 0
-809 -85 0
-809 -90 0
-809 -235 0
-809 -236 0
-809 -237 0
-809 -238 0
-809 -239 0
-809 -240 0
-809 -241 0
-809 -242 0
-809 -243 0
-809 -244 0
-809 -245 0
-809 -246 0
-809 -247 0
-809 -252 0
-809 -289 0
-809 -290 0
-809 -291 0
-809 -292 0
-809 -293 0
-809 -294 0
-809 -295 0
-809 -296 0
-809 -297 0
-809 -298 0
-809 -299 0
-809 -300 0
-809 -301 0
-809 -306 0
-810 -1 0
-810 -2 0
-810 -3 0
-810 -4 0
-810 -5 0
-810 -6 0
-810 -7 0
-810 -8 0
-810 -9 0
-810 -10 0
-810 -11 0
-810 -12 0
-810 -13 0
-810 -14 0
-810 -73 0
-810 -74 0
-810 -75 0
-810 -76 0
-810 -77 0
-810 -78 0
-810 -79 0
-810 -80 0
-810 -81 0
-810 -82 0
-810 -83 0
-810 -84 0
-810 -85 0
-810 -86 0
-810 -235 0
-810 -236 0
-810 -237 0
-810 -238 0
-810 -239 0
-810 -240 0
-810 -241 0
-810 -242 0
-810 -243 0
-810 -244 0
-810 -245 0
-810 -246 0
-810 -247 0
-810 -248 0
-810 -289 0
-810 -290 0
-810 -291 0
-810 -292 0
-810 -293 0
-810 -294 0
-810 -295 0
-810 -296 0
-810 -297 0
-810 -298 0
-810 -299 0
-810 -300 0
-810 -301 0
-810 -302 0
-19 -343 0
-19 -397 0
-19 -451 0
-343 -397 0
-343 -451 0
-397 -451 0
-20 -344 0
-20 -398 0
-20 -452 0
-344 -398 0
-344 -452 0
-398 -452 0
-21 -345 0
-21 -399 0
-21 -453 0
-345 -399 0
-345 -453 0
-399 -453 0
-22 -346 0
-22 -400 0
-22 -454 0
-346 -400 0
-346 -454 0
-400 -454 0
-23 -347 0
-23 -401 0
-23 -455 0
-347 -401 0
-347 -455 0
-401 -455 0
-24 -348 0
-24 -402 0
-24 -456 0
-348 -402 0
-348 -456 0
-402 -456 0
-25 -349 0
-25 -403 0
-25 -457 0
-349 -403 0
-349 -457 0
-403 -457 0
-26 -350 0
-26 -404 0
-26 -458 0
-350 -404 0
-350 -458 0
-404 -458 0
-27 -351 0
-27 -405 0
-27 -459 0
-351 -405 0
-351 -459 0
-405 -459 0
-28 -352 0
-28 -406 0
-28 -460 0
-352 -406 0
-352 -460 0
-406 -460 0
-29 -353 0
-29 -407 0
-29 -461 0
-353 -407 0
-353 -461 0
-407 -461 0
-30 -354 0
-30 -408 0
-30 -462 0
-354 -408 0
-354 -462 0
-408 -462 0
-31 -355 0
-31 -409 0
-31 -463 0
-355 -409 0
-355 -463 0
-409 -463 0
-32 -356 0
-32 -410 0
-32 -464 0
-356 -410 0
-356 -464 0
-410 -464 0
-33 -357 0
-33 -411 0
-33 -465 0
-357 -411 0
-357 -465 0
-411 -465 0
-34 -358 0
-34 -412 0
-34 -466 0
-358 -412 0
-358 -466 0
-412 -466 0
-35 -359 0
-35 -413 0
-35 -467 0
-359 -413 0
-359 -467 0
-413 -467 0
-36 -360 0
-36 -414 0
-36 -468 0
-360 -414 0
-360 -468 0
-414 -468 0
811 812 813 814 815 816 817 818 819 820 821 822 823 824 825 0
-811 -812 0
-811 -813 0
-811 -814 0
-811 -815 0
-811 -816 0
-811 -817 0
-811 -818 0
-811 -819 0
-811 -820 0
-811 -821 0
-811 -822 0
-811 -823 0
-811 -824 0
-811 -825 0
-812 -813 0
-812 -814 0
-812 -815 0
-812 -816 0
-812 -817 0
-812 -818 0
-812 -819 0
-812 -820 0
-812 -821 0
-812 -822 0
-812 -823 0
-812 -824 0
-812 -825 0
-813 -814 0
-813 -815 0
-813 -816 0
-813 -817 0
-813 -818 0
-813 -819 0
-813 -820 0
-813 -821 0
-813 -822 0
-813 -823 0
-813 -824 0
-813 -825 0
-814 -815 0
-814 -816 0
-814 -817 0
-814 -818 0
-814 -819 0
-814 -820 0
-814 -821 0
-814 -822 0
-814 -823 0
-814 -824 0
-814 -825 0
-815 -816 0
-815 -817 0
-815 -818 0
-815 -819 0
-815 -820 0
-815 -821 0
-815 -822 0
-815 -823 0
-815 -824 0
-815 -825 0
-816 -817 0
-816 -818 0
-816 -819 0
-816 -820 0
-816 -821 0
-816 -822 0
-816 -823 0
-816 -824 0
-816 -825 0
-817 -818 0
-817 -819 0
-817 -820 0
-817 -821 0
-817 -822 0
-817 -823 0
-817 -824 0
-817 -825 0
-818 -819 0
-818 -820 0
-818 -821 0
-818 -822 0
-818 -823 0
-818 -824 0
-818 -825 0
-819 -820 0
-819 -821 0
-819 -822 0
-819 -823 0
-819 -824 0
-819 -825 0
-820 -821 0
-820 -822 0
-820 -823 0
-820 -824 0
-820 -825 0
-821 -822 0
-821 -823 0
-821 -824 0
-821 -825 0
-822 -823 0
-822 -824 0
-822 -825 0
-823 -824 0
-823 -825 0
-824 -825 0
-19 811 0
-20 811 812 0
-21 811 812 813 0
-22 811 812 813 814 0
-23 812 813 814 815 0
-24 813 814 815 816 0
-25 814 815 816 817 0
-26 815 816 817 818 0
-27 816 817 818 819 0
-28 817 818 819 820 0
-29 818 819 820 821 0
-30 819 820 821 822 0
-31 820 821 822 823 0
-32 821 822 823 824 0
-33 822 823 824 825 0
-34 823 824 825 0
-35 824 825 0
-36 825 0
-343 811 0
-344 811 812 0
-345 811 812 813 0
-346 811 812 813 814 0
-347 812 813 814 815 0
-348 813 814 815 816 0
-349 814 815 816 817 0
-350 815 816 817 818 0
-351 816 817 818 819 0
-352 817 818 819 820 0
-353 818 819 820 821 0
-354 819 820 821 822 0
-355 820 821 822 823 0
-356 821 822 823 824 0
-357 822 823 824 825 0
-358 823 824 825 0
-359 824 825 0
-360 825 0
-397 811 0
-398 811 812 0
-399 811 812 813 0
-400 811 812 813 814 0
-401 812 813 814 815 0
-402 813 814 815 816 0
-403 814 815 816 817 0
-404 815 816 817 818 0
-405 816 817 818 819 0
-406 817 818 819 820 0
-407 818 819 820 821 0
-408 819 820 821 822 0
-409 820 821 822 823 0
-410 821 822 823 824 0
-411 822 823 824 825 0
-412 823 824 825 0
-413 824 825 0
-414 825 0
-451 811 0
-452 811 812 0
-453 811 812 813 0
-454 811 812 813 814 0
-455 812 813 814 815 0
-456 813 814 815 816 0
-457 814 815 816 817 0
-458 815 816 817 818 0
-459 816 817 818 819 0
-460 817 818 819 820 0
-461 818 819 820 821 0
-462 819 820 821 822 0
-463 820 821 822 823 0
-464 821 822 823 824 0
-465 822 823 824 825 0
-466 823 824 825 0
-467 824 825 0
-468 825 0
-811 -23 0
-811 -24 0
-811 -25 0
-811 -26 0
-811 -27 0
-811 -28 0
-811 -29 0
-811 -30 0
-811 -31 0
-811 -32 0
-811 -33 0
-811 -34 0
-811 -35 0
-811 -36 0
-811 -347 0
-811 -348 0
-811 -349 0
-811 -350 0
-811 -351 0
-811 -352 0
-811 -353 0
-811 -354 0
-811 -355 0
-811 -356 0
-811 -357 0
-811 -358 0
-811 -359 0
-811 -360 0
-811 -401 0
-811 -402 0
-811 -403 0
-811 -404 0
-811 -405 0
-811 -406 0
-811 -407 0
-811 -408 0
-811 -409 0
-811 -410 0
-811 -411 0
-811 -412 0
-811 -413 0
-811 -414 0
-811 -455 0
-811 -456 0
-811 -457 0
-811 -458 0
-811 -459 0
-811 -460 0
-811 -461 0
-811 -462 0
-811 -463 0
-811 -464 0
-811 -465 0
-811 -466 0
-811 -467 0
-811 -468 0
-812 -19 0
-812 -24 0
-812 -25 0
-812 -26 0
-812 -27 0
-812 -28 0
-812 -29 0
-812 -30 0
-812 -31 0
-812 -32 0
-812 -33 0
-812 -34 0
-812 -35 0
-812 -36 0
-812 -343 0
-812 -348 0
-812 -349 0
-812 -350 0
-812 -351 0
-812 -352 0
-812 -353 0
-812 -354 0
-812 -355 0
-812 -356 0
-812 -357 0
-812 -358 0
-812 -359 0
-812 -360 0
-812 -397 0
-812 -402 0
-812 -403 0
-812 -404 0
-812 -405 0
-812 -406 0
-812 -407 0
-812 -408 0
-812 -409 0
-812 -410 0
-812 -411 0
-812 -412 0
-812 -413 0
-812 -414 0
-812 -451 0
-812 -456 0
-812 -457 0
-812 -458 0
-812 -459 0
-812 -460 0
-812 -461 0
-812 -462 0
-812 -463 0
-812 -464 0
-812 -465 0
-812 -466 0
-812 -467 0
-812 -468 0
-813 -19 0
-813 -20 0
-813 -25 0
-813 -26 0
-813 -27 0
-813 -28 0
-813 -29 0
-813 -30 0
-813 -31 0
-813 -32 0
-813 -33 0
-813 -34 0
-813 -35 0
-813 -36 0
-813 -343 0
-813 -344 0
-813 -349 0
-813 -350 0
-813 -351 0
-813 -352 0
-813 -353 0
-813 -354 0
-813 -355 0
-813 -356 0
-813 -357 0
-813 -358 0
-813 -359 0
-813 -360 0
-813 -397 0
-813 -398 0
-813 -403 0
-813 -404 0
-813 -405 0
-813 -406 0
-813 -407 0
-813 -408 0
-813 -409 0
-813 -410 0
-813 -411 0
-813 -412 0
-813 -413 0
-813 -414 0
-813 -451 0
-813 -452 0
-813 -457 0
-813 -458 0
-813 -459 0
-813 -460 0
-813 -461 0
-813 -462 0
-813 -463 0
-813 -464 0
-813 -465 0
-813 -466 0
-813 -467 0
-813 -468 0
-814 -19 0
-814 -20 0
-814 -21 0
-814 -26 0
-814 -27 0
-814 -28 0
-814 -29 0
-814 -30 0
-814 -31 0
-814 -32 0
-814 -33 0
-814 -34 0
-814 -35 0
-814 -36 0
-814 -343 0
-814 -344 0
-814 -345 0
-814 -350 0
-814 -351 0
-814 -352 0
-814 -353 0
-814 -354 0
-814 -355 0
-814 -356 0
-814 -357 0
-814 -358 0
-814 -359 0
-814 -360 0
-814 -397 0
-814 -398 0
-814 -399 0
-814 -404 0
-814 -405 0
-814 -406 0
-814 -407 0
-814 -408 0
-814 -409 0
-814 -410 0
-814 -411 0
-814 -412 0
-814 -413 0
-814 -414 0
-814 -451 0
-814 -452 0
-814 -453 0
-814 -458 0
-814 -459 0
-814 -460 0
-814 -461 0
-814 -462 0
-814 -463 0
-814 -464 0
-814 -465 0
-814 -466 0
-814 -467 0
-814 -468 0
-815 -19 0
-815 -20 0
-815 -21 0
-815 -22 0
-815 -27 0
-815 -28 0
-815 -29 0
-815 -30 0
-815 -31 0
-815 -32 0
-815 -33 0
-815 -34 0
-815 -35 0
-815 -36 0
-815 -343 0
-815 -344 0
-815 -345 0
-815 -346 0
-815 -351 0
-815 -352 0
-815 -353 0
-815 -354 0
-815 -355 0
-815 -356 0
-815 -357 0
-815 -358 0
-815 -359 0
-815 -360 0
-815 -397 0
-815 -398 0
-815 -399 0
-815 -400 0
-815 -405 0
-815 -406 0
-815 -407 0
-815 -408 0
-815 -409 0
-815 -410 0
-815 -411 0
-815 -412 0
-815 -413 0
-815 -414 0
-815 -451 0
-815 -452 0
-815 -453 0
-815 -454 0
-815 -459 0
-815 -460 0
-815 -461 0
-815 -462 0
-815 -463 0
-815 -464 0
-815 -465 0
-815 -466 0
-815 -467 0
-815 -468 0
-816 -19 0
-816 -20 0
-816 -21 0
-816 -22 0
-816 -23 0
-816 -28 0
-816 -29 0
-816 -30 0
-816 -31 0
-816 -32 0
-816 -33 0
-816 -34 0
-816 -35 0
-816 -36 0
-816 -343 0
-816 -344 0
-816 -345 0
-816 -346 0
-816 -347 0
-816 -352 0
-816 -353 0
-816 -354 0
-816 -355 0
-816 -356 0
-816 -357 0
-816 -358 0
-816 -359 0
-816 -360 0
-816 -397 0
-816 -398 0
-816 -399 0
-816 -400 0
-816 -401 0
-816 -406 0
-816 -407 0
-816 -408 0
-816 -409 0
-816 -410 0
-816 -411 0
-816 -412 0
-816 -413 0
-816 -414 0
-816 -451 0
-816 -452 0
-816 -453 0
-816 -454 0
-816 -455 0
-816 -460 0
-816 -461 0
-816 -462 0
-816 -463 0
-816 -464 0
-816 -465 0
-816 -466 0
-816 -467 0
-816 -468 0
-817 -19 0
-817 -20 0
-817 -21 0
-817 -22 0
-817 -23 0
-817 -24 0
-817 -29 0
-817 -30 0
-817 -31 0
-817 -32 0
-817 -33 0
-817 -34 0
-817 -35 0
-817 -36 0
-817 -343 0
-817 -344 0
-817 -345 0
-817 -346 0
-817 -347 0
-817 -348 0
-817 -353 0
-817 -354 0
-817 -355 0
-817 -356 0
-817 -357 0
-817 -358 0
-817 -359 0
-817 -360 0
-817 -397 0
-817 -398 0
-817 -399 0
-817 -400 0
-817 -401 0
-817 -402 0
-817 -407 0
-817 -408 0
-817 -409 0
-817 -410 0
-817 -411 0
-817 -412 0
-817 -413 0
-817 -414 0
-817 -451 0
-817 -452 0
-817 -453 0
-817 -454 0
-817 -455 0
-817 -456 0
-817 -461 0
-817 -462 0
-817 -463 0
-817 -464 0
-817 -465 0
-817 -466 0
-817 -467 0
-817 -468 0
-818 -19 0
-818 -20 0
-818 -21 0
-818 -22 0
-818 -23 0
-818 -24 0
-818 -25 0
-818 -30 0
-818 -31 0
-818 -32 0
-818 -33 0
-818 -34 0
-818 -35 0
-818 -36 0
-818 -343 0
-818 -344 0
-818 -345 0
-818 -346 0
-818 -347 0
-818 -348 0
-818 -349 0
-818 -354 0
-818 -355 0
-818 -356 0
-818 -357 0
-818 -358 0
-818 -359 0
-818 -360 0
-818 -397 0
-818 -398 0
-818 -399 0
-818 -400 0
-818 -401 0
-818 -402 0
-818 -403 0
-818 -408 0
-818 -409 0
-818 -410 0
-818 -411 0
-818 -412 0
-818 -413 0
-818 -414 0
-818 -451 0
-818 -452 0
-818 -453 0
-818 -454 0
-818 -455 0
-818 -456 0
-818 -457 0
-818 -462 0
-818 -463 0
-818 -464 0
-818 -465 0
-818 -466 0
-818 -467 0
-818 -468 0
-819 -19 0
-819 -20 0
-819 -21 0
-819 -22 0
-819 -23 0
-819 -24 0
-819 -25 0
-819 -26 0
-819 -31 0
-819 -32 0
-819 -33 0
-819 -34 0
-819 -35 0
-819 -36 0
-819 -343 0
-819 -344 0
-819 -345 0
-819 -346 0
-819 -347 0
-819 -348 0
-819 -349 0
-819 -350 0
-819 -355 0
-819 -356 0
-819 -357 0
-819 -358 0
-819 -359 0
-819 -360 0
-819 -397 0
-819 -398 0
-819 -399 0
-819 -400 0
-819 -401 0
-819 -402 0
-819 -403 0
-819 -404 0
-819 -409 0
-819 -410 0
-819 -411 0
-819 -412 0
-819 -413 0
-819 -414 0
-819 -451 0
-819 -452 0
-819 -453 0
-819 -454 0
-819 -455 0
-819 -456 0
-819 -457 0
-819 -458 0
-819 -463 0
-819 -464 0
-819 -465 0
-819 -466 0
-819 -467 0
-819 -468 0
-820 -19 0
-820 -20 0
-820 -21 0
-820 -22 0
-820 -23 0
-820 -24 0
-820 -25 0
-820 -26 0
-820 -27 0
-820 -32 0
-820 -33 0
-820 -34 0
-820 -35 0
-820 -36 0
-820 -343 0
-820 -344 0
-820 -345 0
-820 -346 0
-820 -347 0
-820 -348 0
-820 -349 0
-820 -350 0
-820 -351 0
-820 -356 0
-820 -357 0
-820 -358 0
-820 -359 0
-820 -360 0
-820 -397 0
-820 -398 0
-820 -399 0
-820 -400 0
-820 -401 0
-820 -402 0
-820 -403 0
-820 -404 0
-820 -405 0
-820 -410 0
-820 -411 0
-820 -412 0
-820 -413 0
-820 -414 0
-820 -451 0
-820 -452 0
-820 -453 0
-820 -454 0
-820 -455 0
-820 -456 0
-820 -457 0
-820 -458 0
-820 -459 0
-820 -464 0
-820 -465 0
-820 -466 0
-820 -467 0
-820 -468 0
-821 -19 0
-821 -20 0
-821 -21 0
-821 -22 0
-821 -23 0
-821 -24 0
-821 -25 0
-821 -26 0
-821 -27 0
-821 -28 0
-821 -33 0
-821 -34 0
-821 -35 0
-821 -36 0
-821 -343 0
-821 -344 0
-821 -345 0
-821 -346 0
-821 -347 0
-821 -348 0
-821 -349 0
-821 -350 0
-821 -351 0
-821 -352 0
-821 -357 0
-821 -358 0
-821 -359 0
-821 -360 0
-821 -397 0
-821 -398 0
-821 -399 0
-821 -400 0
-821 -401 0
-821 -402 0
-821 -403 0
-821 -404 0
-821 -405 0
-821 -406 0
-821 -411 0
-821 -412 0
-821 -413 0
-821 -414 0
-821 -451 0
-821 -452 0
-821 -453 0
-821 -454 0
-821 -455 0
-821 -456 0
-821 -457 0
-821 -458 0
-821 -459 0
-821 -460 0
-821 -465 0
-821 -466 0
-821 -467 0
-821 -468 0
-822 -19 0
-822 -20 0
-822 -21 0
-822 -22 0
-822 -23 0
-822 -24 0
-822 -25 0
-822 -26 0
-822 -27 0
-822 -28 0
-822 -29 0
-822 -34 0
-822 -35 0
-822 -36 0
-822 -343 0
-822 -344 0
-822 -345 0
-822 -346 0
-822 -347 0
-822 -348 0
-822 -349 0
-822 -350 0
-822 -351 0
-822 -352 0
-822 -353 0
-822 -358 0
-822 -359 0
-822 -360 0
-822 -397 0
-822 -398 0
-822 -399 0
-822 -400 0
-822 -401 0
-822 -402 0
-822 -403 0
-822 -404 0
-822 -405 0
-822 -406 0
-822 -407 0
-822 -412 0
-822 -413 0
-822 -414 0
-822 -451 0
-822 -452 0
-822 -453 0
-822 -454 0
-822 -455 0
-822 -456 0
-822 -457 0
-822 -458 0
-822 -459 0
-822 -460 0
-822 -461 0
-822 -466 0
-822 -467 0
-822 -468 0
-823 -19 0
-823 -20 0
-823 -21 0
-823 -22 0
-823 -23 0
-823 -24 0
-823 -25 0
-823 -26 0
-823 -27 0
-823 -28 0
-823 -29 0
-823 -30 0
-823 -35 0
-823 -36 0
-823 -343 0
-823 -344 0
-823 -345 0
-823 -346 0
-823 -347 0
-823 -348 0
-823 -349 0
-823 -350 0
-823 -351 0
-823 -352 0
-823 -353 0
-823 -354 0
-823 -359 0
-823 -360 0
-823 -397 0
-823 -398 0
-823 -399 0
-823 -400 0
-823 -401 0
-823 -402 0
-823 -403 0
-823 -404 0
-823 -405 0
-823 -406 0
-823 -407 0
-823 -408 0
-823 -413 0
-823 -414 0
-823 -451 0
-823 -452 0
-823 -453 0
-823 -454 0
-823 -455 0
-823 -456 0
-823 -457 0
-823 -458 0
-823 -459 0
-823 -460 0
-823 -461 0
-823 -462 0
-823 -467 0
-823 -468 0
-824 -19 0
-824 -20 0
-824 -21 0
-824 -22 0
-824 -23 0
-824 -24 0
-824 -25 0
-824 -26 0
-824 -27 0
-824 -28 0
-824 -29 0
-824 -30 0
-824 -31 0
-824 -36 0
-824 -343 0
-824 -344 0
-824 -345 0
-824 -346 0
-824 -347 0
-824 -348 0
-824 -349 0
-824 -350 0
-824 -351 0
-824 -352 0
-824 -353 0
-824 -354 0
-824 -355 0
-824 -360 0
-824 -397 0
-824 -398 0
-824 -399 0
-824 -400 0
-824 -401 0
-824 -402 0
-824 -403 0
-824 -404 0
-824 -405 0
-824 -406 0
-824 -407 0
-824 -408 0
-824 -409 0
-824 -414 0
-824 -451 0
-824 -452 0
-824 -453 0
-824 -454 0
-824 -455 0
-824 -456 0
-824 -457 0
-824 -458 0
-824 -459 0
-824 -460 0
-824 -461 0
-824 -462 0
-824 -463 0
-824 -468 0
-825 -19 0
-825 -20 0
-825 -21 0
-825 -22 0
-825 -23 0
-825 -24 0
-825 -25 0
-825 -26 0
-825 -27 0
-825 -28 0
-825 -29 0
-825 -30 0
-825 -31 0
-825 -32 0
-825 -343 0
-825 -344 0
-825 -345 0
-825 -346 0
-825 -347 0
-825 -348 0
-825 -349 0
-825 -350 0
-825 -351 0
-825 -352 0
-825 -353 0
-825 -354 0
-825 -355 0
-825 -356 0
-825 -397 0
-825 -398 0
-825 -399 0
-825 -400 0
-825 -401 0
-825 -402 0
-825 -403 0
-825 -404 0
-825 -405 0
-825 -406 0
-825 -407 0
-825 -408 0
-825 -409 0
-825 -410 0
-825 -451 0
-825 -452 0
-825 -453 0
-825 -454 0
-825 -455 0
-825 -456 0
-825 -457 0
-825 -458 0
-825 -459 0
-825 -460 0
-825 -461 0
-825 -462 0
-825 -463 0
-825 -464 0
-127 -181 0
-127 -505 0
-127 -559 0
-181 -505 0
-181 -559 0
-505 -559 0
-128 -182 0
-128 -506 0
-128 -560 0
-182 -506 0
-182 -560 0
-506 -560 0
-129 -183 0
-129 -507 0
-129 -561 0
-183 -507 0
-183 -561 0
-507 -561 0
-130 -184 0
-130 -508 0
-130 -562 0
-184 -508 0
-184 -562 0
-508 -562 0
-131 -185 0
-131 -509 0
-131 -563 0
-185 -509 0
-185 -563 0
-509 -563 0
-132 -186 0
-132 -510 0
-132 -564 0
-186 -510 0
-186 -564 0
-510 -564 0
-133 -187 0
-133 -511 0
-133 -565 0
-187 -511 0
-187 -565 0
-511 -565 0
-134 -188 0
-134 -512 0
-134 -566 0
-188 -512 0
-188 -566 0
-512 -566 0
-135 -189 0
-135 -513 0
-135 -567 0
-189 -513 0
-189 -567 0
-513 -567 0
-136 -190 0
-136 -514 0
-136 -568 0
-190 -514 0
-190 -568 0
-514 -568 0
-137 -191 0
-137 -515 0
-137 -569 0
-191 -515 0
-191 -569 0
-515 -569 0
-138 -192 0
-138 -516 0
-138 -570 0
-192 -516 0
-192 -570 0
-516 -570 0
-139 -193 0
-139 -517 0
-139 -571 0
-193 -517 0
-193 -571 0
-517 -571 0
-140 -194 0
-140 -518 0
-140 -572 0
-194 -518 0
-194 -572 0
-518 -572 0
-141 -195 0
-141 -519 0
-141 -573 0
-195 -519 0
-195 -573 0
-519 -573 0
-142 -196 0
-142 -520 0
-142 -574 0
-196 -520 0
-196 -574 0
-520 -574 0
-143 -197 0
-143 -521 0
-143 -575 0
-197 -521 0
-197 -575 0
-521 -575 0
-144 -198 0
-144 -522 0
-144 -576 0
-198 -522 0
-198 -576 0
-522 -576 0
826 827 828 829 830 831 832 833 834 835 836 837 838 839 840 0
-826 -827 0
-826 -828 0
-826 -829 0
-826 -830 0
-826 -831 0
-826 -832 0
-826 -833 0
-826 -834 0
-826 -835 0
-826 -836 0
-826 -837 0
-826 -838 0
-826 -839 0
-826 -840 0
-827 -828 0
-827 -829 0
-827 -830 0
-827 -831 0
-827 -832 0
-827 -833 0
-827 -834 0
-827 -835 0
-827 -836 0
-827 -837 0
-827 -838 0
-827 -839 0
-827 -840 0
-828 -829 0
-828 -830 0
-828 -831 0
-828 -832 0
-828 -833 0
-828 -834 0
-828 -835 0
-828 -836 0
-828 -837 0
-828 -838 0
-828 -839 0
-828 -840 0
-829 -830 0
-829 -831 0
-829 -832 0
-829 -833 0
-829 -834 0
-829 -835 0
-829 -836 0
-829 -837 0
-829 -838 0
-829 -839 0
-829 -840 0
-830 -831 0
-830 -832 0
-830 -833 0
-830 -834 0
-830 -835 0
-830 -836 0
-830 -837 0
-830 -838 0
-830 -839 0
-830 -840 0
-831 -832 0
-831 -833 0
-831 -834 0
-831 -835 0
-831 -836 0
-831 -837 0
-831 -838 0
-831 -839 0
-831 -840 0
-832 -833 0
-832 -834 0
-832 -835 0
-832 -836 0
-832 -837 0
-832 -838 0
-832 -839 0
-832 -840 0
-833 -834 0
-833 -835 0
-833 -836 0
-833 -837 0
-833 -838 0
-833 -839 0
-833 -840 0
-834 -835 0
-834 -836 0
-834 -837 0
-834 -838 0
-834 -839 0
-834 -840 0
-835 -836 0
-835 -837 0
-835 -838 0
-835 -839 0
-835 -840 0
-836 -837 0
-836 -838 0
-836 -839 0
-836 -840 0
-837 -838 0
-837 -839 0
-837 -840 0
-838 -839 0
-838 -840 0
-839 -840 0
-127 826 0
-128 826 827 0
-129 826 827 828 0
-130 826 827 828 829 0
-131 827 828 829 830 0
-132 828 829 830 831 0
-133 829 830 831 832 0
-134 830 831 832 833 0
-135 831 832 833 834 0
-136 832 833 834 835 0
-137 833 834 835 836 0
-138 834 835 836 837 0
-139 835 836 837 838 0
-140 836 837 838 839 0
-141 837 838 839 840 0
-142 838 839 840 0
-143 839 840 0
-144 840 0
-181 826 0
-182 826 827 0
-183 826 827 828 0
-184 826 827 828 829 0
-185 827 828 829 830 0
-186 828 829 830 831 0
-187 829 830 831 832 0
-188 830 831 832 833 0
-189 831 832 833 834 0
-190 832 833 834 835 0
-191 833 834 835 836 0
-192 834 835 836 837 0
-193 835 836 837 838 0
-194 836 837 838 839 0
-195 837 838 839 840 0
-196 838 839 840 0
-197 839 840 0
-198 840 0
-505 826 0
-506 826 827 0
-507 826 827 828 0
-508 826 827 828 829 0
-509 827 828 829 830 0
-510 828 829 830 831 0
-511 829 830 831 832 0
-512 830 831 832 833 0
-513 831 832 833 834 0
-514 832 833 834 835 0
-515 833 834 835 836 0
-516 834 835 836 837 0
-517 835 836 837 838 0
-518 836 837 838 839 0
-519 837 838 839 840 0
-520 838 839 840 0
-521 839 840 0
-522 840 0
-559 826 0
-560 826 827 0
-561 826 827 828 0
-562 826 827 828 829 0
-563 827 828 829 830 0
-564 828 829 830 831 0
-565 829 830 831 832 0
-566 830 831 832 833 0
-567 831 832 833 834 0
-568 832 833 834 835 0
-569 833 834 835 836 0
-570 834 835 836 837 0
-571 835 836 837 838 0
-572 836 837 838 839 0
-573 837 838 839 840 0
-574 838 839 840 0
-575 839 840 0
-576 840 0
-826 -131 0
-826 -132 0
-826 -133 0
-826 -134 0
-826 -135 0
-826 -136 0
-826 -137 0
-826 -138 0
-826 -139 0
-826 -140 0
-826 -141 0
-826 -142 0
-826 -143 0
-826 -144 0
-826 -185 0
-826 -186 0
-826 -187 0
-826 -188 0
-826 -189 0
-826 -190 0
-826 -191 0
-826 -192 0
-826 -193 0
-826 -194 0
-826 -195 0
-826 -196 0
-826 -197 0
-826 -198 0
-826 -509 0
-826 -510 0
-826 -511 0
-826 -512 0
-826 -513 0
-826 -514 0
-826 -515 0
-826 -516 0
-826 -517 0
-826 -518 0
-826 -519 0
-826 -520 0
-826 -521 0
-826 -522 0
-826 -563 0
-826 -564 0
-826 -565 0
-826 -566 0
-826 -567 0
-826 -568 0
-826 -569 0
-826 -570 0
-826 -571 0
-826 -572 0
-826 -573 0
-826 -574 0
-826 -575 0
-826 -576 0
-827 -127 0
-827 -132 0
-827 -133 0
-827 -134 0
-827 -135 0
-827 -136 0
-827 -137 0
-827 -138 0
-827 -139 0
-827 -140 0
-827 -141 0
-827 -142 0
-827 -143 0
-827 -144 0
-827 -181 0
-827 -186 0
-827 -187 0
-827 -188 0
-827 -189 0
-827 -190 0
-827 -191 0
-827 -192 0
-827 -193 0
-827 -194 0
-827 -195 0
-827 -196 0
-827 -197 0
-827 -198 0
-827 -505 0
-827 -510 0
-827 -511 0
-827 -512 0
-827 -513 0
-827 -514 0
-827 -515 0
-827 -516 0
-827 -517 0
-827 -518 0
-827 -519 0
-827 -520 0
-827 -521 0
-827 -522 0
-827 -559 0
-827 -564 0
-827 -565 0
-827 -566 0
-827 -567 0
-827 -568 0
-827 -569 0
-827 -570 0
-827 -571 0
-827 -572 0
-827 -573 0
-827 -574 0
-827 -575 0
-827 -576 0
-828 -127 0
-828 -128 0
-828 -133 0
-828 -134 0
-828 -135 0
-828 -136 0
-828 -137 0
-828 -138 0
-828 -139 0
-828 -140 0
-828 -141 0
-828 -142 0
-828 -143 0
-828 -144 0
-828 -181 0
-828 -182 0
-828 -187 0
-828 -188 0
-828 -189 0
-828 -190 0
-828 -191 0
-828 -192 0
-828 -193 0
-828 -194 0
-828 -195 0
-828 -196 0
-828 -197 0
-828 -198 0
-828 -505 0
-828 -506 0
-828 -511 0
-828 -512 0
-828 -513 0
-828 -514 0
-828 -515 0
-828 -516 0
-828 -517 0
-828 -518 0
-828 -519 0
-828 -520 0
-828 -521 0
-828 -522 0
-828 -559 0
-828 -560 0
-828 -565 0
-828 -566 0
-828 -567 0
-828 -568 0
-828 -569 0
-828 -570 0
-828 -571 0
-828 -572 0
-828 -573 0
-828 -574 0
-828 -575 0
-828 -576 0
-829 -127 0
-829 -128 0
-829 -129 0
-829 -134 0
-829 -135 0
-829 -136 0
-829 -137 0
-829 -138 0
-829 -139 0
-829 -140 0
-829 -141 0
-829 -142 0
-829 -143 0
-829 -144 0
-829 -181 0
-829 -182 0
-829 -183 0
-829 -188 0
-829 -189 0
-829 -190 0
-829 -191 0
-829 -192 0
-829 -193 0
-829 -194 0
-829 -195 0
-829 -196 0
-829 -197 0
-829 -198 0
-829 -505 0
-829 -506 0
-829 -507 0
-829 -512 0
-829 -513 0
-829 -514 0
-829 -515 0
-829 -516 0
-829 -517 0
-829 -518 0
-829 -519 0
-829 -520 0
-829 -521 0
-829 -522 0
-829 -559 0
-829 -560 0
-829 -561 0
-829 -566 0
-829 -567 0
-829 -568 0
-829 -569 0
-829 -570 0
-829 -571 0
-829 -572 0
-829 -573 0
-829 -574 0
-829 -575 0
-829 -576 0
-830 -127 0
-830 -128 0
-830 -129 0
-830 -130 0
-830 -135 0
-830 -136 0
-830 -137 0
-830 -138 0
-830 -139 0
-830 -140 0
-830 -141 0
-830 -142 0
-830 -143 0
-830 -144 0
-830 -181 0
-830 -182 0
-830 -183 0
-830 -184 0
-830 -189 0
-830 -190 0
-830 -191 0
-830 -192 0
-830 -193 0
-830 -194 0
-830 -195 0
-830 -196 0
-830 -197 0
-830 -198 0
-830 -505 0
-830 -506 0
-830 -507 0
-830 -508 0
-830 -513 0
-830 -514 0
-830 -515 0
-830 -516 0
-830 -517 0
-830 -518 0
-830 -519 0
-830 -520 0
-830 -521 0
-830 -522 0
-830 -559 0
-830 -560 0
-830 -561 0
-830 -562 0
-830 -567 0
-830 -568 0
-830 -569 0
-830 -570 0
-830 -571 0
-830 -572 0
-830 -573 0
-830 -574 0
-830 -575 0
-830 -576 0
-831 -127 0
-831 -128 0
-831 -129 0
-831 -130 0
-831 -131 0
-831 -136 0
-831 -137 0
-831 -138 0
-831 -139 0
-831 -140 0
-831 -141 0
-831 -142 0
-831 -143 0
-831 -144 0
-831 -181 0
-831 -182 0
-831 -183 0
-831 -184 0
-831 -185 0
-831 -190 0
-831 -191 0
-831 -192 0
-831 -193 0
-831 -194 0
-831 -195 0
-831 -196 0
-831 -197 0
-831 -198 0
-831 -505 0
-831 -506 0
-831 -507 0
-831 -508 0
-831 -509 0
-831 -514 0
-831 -515 0
-831 -516 0
-831 -517 0
-831 -518 0
-831 -519 0
-831 -520 0
-831 -521 0
-831 -522 0
-831 -559 0
-831 -560 0
-831 -561 0
-831 -562 0
-831 -563 0
-831 -568 0
-831 -569 0
-831 -570 0
-831 -571 0
-831 -572 0
-831 -573 0
-831 -574 0
-831 -575 0
-831 -576 0
-832 -127 0
-832 -128 0
-832 -129 0
-832 -130 0
-832 -131 0
-832 -132 0
-832 -137 0
-832 -138 0
-832 -139 0
-832 -140 0
-832 -141 0
-832 -142 0
-832 -143 0
-832 -144 0
-832 -181 0
-832 -182 0
-832 -183 0
-832 -184 0
-832 -185 0
-832 -186 0
-832 -191 0
-832 -192 0
-832 -193 0
-832 -194 0
-832 -195 0
-832 -196 0
-832 -197 0
-832 -198 0
-832 -505 0
-832 -506 0
-832 -507 0
-832 -508 0
-832 -509 0
-832 -510 0
-832 -515 0
-832 -516 0
-832 -517 0
-832 -518 0
-832 -519 0
-832 -520 0
-832 -521 0
-832 -522 0
-832 -559 0
-832 -560 0
-832 -561 0
-832 -562 0
-832 -563 0
-832 -564 0
-832 -569 0
-832 -570 0
-832 -571 0
-832 -572 0
-832 -573 0
-832 -574 0
-832 -575 0
-832 -576 0
-833 -127 0
-833 -128 0
-833 -129 0
-833 -130 0
-833 -131 0
-833 -132 0
-833 -133 0
-833 -138 0
-833 -139 0
-833 -140 0
-833 -141 0
-833 -142 0
-833 -143 0
-833 -144 0
-833 -181 0
-833 -182 0
-833 -183 0
-833 -184 0
-833 -185 0
-833 -186 0
-833 -187 0
-833 -192 0
-833 -193 0
-833 -194 0
-833 -195 0
-833 -196 0
-833 -197 0
-833 -198 0
-833 -505 0
-833 -506 0
-833 -507 0
-833 -508 0
-833 -509 0
-833 -510 0
-833 -511 0
-833 -516 0
-833 -517 0
-833 -518 0
-833 -519 0
-833 -520 0
-833 -521 0
-833 -522 0
-833 -559 0
-833 -560 0
-833 -561 0
-833 -562 0
-833 -563 0
-833 -564 0
-833 -565 0
-833 -570 0
-833 -571 0
-833 -572 0
-833 -573 0
-833 -574 0
-833 -575 0
-833 -576 0
-834 -127 0
-834 -128 0
-834 -129 0
-834 -130 0
-834 -131 0
-834 -132 0
-834 -133 0
-834 -134 0
-834 -139 0
-834 -140 0
-834 -141 0
-834 -142 0
-834 -143 0
-834 -144 0
-834 -181 0
-834 -182 0
-834 -183 0
-834 -184 0
-834 -185 0
-834 -186 0
-834 -187 0
-834 -188 0
-834 -193 0
-834 -194 0
-834 -195 0
-834 -196 0
-834 -197 0
-834 -198 0
-834 -505 0
-834 -506 0
-834 -507 0
-834 -508 0
-834 -509 0
-834 -510 0
-834 -511 0
-834 -512 0
-834 -517 0
-834 -518 0
-834 -519 0
-834 -520 0
-834 -521 0
-834 -522 0
-834 -559 0
-834 -560 0
-834 -561 0
-834 -562 0
-834 -563 0
-834 -564 0
-834 -565 0
-834 -566 0
-834 -571 0
-834 -572 0
-834 -573 0
-834 -574 0
-834 -575 0
-834 -576 0
-835 -127 0
-835 -128 0
-835 -129 0
-835 -130 0
-835 -131 0
-835 -132 0
-835 -133 0
-835 -134 0
-835 -135 0
-835 -140 0
-835 -141 0
-835 -142 0
-835 -143 0
-835 -144 0
-835 -181 0
-835 -182 0
-835 -183 0
-835 -184 0
-835 -185 0
-835 -186 0
-835 -187 0
-835 -188 0
-835 -189 0
-835 -194 0
-835 -195 0
-835 -196 0
-835 -197 0
-835 -198 0
-835 -505 0
-835 -506 0
-835 -507 0
-835 -508 0
-835 -509 0
-835 -510 0
-835 -511 0
-835 -512 0
-835 -513 0
-835 -518 0
-835 -519 0
-835 -520 0
-835 -521 0
-835 -522 0
-835 -559 0
-835 -560 0
-835 -561 0
-835 -562 0
-835 -563 0
-835 -564 0
-835 -565 0
-835 -566 0
-835 -567 0
-835 -572 0
-835 -573 0
-835 -574 0
-835 -575 0
-835 -576 0
-836 -127 0
-836 -128 0
-836 -129 0
-836 -130 0
-836 -131 0
-836 -132 0
-836 -133 0
-836 -134 0
-836 -135 0
-836 -136 0
-836 -141 0
-836 -142 0
-836 -143 0
-836 -144 0
-836 -181 0
-836 -182 0
-836 -183 0
-836 -184 0
-836 -185 0
-836 -186 0
-836 -187 0
-836 -188 0
-836 -189 0
-836 -190 0
-836 -195 0
-836 -196 0
-836 -197 0
-836 -198 0
-836 -505 0
-836 -506 0
-836 -507 0
-836 -508 0
-836 -509 0
-836 -510 0
-836 -511 0
-836 -512 0
-836 -513 0
-836 -514 0
-836 -519 0
-836 -520 0
-836 -521 0
-836 -522 0
-836 -559 0
-836 -560 0
-836 -561 0
-836 -562 0
-836 -563 0
-836 -564 0
-836 -565 0
-836 -566 0
-836 -567 0
-836 -568 0
-836 -573 0
-836 -574 0
-836 -575 0
-836 -576 0
-837 -127 0
-837 -128 0
-837 -129 0
-837 -130 0
-837 -131 0
-837 -132 0
-837 -133 0
-837 -134 0
-837 -135 0
-837 -136 0
-837 -137 0
-837 -142 0
-837 -143 0
-837 -144 0
-837 -181 0
-837 -182 0
-837 -183 0
-837 -184 0
-837 -185 0
-837 -186 0
-837 -187 0
-837 -188 0
-837 -189 0
-837 -190 0
-837 -191 0
-837 -196 0
-837 -197 0
-837 -198 0
-837 -505 0
-837 -506 0
-837 -507 0
-837 -508 0
-837 -509 0
-837 -510 0
-837 -511 0
-837 -512 0
-837 -513 0
-837 -514 0
-837 -515 0
-837 -520 0
-837 -521 0
-837 -522 0
-837 -559 0
-837 -560 0
-837 -561 0
-837 -562 0
-837 -563 0
-837 -564 0
-837 -565 0
-837 -566 0
-837 -567 0
-837 -568 0
-837 -569 0
-837 -574 0
-837 -575 0
-837 -576 0
-838 -127 0
-838 -128 0
-838 -129 0
-838 -130 0
-838 -131 0
-838 -132 0
-838 -133 0
-838 -134 0
-838 -135 0
-838 -136 0
-838 -137 0
-838 -138 0
-838 -143 0
-838 -144 0
-838 -181 0
-838 -182 0
-838 -183 0
-838 -184 0
-838 -185 0
-838 -186 0
-838 -187 0
-838 -188 0
-838 -189 0
-838 -190 0
-838 -191 0
-838 -192 0
-838 -197 0
-838 -198 0
-838 -505 0
-838 -506 0
-838 -507 0
-838 -508 0
-838 -509 0
-838 -510 0
-838 -511 0
-838 -512 0
-838 -513 0
-838 -514 0
-838 -515 0
-838 -516 0
-838 -521 0
-838 -522 0
-838 -559 0
-838 -560 0
-838 -561 0
-838 -562 0
-838 -563 0
-838 -564 0
-838 -565 0
-838 -566 0
-838 -567 0
-838 -568 0
-838 -569 0
-838 -570 0
-838 -575 0
-838 -576 0
-839 -127 0
-839 -128 0
-839 -129 0
-839 -130 0
-839 -131 0
-839 -132 0
-839 -133 0
-839 -134 0
-839 -135 0
-839 -136 0
-839 -137 0
-839 -138 0
-839 -139 0
-839 -144 0
-839 -181 0
-839 -182 0
-839 -183 0
-839 -184 0
-839 -185 0
-839 -186 0
-839 -187 0
-839 -188 0
-839 -189 0
-839 -190 0
-839 -191 0
-839 -192 0
-839 -193 0
-839 -198 0
-839 -505 0
-839 -506 0
-839 -507 0
-839 -508 0
-839 -509 0
-839 -510 0
-839 -511 0
-839 -512 0
-839 -513 0
-839 -514 0
-839 -515 0
-839 -516 0
-839 -517 0
-839 -522 0
-839 -559 0
-839 -560 0
-839 -561 0
-839 -562 0
-839 -563 0
-839 -564 0
-839 -565 0
-839 -566 0
-839 -567 0
-839 -568 0
-839 -569 0
-839 -570 0
-839 -571 0
-839 -576 0
-840 -127 0
-840 -128 0
-840 -129 0
-840 -130 0
-840 -131 0
-840 -132 0
-840 -133 0
-840 -134 0
-840 -135 0
-840 -136 0
-840 -137 0
-840 -138 0
-840 -139 0
-840 -140 0
-840 -181 0
-840 -182 0
-840 -183 0
-840 -184 0
-840 -185 0
-840 -186 0
-840 -187 0
-840 -188 0
-840 -189 0
-840 -190 0
-840 -191 0
-840 -192 0
-840 -193 0
-840 -194 0
-840 -505 0
-840 -506 0
-840 -507 0
-840 -508 0
-840 -509 0
-840 -510 0
-840 -511 0
-840 -512 0
-840 -513 0
-840 -514 0
-840 -515 0
-840 -516 0
-840 -517 0
-840 -518 0
-840 -559 0
-840 -560 0
-840 -561 0
-840 -562 0
-840 -563 0
-840 -564 0
-840 -565 0
-840 -566 0
-840 -567 0
-840 -568 0
-840 -569 0
-840 -570 0
-840 -571 0
-840 -572 0
-37 -523 0
-38 -524 0
-39 -525 0
-40 -526 0
-41 -527 0
-42 -528 0
-43 -529 0
-44 -530 0
-45 -531 0
-46 -532 0
-47 -533 0
-48 -534 0
-49 -535 0
-50 -536 0
-51 -537 0
-52 -538 0
-53 -539 0
-54 -540 0
841 842 843 844 845 846 847 848 849 850 851 852 853 854 855 856 857 0
-841 -842 0
-841 -843 0
-841 -844 0
-841 -845 0
-841 -846 0
-841 -847 0
-841 -848 0
-841 -849 0
-841 -850 0
-841 -851 0
-841 -852 0
-841 -853 0
-841 -854 0
-841 -855 0
-841 -856 0
-841 -857 0
-842 -843 0
-842 -844 0
-842 -845 0
-842 -846 0
-842 -847 0
-842 -848 0
-842 -849 0
-842 -850 0
-842 -851 0
-842 -852 0
-842 -853 0
-842 -854 0
-842 -855 0
-842 -856 0
-842 -857 0
-843 -844 0
-843 -845 0
-843 -846 0
-843 -847 0
-843 -848 0
-843 -849 0
-843 -850 0
-843 -851 0
-843 -852 0
-843 -853 0
-843 -854 0
-843 -855 0
-843 -856 0
-843 -857 0
-844 -845 0
-844 -846 0
-844 -847 0
-844 -848 0
-844 -849 0
-844 -850 0
-844 -851 0
-844 -852 0
-844 -853 0
-844 -854 0
-844 -855 0
-844 -856 0
-844 -857 0
-845 -846 0
-845 -847 0
-845 -848 0
-845 -849 0
-845 -850 0
-845 -851 0
-845 -852 0
-845 -853 0
-845 -854 0
-845 -855 0
-845 -856 0
-845 -857 0
-846 -847 0
-846 -848 0
-846 -849 0
-846 -850 0
-846 -851 0
-846 -852 0
-846 -853 0
-846 -854 0
-846 -855 0
-846 -856 0
-846 -857 0
-847 -848 0
-847 -849 0
-847 -850 0
-847 -851 0
-847 -852 0
-847 -853 0
-847 -854 0
-847 -855 0
-847 -856 0
-847 -857 0
-848 -849 0
-848 -850 0
-848 -851 0
-848 -852 0
-848 -853 0
-848 -854 0
-848 -855 0
-848 -856 0
-848 -857 0
-849 -850 0
-849 -851 0
-849 -852 0
-849 -853 0
-849 -854 0
-849 -855 0
-849 -856 0
-849 -857 0
-850 -851 0
-850 -852 0
-850 -853 0
-850 -854 0
-850 -855 0
-850 -856 0
-850 -857 0
-851 -852 0
-851 -853 0
-851 -854 0
-851 -855 0
-851 -856 0
-851 -857 0
-852 -853 0
-852 -854 0
-852 -855 0
-852 -856 0
-852 -857 0
-853 -854 0
-853 -855 0
-853 -856 0
-853 -857 0
-854 -855 0
-854 -856 0
-854 -857 0
-855 -856 0
-855 -857 0
-856 -857 0
-37 841 0
-38 841 842 0
-39 842 843 0
-40 843 844 0
-41 844 845 0
-42 845 846 0
-43 846 847 0
-44 847 848 0
-45 848 849 0
-46 849 850 0
-47 850 851 0
-48 851 852 0
-49 852 853 0
-50 853 854 0
-51 854 855 0
-52 855 856 0
-53 856 857 0
-54 857 0
-523 841 0
-524 841 842 0
-525 842 843 0
-526 843 844 0
-527 844 845 0
-528 845 846 0
-529 846 847 0
-530 847 848 0
-531 848 849 0
-532 849 850 0
-533 850 851 0
-534 851 852 0
-535 852 853 0
-536 853 854 0
-537 854 855 0
-538 855 856 0
-539 856 857 0
-540 857 0
-841 -39 0
-841 -40 0
-841 -41 0
-841 -42 0
-841 -43 0
-841 -44 0
-841 -45 0
-841 -46 0
-841 -47 0
-841 -48 0
-841 -49 0
-841 -50 0
-841 -51 0
-841 -52 0
-841 -53 0
-841 -54 0
-841 -525 0
-841 -526 0
-841 -527 0
-841 -528 0
-841 -529 0
-841 -530 0
-841 -531 0
-841 -532 0
-841 -533 0
-841 -534 0
-841 -535 0
-841 -536 0
-841 -537 0
-841 -538 0
-841 -539 0
-841 -540 0
-842 -37 0
-842 -40 0
-842 -41 0
-842 -42 0
-842 -43 0
-842 -44 0
-842 -45 0
-842 -46 0
-842 -47 0
-842 -48 0
-842 -49 0
-842 -50 0
-842 -51 0
-842 -52 0
-842 -53 0
-842 -54 0
-842 -523 0
-842 -526 0
-842 -527 0
-842 -528 0
-842 -529 0
-842 -530 0
-842 -531 0
-842 -532 0
-842 -533 0
-842 -534 0
-842 -535 0
-842 -536 0
-842 -537 0
-842 -538 0
-842 -539 0
-842 -540 0
-843 -37 0
-843 -38 0
-843 -41 0
-843 -42 0
-843 -43 0
-843 -44 0
-843 -45 0
-843 -46 0
-843 -47 0
-843 -48 0
-843 -49 0
-843 -50 0
-843 -51 0
-843 -52 0
-843 -53 0
-843 -54 0
-843 -523 0
-843 -524 0
-843 -527 0
-843 -528 0
-843 -529 0
-843 -530 0
-843 -531 0
-843 -532 0
-843 -533 0
-843 -534 0
-843 -535 0
-843 -536 0
-843 -537 0
-843 -538 0
-843 -539 0
-843 -540 0
-844 -37 0
-844 -38 0
-844 -39 0
-844 -42 0
-844 -43 0
-844 -44 0
-844 -45 0
-844 -46 0
-844 -47 0
-844 -48 0
-844 -49 0
-844 -50 0
-844 -51 0
-844 -52 0
-844 -53 0
-844 -54 0
-844 -523 0
-844 -524 0
-844 -525 0
-844 -528 0
-844 -529 0
-844 -530 0
-844 -531 0
-844 -532 0
-844 -533 0
-844 -534 0
-844 -535 0
-844 -536 0
-844 -537 0
-844 -538 0
-844 -539 0
-844 -540 0
-845 -37 0
-845 -38 0
-845 -39 0
-845 -40 0
-845 -43 0
-845 -44 0
-845 -45 0
-845 -46 0
-845 -47 0
-845 -48 0
-845 -49 0
-845 -50 0
-845 -51 0
-845 -52 0
-845 -53 0
-845 -54 0
-845 -523 0
-845 -524 0
-845 -525 0
-845 -526 0
-845 -529 0
-845 -530 0
-845 -531 0
-845 -532 0
-845 -533 0
-845 -534 0
-845 -535 0
-845 -536 0
-845 -537 0
-845 -538 0
-845 -539 0
-845 -540 0
-846 -37 0
-846 -38 0
-846 -39 0
-846 -40 0
-846 -41 0
-846 -44 0
-846 -45 0
-846 -46 0
-846 -47 0
-846 -48 0
-846 -49 0
-846 -50 0
-846 -51 0
-846 -52 0
-846 -53 0
-846 -54 0
-846 -523 0
-846 -524 0
-846 -525 0
-846 -526 0
-846 -527 0
-846 -530 0
-846 -531 0
-846 -532 0
-846 -533 0
-846 -534 0
-846 -535 0
-846 -536 0
-846 -537 0
-846 -538 0
-846 -539 0
-846 -540 0
-847 -37 0
-847 -38 0
-847 -39 0
-847 -40 0
-847 -41 0
-847 -42 0
-847 -45 0
-847 -46 0
-847 -47 0
-847 -48 0
-847 -49 0
-847 -50 0
-847 -51 0
-847 -52 0
-847 -53 0
-847 -54 0
-847 -523 0
-847 -524 0
-847 -525 0
-847 -526 0
-847 -527 0
-847 -528 0
-847 -531 0
-847 -532 0
-847 -533 0
-847 -534 0
-847 -535 0
-847 -536 0
-847 -537 0
-847 -538 0
-847 -539 0
-847 -540 0
-848 -37 0
-848 -38 0
-848 -39 0
-848 -40 0
-848 -41 0
-848 -42 0
-848 -43 0
-848 -46 0
-848 -47 0
-848 -48 0
-848 -49 0
-848 -50 0
-848 -51 0
-848 -52 0
-848 -53 0
-848 -54 0
-848 -523 0
-848 -524 0
-848 -525 0
-848 -526 0
-848 -527 0
-848 -528 0
-848 -529 0
-848 -532 0
-848 -533 0
-848 -534 0
-848 -535 0
-848 -536 0
-848 -537 0
-848 -538 0
-848 -539 0
-848 -540 0
-849 -37 0
-849 -38 0
-849 -39 0
-849 -40 0
-849 -41 0
-849 -42 0
-849 -43 0
-849 -44 0
-849 -47 0
-849 -48 0
-849 -49 0
-849 -50 0
-849 -51 0
-849 -52 0
-849 -53 0
-849 -54 0
-849 -523 0
-849 -524 0
-849 -525 0
-849 -526 0
-849 -527 0
-849 -528 0
-849 -529 0
-849 -530 0
-849 -533 0
-849 -534 0
-849 -535 0
-849 -536 0
-849 -537 0
-849 -538 0
-849 -539 0
-849 -540 0
-850 -37 0
-850 -38 0
-850 -39 0
-850 -40 0
-850 -41 0
-850 -42 0
-850 -43 0
-850 -44 0
-850 -45 0
-850 -48 0
-850 -49 0
-850 -50 0
-850 -51 0
-850 -52 0
-850 -53 0
-850 -54 0
-850 -523 0
-850 -524 0
-850 -525 0
-850 -526 0
-850 -527 0
-850 -528 0
-850 -529 0
-850 -530 0
-850 -531 0
-850 -534 0
-850 -535 0
-850 -536 0
-850 -537 0
-850 -538 0
-850 -539 0
-850 -540 0
-851 -37 0
-851 -38 0
-851 -39 0
-851 -40 0
-851 -41 0
-851 -42 0
-851 -43 0
-851 -44 0
-851 -45 0
-851 -46 0
-851 -49 0
-851 -50 0
-851 -51 0
-851 -52 0
-851 -53 0
-851 -54 0
-851 -523 0
-851 -524 0
-851 -525 0
-851 -526 0
-851 -527 0
-851 -528 0
-851 -529 0
-851 -530 0
-851 -531 0
-851 -532 0
-851 -535 0
-851 -536 0
-851 -537 0
-851 -538 0
-851 -539 0
-851 -540 0
-852 -37 0
-852 -38 0
-852 -39 0
-852 -40 0
-852 -41 0
-852 -42 0
-852 -43 0
-852 -44 0
-852 -45 0
-852 -46 0
-852 -47 0
-852 -50 0
-852 -51 0
-852 -52 0
-852 -53 0
-852 -54 0
-852 -523 0
-852 -524 0
-852 -525 0
-852 -526 0
-852 -527 0
-852 -528 0
-852 -529 0
-852 -530 0
-852 -531 0
-852 -532 0
-852 -533 0
-852 -536 0
-852 -537 0
-852 -538 0
-852 -539 0
-852 -540 0
-853 -37 0
-853 -38 0
-853 -39 0
-853 -40 0
-853 -41 0
-853 -42 0
-853 -43 0
-853 -44 0
-853 -45 0
-853 -46 0
-853 -47 0
-853 -48 0
-853 -51 0
-853 -52 0
-853 -53 0
-853 -54 0
-853 -523 0
-853 -524 0
-853 -525 0
-853 -526 0
-853 -527 0
-853 -528 0
-853 -529 0
-853 -530 0
-853 -531 0
-853 -532 0
-853 -533 0
-853 -534 0
-853 -537 0
-853 -538 0
-853 -539 0
-853 -540 0
-854 -37 0
-854 -38 0
-854 -39 0
-854 -40 0
-854 -41 0
-854 -42 0
-854 -43 0
-854 -44 0
-854 -45 0
-854 -46 0
-854 -47 0
-854 -48 0
-854 -49 0
-854 -52 0
-854 -53 0
-854 -54 0
-854 -523 0
-854 -524 0
-854 -525 0
-854 -526 0
-854 -527 0
-854 -528 0
-854 -529 0
-854 -530 0
-854 -531 0
-854 -532 0
-854 -533 0
-854 -534 0
-854 -535 0
-854 -538 0
-854 -539 0
-854 -540 0
-855 -37 0
-855 -38 0
-855 -39 0
-855 -40 0
-855 -41 0
-855 -42 0
-855 -43 0
-855 -44 0
-855 -45 0
-855 -46 0
-855 -47 0
-855 -48 0
-855 -49 0
-855 -50 0
-855 -53 0
-855 -54 0
-855 -523 0
-855 -524 0
-855 -525 0
-855 -526 0
-855 -527 0
-855 -528 0
-855 -529 0
-855 -530 0
-855 -531 0
-855 -532 0
-855 -533 0
-855 -534 0
-855 -535 0
-855 -536 0
-855 -539 0
-855 -540 0
-856 -37 0
-856 -38 0
-856 -39 0
-856 -40 0
-856 -41 0
-856 -42 0
-856 -43 0
-856 -44 0
-856 -45 0
-856 -46 0
-856 -47 0
-856 -48 0
-856 -49 0
-856 -50 0
-856 -51 0
-856 -54 0
-856 -523 0
-856 -524 0
-856 -525 0
-856 -526 0
-856 -527 0
-856 -528 0
-856 -529 0
-856 -530 0
-856 -531 0
-856 -532 0
-856 -533 0
-856 -534 0
-856 -535 0
-856 -536 0
-856 -537 0
-856 -540 0
-857 -37 0
-857 -38 0
-857 -39 0
-857 -40 0
-857 -41 0
-857 -42 0
-857 -43 0
-857 -44 0
-857 -45 0
-857 -46 0
-857 -47 0
-857 -48 0
-857 -49 0
-857 -50 0
-857 -51 0
-857 -52 0
-857 -523 0
-857 -524 0
-857 -525 0
-857 -526 0
-857 -527 0
-857 -528 0
-857 -529 0
-857 -530 0
-857 -531 0
-857 -532 0
-857 -533 0
-857 -534 0
-857 -535 0
-857 -536 0
-857 -537 0
-857 -538 0
-91 -361 0
-91 -577 0
-361 -577 0
-92 -362 0
-92 -578 0
-362 -578 0
-93 -363 0
-93 -579 0
-363 -579 0
-94 -364 0
-94 -580 0
-364 -580 0
-95 -365 0
-95 -581 0
-365 -581 0
-96 -366 0
-96 -582 0
-366 -582 0
-97 -367 0
-97 -583 0
-367 -583 0
-98 -368 0
-98 -584 0
-368 -584 0
-99 -369 0
-99 -585 0
-369 -585 0
-100 -370 0
-100 -586 0
-370 -586 0
-101 -371 0
-101 -587 0
-371 -587 0
-102 -372 0
-102 -588 0
-372 -588 0
-103 -373 0
-103 -589 0
-373 -589 0
-104 -374 0
-104 -590 0
-374 -590 0
-105 -375 0
-105 -591 0
-375 -591 0
-106 -376 0
-106 -592 0
-376 -592 0
-107 -377 0
-107 -593 0
-377 -593 0
-108 -378 0
-108 -594 0
-378 -594 0
858 859 860 861 862 863 864 865 866 867 868 869 870 871 872 873 0
-858 -859 0
-858 -860 0
-858 -861 0
-858 -862 0
-858 -863 0
-858 -864 0
-858 -865 0
-858 -866 0
-858 -867 0
-858 -868 0
-858 -869 0
-858 -870 0
-858 -871 0
-858 -872 0
-858 -873 0
-859 -860 0
-859 -861 0
-859 -862 0
-859 -863 0
-859 -864 0
-859 -865 0
-859 -866 0
-859 -867 0
-859 -868 0
-859 -869 0
-859 -870 0
-859 -871 0
-859 -872 0
-859 -873 0
-860 -861 0
-860 -862 0
-860 -863 0
-860 -864 0
-860 -865 0
-860 -866 0
-860 -867 0
-860 -868 0
-860 -869 0
-860 -870 0
-860 -871 0
-860 -872 0
-860 -873 0
-861 -862 0
-861 -863 0
-861 -864 0
-861 -865 0
-861 -866 0
-861 -867 0
-861 -868 0
-861 -869 0
-861 -870 0
-861 -871 0
-861 -872 0
-861 -873 0
-862 -863 0
-862 -864 0
-862 -865 0
-862 -866 0
-862 -867 0
-862 -868 0
-862 -869 0
-862 -870 0
-862 -871 0
-862 -872 0
-862 -873 0
-863 -864 0
-863 -865 0
-863 -866 0
-863 -867 0
-863 -868 0
-863 -869 0
-863 -870 0
-863 -871 0
-863 -872 0
-863 -873 0
-864 -865 0
-864 -866 0
-864 -867 0
-864 -868 0
-864 -869 0
-864 -870 0
-864 -871 0
-864 -872 0
-864 -873 0
-865 -866 0
-865 -867 0
-865 -868 0
-865 -869 0
-865 -870 0
-865 -871 0
-865 -872 0
-865 -873 0
-866 -867 0
-866 -868 0
-866 -869 0
-866 -870 0
-866 -871 0
-866 -872 0
-866 -873 0
-867 -868 0
-867 -869 0
-867 -870 0
-867 -871 0
-867 -872 0
-867 -873 0
-868 -869 0
-868 -870 0
-868 -871 0
-868 -872 0
-868 -873 0
-869 -870 0
-869 -871 0
-869 -872 0
-869 -873 0
-870 -871 0
-870 -872 0
-870 -873 0
-871 -872 0
-871 -873 0
-872 -873 0
-91 858 0
-92 858 859 0
-93 858 859 860 0
-94 859 860 861 0
-95 860 861 862 0
-96 861 862 863 0
-97 862 863 864 0
-98 863 864 865 0
-99 864 865 866 0
-100 865 866 867 0
-101 866 867 868 0
-102 867 868 869 0
-103 868 869 870 0
-104 869 870 871 0
-105 870 871 872 0
-106 871 872 873 0
-107 872 873 0
-108 873 0
-361 858 0
-362 858 859 0
-363 858 859 860 0
-364 859 860 861 0
-365 860 861 862 0
-366 861 862 863 0
-367 862 863 864 0
-368 863 864 865 0
-369 864 865 866 0
-370 865 866 867 0
-371 866 867 868 0
-372 867 868 869 0
-373 868 869 870 0
-374 869 870 871 0
-375 870 871 872 0
-376 871 872 873 0
-377 872 873 0
-378 873 0
-577 858 0
-578 858 859 0
-579 858 859 860 0
-580 859 860 861 0
-581 860 861 862 0
-582 861 862 863 0
-583 862 863 864 0
-584 863 864 865 0
-585 864 865 866 0
-586 865 866 867 0
-587 866 867 868 0
-588 867 868 869 0
-589 868 869 870 0
-590 869 870 871 0
-591 870 871 872 0
-592 871 872 873 0
-593 872 873 0
-594 873 0
-858 -94 0
-858 -95 0
-858 -96 0
-858 -97 0
-858 -98 0
-858 -99 0
-858 -100 0
-858 -101 0
-858 -102 0
-858 -103 0
-858 -104 0
-858 -105 0
-858 -106 0
-858 -107 0
-858 -108 0
-858 -364 0
-858 -365 0
-858 -366 0
-858 -367 0
-858 -368 0
-858 -369 0
-858 -370 0
-858 -371 0
-858 -372 0
-858 -373 0
-858 -374 0
-858 -375 0
-858 -376 0
-858 -377 0
-858 -378 0
-858 -580 0
-858 -581 0
-858 -582 0
-858 -583 0
-858 -584 0
-858 -585 0
-858 -586 0
-858 -587 0
-858 -588 0
-858 -589 0
-858 -590 0
-858 -591 0
-858 -592 0
-858 -593 0
-858 -594 0
-859 -91 0
-859 -95 0
-859 -96 0
-859 -97 0
-859 -98 0
-859 -99 0
-859 -100 0
-859 -101 0
-859 -102 0
-859 -103 0
-859 -104 0
-859 -105 0
-859 -106 0
-859 -107 0
-859 -108 0
-859 -361 0
-859 -365 0
-859 -366 0
-859 -367 0
-859 -368 0
-859 -369 0
-859 -370 0
-859 -371 0
-859 -372 0
-859 -373 0
-859 -374 0
-859 -375 0
-859 -376 0
-859 -377 0
-859 -378 0
-859 -577 0
-859 -581 0
-859 -582 0
-859 -583 0
-859 -584 0
-859 -585 0
-859 -586 0
-859 -587 0
-859 -588 0
-859 -589 0
-859 -590 0
-859 -591 0
-859 -592 0
-859 -593 0
-859 -594 0
-860 -91 0
-860 -92 0
-860 -96 0
-860 -97 0
-860 -98 0
-860 -99 0
-860 -100 0
-860 -101 0
-860 -102 0
-860 -103 0
-860 -104 0
-860 -105 0
-860 -106 0
-860 -107 0
-860 -108 0
-860 -361 0
-860 -362 0
-860 -366 0
-860 -367 0
-860 -368 0
-860 -369 0
-860 -370 0
-860 -371 0
-860 -372 0
-860 -373 0
-860 -374 0
-860 -375 0
-860 -376 0
-860 -377 0
-860 -378 0
-860 -577 0
-860 -578 0
-860 -582 0
-860 -583 0
-860 -584 0
-860 -585 0
-860 -586 0
-860 -587 0
-860 -588 0
-860 -589 0
-860 -590 0
-860 -591 0
-860 -592 0
-860 -593 0
-860 -594 0
-861 -91 0
-861 -92 0
-861 -93 0
-861 -97 0
-861 -98 0
-861 -99 0
-861 -100 0
-861 -101 0
-861 -102 0
-861 -103 0
-861 -104 0
-861 -105 0
-861 -106 0
-861 -107 0
-861 -108 0
-861 -361 0
-861 -362 0
-861 -363 0
-861 -367 0
-861 -368 0
-861 -369 0
-861 -370 0
-861 -371 0
-861 -372 0
-861 -373 0
-861 -374 0
-861 -375 0
-861 -376 0
-861 -377 0
-861 -378 0
-861 -577 0
-861 -578 0
-861 -579 0
-861 -583 0
-861 -584 0
-861 -585 0
-861 -586 0
-861 -587 0
-861 -588 0
-861 -589 0
-861 -590 0
-861 -591 0
-861 -592 0
-861 -593 0
-861 -594 0
-862 -91 0
-862 -92 0
-862 -93 0
-862 -94 0
-862 -98 0
-862 -99 0
-862 -100 0
-862 -101 0
-862 -102 0
-862 -103 0
-862 -104 0
-862 -105 0
-862 -106 0
-862 -107 0
-862 -108 0
-862 -361 0
-862 -362 0
-862 -363 0
-862 -364 0
-862 -368 0
-862 -369 0
-862 -370 0
-862 -371 0
-862 -372 0
-862 -373 0
-862 -374 0
-862 -375 0
-862 -376 0
-862 -377 0
-862 -378 0
-862 -577 0
-862 -578 0
-862 -579 0
-862 -580 0
-862 -584 0
-862 -585 0
-862 -586 0
-862 -587 0
-862 -588 0
-862 -589 0
-862 -590 0
-862 -591 0
-862 -592 0
-862 -593 0
-862 -594 0
-863 -91 0
-863 -92 0
-863 -93 0
-863 -94 0
-863 -95 0
-863 -99 0
-863 -100 0
-863 -101 0
-863 -102 0
-863 -103 0
-863 -104 0
-863 -105 0
-863 -106 0
-863 -107 0
-863 -108 0
-863 -361 0
-863 -362 0
-863 -363 0
-863 -364 0
-863 -365 0
-863 -369 0
-863 -370 0
-863 -371 0
-863 -372 0
-863 -373 0
-863 -374 0
-863 -375 0
-863 -376 0
-863 -377 0
-863 -378 0
-863 -577 0
-863 -578 0
-863 -579 0
-863 -580 0
-863 -581 0
-863 -585 0
-863 -586 0
-863 -587 0
-863 -588 0
-863 -589 0
-863 -590 0
-863 -591 0
-863 -592 0
-863 -593 0
-863 -594 0
-864 -91 0
-864 -92 0
-864 -93 0
-864 -94 0
-864 -95 0
-864 -96 0
-864 -100 0
-864 -101 0
-864 -102 0
-864 -103 0
-864 -104 0
-864 -105 0
-864 -106 0
-864 -107 0
-864 -108 0
-864 -361 0
-864 -362 0
-864 -363 0
-864 -364 0
-864 -365 0
-864 -366 0
-864 -370 0
-864 -371 0
-864 -372 0
-864 -373 0
-864 -374 0
-864 -375 0
-864 -376 0
-864 -377 0
-864 -378 0
-864 -577 0
-864 -578 0
-864 -579 0
-864 -580 0
-864 -581 0
-864 -582 0
-864 -586 0
-864 -587 0
-864 -588 0
-864 -589 0
-864 -590 0
-864 -591 0
-864 -592 0
-864 -593 0
-864 -594 0
-865 -91 0
-865 -92 0
-865 -93 0
-865 -94 0
-865 -95 0
-865 -96 0
-865 -97 0
-865 -101 0
-865 -102 0
-865 -103 0
-865 -104 0
-865 -105 0
-865 -106 0
-865 -107 0
-865 -108 0
-865 -361 0
-865 -362 0
-865 -363 0
-865 -364 0
-865 -365 0
-865 -366 0
-865 -367 0
-865 -371 0
-865 -372 0
-865 -373 0
-865 -374 0
-865 -375 0
-865 -376 0
-865 -377 0
-865 -378 0
-865 -577 0
-865 -578 0
-865 -579 0
-865 -580 0
-865 -581 0
-865 -582 0
-865 -583 0
-865 -587 0
-865 -588 0
-865 -589 0
-865 -590 0
-865 -591 0
-865 -592 0
-865 -593 0
-865 -594 0
-866 -91 0
-866 -92 0
-866 -93 0
-866 -94 0
-866 -95 0
-866 -96 0
-866 -97 0
-866 -98 0
-866 -102 0
-866 -103 0
-866 -104 0
-866 -105 0
-866 -106 0
-866 -107 0
-866 -108 0
-866 -361 0
-866 -362 0
-866 -363 0
-866 -364 0
-866 -365 0
-866 -366 0
-866 -367 0
-866 -368 0
-866 -372 0
-866 -373 0
-866 -374 0
-866 -375 0
-866 -376 0
-866 -377 0
-866 -378 0
-866 -577 0
-866 -578 0
-866 -579 0
-866 -580 0
-866 -581 0
-866 -582 0
-866 -583 0
-866 -584 0
-866 -588 0
-866 -589 0
-866 -590 0
-866 -591 0
-866 -592 0
-866 -593 0
-866 -594 0
-867 -91 0
-867 -92 0
-867 -93 0
-867 -94 0
-867 -95 0
-867 -96 0
-867 -97 0
-867 -98 0
-867 -99 0
-867 -103 0
-867 -104 0
-867 -105 0
-867 -106 0
-867 -107 0
-867 -108 0
-867 -361 0
-867 -362 0
-867 -363 0
-867 -364 0
-867 -365 0
-867 -366 0
-867 -367 0
-867 -368 0
-867 -369 0
-867 -373 0
-867 -374 0
-867 -375 0
-867 -376 0
-867 -377 0
-867 -378 0
-867 -577 0
-867 -578 0
-867 -579 0
-867 -580 0
-867 -581 0
-867 -582 0
-867 -583 0
-867 -584 0
-867 -585 0
-867 -589 0
-867 -590 0
-867 -591 0
-867 -592 0
-867 -593 0
-867 -594 0
-868 -91 0
-868 -92 0
-868 -93 0
-868 -94 0
-868 -95 0
-868 -96 0
-868 -97 0
-868 -98 0
-868 -99 0
-868 -100 0
-868 -104 0
-868 -105 0
-868 -106 0
-868 -107 0
-868 -108 0
-868 -361 0
-868 -362 0
-868 -363 0
-868 -364 0
-868 -365 0
-868 -366 0
-868 -367 0
-868 -368 0
-868 -369 0
-868 -370 0
-868 -374 0
-868 -375 0
-868 -376 0
-868 -377 0
-868 -378 0
-868 -577 0
-868 -578 0
-868 -579 0
-868 -580 0
-868 -581 0
-868 -582 0
-868 -583 0
-868 -584 0
-868 -585 0
-868 -586 0
-868 -590 0
-868 -591 0
-868 -592 0
-868 -593 0
-868 -594 0
-869 -91 0
-869 -92 0
-869 -93 0
-869 -94 0
-869 -95 0
-869 -96 0
-869 -97 0
-869 -98 0
-869 -99 0
-869 -100 0
-869 -101 0
-869 -105 0
-869 -106 0
-869 -107 0
-869 -108 0
-869 -361 0
-869 -362 0
-869 -363 0
-869 -364 0
-869 -365 0
-869 -366 0
-869 -367 0
-869 -368 0
-869 -369 0
-869 -370 0
-869 -371 0
-869 -375 0
-869 -376 0
-869 -377 0
-869 -378 0
-869 -577 0
-869 -578 0
-869 -579 0
-869 -580 0
-869 -581 0
-869 -582 0
-869 -583 0
-869 -584 0
-869 -585 0
-869 -586 0
-869 -587 0
-869 -591 0
-869 -592 0
-869 -593 0
-869 -594 0
-870 -91 0
-870 -92 0
-870 -93 0
-870 -94 0
-870 -95 0
-870 -96 0
-870 -97 0
-870 -98 0
-870 -99 0
-870 -100 0
-870 -101 0
-870 -102 0
-870 -106 0
-870 -107 0
-870 -108 0
-870 -361 0
-870 -362 0
-870 -363 0
-870 -364 0
-870 -365 0
-870 -366 0
-870 -367 0
-870 -368 0
-870 -369 0
-870 -370 0
-870 -371 0
-870 -372 0
-870 -376 0
-870 -377 0
-870 -378 0
-870 -577 0
-870 -578 0
-870 -579 0
-870 -580 0
-870 -581 0
-870 -582 0
-870 -583 0
-870 -584 0
-870 -585 0
-870 -586 0
-870 -587 0
-870 -588 0
-870 -592 0
-870 -593 0
-870 -594 0
-871 -91 0
-871 -92 0
-871 -93 0
-871 -94 0
-871 -95 0
-871 -96 0
-871 -97 0
-871 -98 0
-871 -99 0
-871 -100 0
-871 -101 0
-871 -102 0
-871 -103 0
-871 -107 0
-871 -108 0
-871 -361 0
-871 -362 0
-871 -363 0
-871 -364 0
-871 -365 0
-871 -366 0
-871 -367 0
-871 -368 0
-871 -369 0
-871 -370 0
-871 -371 0
-871 -372 0
-871 -373 0
-871 -377 0
-871 -378 0
-871 -577 0
-871 -578 0
-871 -579 0
-871 -580 0
-871 -581 0
-871 -582 0
-871 -583 0
-871 -584 0
-871 -585 0
-871 -586 0
-871 -587 0
-871 -588 0
-871 -589 0
-871 -593 0
-871 -594 0
-872 -91 0
-872 -92 0
-872 -93 0
-872 -94 0
-872 -95 0
-872 -96 0
-872 -97 0
-872 -98 0
-872 -99 0
-872 -100 0
-872 -101 0
-872 -102 0
-872 -103 0
-872 -104 0
-872 -108 0
-872 -361 0
-872 -362 0
-872 -363 0
-872 -364 0
-872 -365 0
-872 -366 0
-872 -367 0
-872 -368 0
-872 -369 0
-872 -370 0
-872 -371 0
-872 -372 0
-872 -373 0
-872 -374 0
-872 -378 0
-872 -577 0
-872 -578 0
-872 -579 0
-872 -580 0
-872 -581 0
-872 -582 0
-872 -583 0
-872 -584 0
-872 -585 0
-872 -586 0
-872 -587 0
-872 -588 0
-872 -589 0
-872 -590 0
-872 -594 0
-873 -91 0
-873 -92 0
-873 -93 0
-873 -94 0
-873 -95 0
-873 -96 0
-873 -97 0
-873 -98 0
-873 -99 0
-873 -100 0
-873 -101 0
-873 -102 0
-873 -103 0
-873 -104 0
-873 -105 0
-873 -361 0
-873 -362 0
-873 -363 0
-873 -364 0
-873 -365 0
-873 -366 0
-873 -367 0
-873 -368 0
-873 -369 0
-873 -370 0
-873 -371 0
-873 -372 0
-873 -373 0
-873 -374 0
-873 -375 0
-873 -577 0
-873 -578 0
-873 -579 0
-873 -580 0
-873 -581 0
-873 -582 0
-873 -583 0
-873 -584 0
-873 -585 0
-873 -586 0
-873 -587 0
-873 -588 0
-873 -589 0
-873 -590 0
-873 -591 0
-145 -253 0
-145 -415 0
-253 -415 0
-146 -254 0
-146 -416 0
-254 -416 0
-147 -255 0
-147 -417 0
-255 -417 0
-148 -256 0
-148 -418 0
-256 -418 0
-149 -257 0
-149 -419 0
-257 -419 0
-150 -258 0
-150 -420 0
-258 -420 0
-151 -259 0
-151 -421 0
-259 -421 0
-152 -260 0
-152 -422 0
-260 -422 0
-153 -261 0
-153 -423 0
-261 -423 0
-154 -262 0
-154 -424 0
-262 -424 0
-155 -263 0
-155 -425 0
-263 -425 0
-156 -264 0
-156 -426 0
-264 -426 0
-157 -265 0
-157 -427 0
-265 -427 0
-158 -266 0
-158 -428 0
-266 -428 0
-159 -267 0
-159 -429 0
-267 -429 0
-160 -268 0
-160 -430 0
-268 -430 0
-161 -269 0
-161 -431 0
-269 -431 0
-162 -270 0
-162 -432 0
-270 -432 0
874 875 876 877 878 879 880 881 882 883 884 885 886 887 888 889 0
-874 -875 0
-874 -876 0
-874 -877 0
-874 -878 0
-874 -879 0
-874 -880 0
-874 -881 0
-874 -882 0
-874 -883 0
-874 -884 0
-874 -885 0
-874 -886 0
-874 -887 0
-874 -888 0
-874 -889 0
-875 -876 0
-875 -877 0
-875 -878 0
-875 -879 0
-875 -880 0
-875 -881 0
-875 -882 0
-875 -883 0
-875 -884 0
-875 -885 0
-875 -886 0
-875 -887 0
-875 -888 0
-875 -889 0
-876 -877 0
-876 -878 0
-876 -879 0
-876 -880 0
-876 -881 0
-876 -882 0
-876 -883 0
-876 -884 0
-876 -885 0
-876 -886 0
-876 -887 0
-876 -888 0
-876 -889 0
-877 -878 0
-877 -879 0
-877 -880 0
-877 -881 0
-877 -882 0
-877 -883 0
-877 -884 0
-877 -885 0
-877 -886 0
-877 -887 0
-877 -888 0
-877 -889 0
-878 -879 0
-878 -880 0
-878 -881 0
-878 -882 0
-878 -883 0
-878 -884 0
-878 -885 0
-878 -886 0
-878 -887 0
-878 -888 0
-878 -889 0
-879 -880 0
-879 -881 0
-879 -882 0
-879 -883 0
-879 -884 0
-879 -885 0
-879 -886 0
-879 -887 0
-879 -888 0
-879 -889 0
-880 -881 0
-880 -882 0
-880 -883 0
-880 -884 0
-880 -885 0
-880 -886 0
-880 -887 0
-880 -888 0
-880 -889 0
-881 -882 0
-881 -883 0
-881 -884 0
-881 -885 0
-881 -886 0
-881 -887 0
-881 -888 0
-881 -889 0
-882 -883 0
-882 -884 0
-882 -885 0
-882 -886 0
-882 -887 0
-882 -888 0
-882 -889 0
-883 -884 0
-883 -885 0
-883 -886 0
-883 -887 0
-883 -888 0
-883 -889 0
-884 -885 0
-884 -886 0
-884 -887 0
-884 -888 0
-884 -889 0
-885 -886 0
-885 -887 0
-885 -888 0
-885 -889 0
-886 -887 0
-886 -888 0
-886 -889 0
-887 -888 0
-887 -889 0
-888 -889 0
-145 874 0
-146 874 875 0
-147 874 875 876 0
-148 875 876 877 0
-149 876 877 878 0
-150 877 878 879 0
-151 878 879 880 0
-152 879 880 881 0
-153 880 881 882 0
-154 881 882 883 0
-155 882 883 884 0
-156 883 884 885 0
-157 884 885 886 0
-158 885 886 887 0
-159 886 887 888 0
-160 887 888 889 0
-161 888 889 0
-162 889 0
-253 874 0
-254 874 875 0
-255 874 875 876 0
-256 875 876 877 0
-257 876 877 878 0
-258 877 878 879 0
-259 878 879 880 0
-260 879 880 881 0
-261 880 881 882 0
-262 881 882 883 0
-263 882 883 884 0
-264 883 884 885 0
-265 884 885 886 0
-266 885 886 887 0
-267 886 887 888 0
-268 887 888 889 0
-269 888 889 0
-270 889 0
-415 874 0
-416 874 875 0
-417 874 875 876 0
-418 875 876 877 0
-419 876 877 878 0
-420 877 878 879 0
-421 878 879 880 0
-422 879 880 881 0
-423 880 881 882 0
-424 881 882 883 0
-425 882 883 884 0
-426 883 884 885 0
-427 884 885 886 0
-428 885 886 887 0
-429 886 887 888 0
-430 887 888 889 0
-431 888 889 0
-432 889 0
-874 -148 0
-874 -149 0
-874 -150 0
-874 -151 0
-874 -152 0
-874 -153 0
-874 -154 0
-874 -155 0
-874 -156 0
-874 -157 0
-874 -158 0
-874 -159 0
-874 -160 0
-874 -161 0
-874 -162 0
-874 -256 0
-874 -257 0
-874 -258 0
-874 -259 0
-874 -260 0
-874 -261 0
-874 -262 0
-874 -263 0
-874 -264 0
-874 -265 0
-874 -266 0
-874 -267 0
-874 -268 0
-874 -269 0
-874 -270 0
-874 -418 0
-874 -419 0
-874 -420 0
-874 -421 0
-874 -422 0
-874 -423 0
-874 -424 0
-874 -425 0
-874 -426 0
-874 -427 0
-874 -428 0
-874 -429 0
-874 -430 0
-874 -431 0
-874 -432 0
-875 -145 0
-875 -149 0
-875 -150 0
-875 -151 0
-875 -152 0
-875 -153 0
-875 -154 0
-875 -155 0
-875 -156 0
-875 -157 0
-875 -158 0
-875 -159 0
-875 -160 0
-875 -161 0
-875 -162 0
-875 -253 0
-875 -257 0
-875 -258 0
-875 -259 0
-875 -260 0
-875 -261 0
-875 -262 0
-875 -263 0
-875 -264 0
-875 -265 0
-875 -266 0
-875 -267 0
-875 -268 0
-875 -269 0
-875 -270 0
-875 -415 0
-875 -419 0
-875 -420 0
-875 -421 0
-875 -422 0
-875 -423 0
-875 -424 0
-875 -425 0
-875 -426 0
-875 -427 0
-875 -428 0
-875 -429 0
-875 -430 0
-875 -431 0
-875 -432 0
-876 -145 0
-876 -146 0
-876 -150 0
-876 -151 0
-876 -152 0
-876 -153 0
-876 -154 0
-876 -155 0
-876 -156 0
-876 -157 0
-876 -158 0
-876 -159 0
-876 -160 0
-876 -161 0
-876 -162 0
-876 -253 0
-876 -254 0
-876 -258 0
-876 -259 0
-876 -260 0
-876 -261 0
-876 -262 0
-876 -263 0
-876 -264 0
-876 -265 0
-876 -266 0
-876 -267 0
-876 -268 0
-876 -269 0
-876 -270 0
-876 -415 0
-876 -416 0
-876 -420 0
-876 -421 0
-876 -422 0
-876 -423 0
-876 -424 0
-876 -425 0
-876 -426 0
-876 -427 0
-876 -428 0
-876 -429 0
-876 -430 0
-876 -431 0
-876 -432 0
-877 -145 0
-877 -146 0
-877 -147 0
-877 -151 0
-877 -152 0
-877 -153 0
-877 -154 0
-877 -155 0
-877 -156 0
-877 -157 0
-877 -158 0
-877 -159 0
-877 -160 0
-877 -161 0
-877 -162 0
-877 -253 0
-877 -254 0
-877 -255 0
-877 -259 0
-877 -260 0
-877 -261 0
-877 -262 0
-877 -263 0
-877 -264 0
-877 -265 0
-877 -266 0
-877 -267 0
-877 -268 0
-877 -269 0
-877 -270 0
-877 -415 0
-877 -416 0
-877 -417 0
-877 -421 0
-877 -422 0
-877 -423 0
-877 -424 0
-877 -425 0
-877 -426 0
-877 -427 0
-877 -428 0
-877 -429 0
-877 -430 0
-877 -431 0
-877 -432 0
-878 -145 0
-878 -146 0
-878 -147 0
-878 -148 0
-878 -152 0
-878 -153 0
-878 -154 0
-878 -155 0
-878 -156 0
-878 -157 0
-878 -158 0
-878 -159 0
-878 -160 0
-878 -161 0
-878 -162 0
-878 -253 0
-878 -254 0
-878 -255 0
-878 -256 0
-878 -260 0
-878 -261 0
-878 -262 0
-878 -263 0
-878 -264 0
-878 -265 0
-878 -266 0
-878 -267 0
-878 -268 0
-878 -269 0
-878 -270 0
-878 -415 0
-878 -416 0
-878 -417 0
-878 -418 0
-878 -422 0
-878 -423 0
-878 -424 0
-878 -425 0
-878 -426 0
-878 -427 0
-878 -428 0
-878 -429 0
-878 -430 0
-878 -431 0
-878 -432 0
-879 -145 0
-879 -146 0
-879 -147 0
-879 -148 0
-879 -149 0
-879 -153 0
-879 -154 0
-879 -155 0
-879 -156 0
-879 -157 0
-879 -158 0
-879 -159 0
-879 -160 0
-879 -161 0
-879 -162 0
-879 -253 0
-879 -254 0
-879 -255 0
-879 -256 0
-879 -257 0
-879 -261 0
-879 -262 0
-879 -263 0
-879 -264 0
-879 -265 0
-879 -266 0
-879 -267 0
-879 -268 0
-879 -269 0
-879 -270 0
-879 -415 0
-879 -416 0
-879 -417 0
-879 -418 0
-879 -419 0
-879 -423 0
-879 -424 0
-879 -425 0
-879 -426 0
-879 -427 0
-879 -428 0
-879 -429 0
-879 -430 0
-879 -431 0
-879 -432 0
-880 -145 0
-880 -146 0
-880 -147 0
-880 -148 0
-880 -149 0
-880 -150 0
-880 -154 0
-880 -155 0
-880 -156 0
-880 -157 0
-880 -158 0
-880 -159 0
-880 -160 0
-880 -161 0
-880 -162 0
-880 -253 0
-880 -254 0
-880 -255 0
-880 -256 0
-880 -257 0
-880 -258 0
-880 -262 0
-880 -263 0
-880 -264 0
-880 -265 0
-880 -266 0
-880 -267 0
-880 -268 0
-880 -269 0
-880 -270 0
-880 -415 0
-880 -416 0
-880 -417 0
-880 -418 0
-880 -419 0
-880 -420 0
-880 -424 0
-880 -425 0
-880 -426 0
-880 -427 0
-880 -428 0
-880 -429 0
-880 -430 0
-880 -431 0
-880 -432 0
-881 -145 0
-881 -146 0
-881 -147 0
-881 -148 0
-881 -149 0
-881 -150 0
-881 -151 0
-881 -155 0
-881 -156 0
-881 -157 0
-881 -158 0
-881 -159 0
-881 -160 0
-881 -161 0
-881 -162 0
-881 -253 0
-881 -254 0
-881 -255 0
-881 -256 0
-881 -257 0
-881 -258 0
-881 -259 0
-881 -263 0
-881 -264 0
-881 -265 0
-881 -266 0
-881 -267 0
-881 -268 0
-881 -269 0
-881 -270 0
-881 -415 0
-881 -416 0
-881 -417 0
-881 -418 0
-881 -419 0
-881 -420 0
-881 -421 0
-881 -425 0
-881 -426 0
-881 -427 0
-881 -428 0
-881 -429 0
-881 -430 0
-881 -431 0
-881 -432 0
-882 -145 0
-882 -146 0
-882 -147 0
-882 -148 0
-882 -149 0
-882 -150 0
-882 -151 0
-882 -152 0
-882 -156 0
-882 -157 0
-882 -158 0
-882 -159 0
-882 -160 0
-882 -161 0
-882 -162 0
-882 -253 0
-882 -254 0
-882 -255 0
-882 -256 0
-882 -257 0
-882 -258 0
-882 -259 0
-882 -260 0
-882 -264 0
-882 -265 0
-882 -266 0
-882 -267 0
-882 -268 0
-882 -269 0
-882 -270 0
-882 -415 0
-882 -416 0
-882 -417 0
-882 -418 0
-882 -419 0
-882 -420 0
-882 -421 0
-882 -422 0
-882 -426 0
-882 -427 0
-882 -428 0
-882 -429 0
-882 -430 0
-882 -431 0
-882 -432 0
-883 -145 0
-883 -146 0
-883 -147 0
-883 -148 0
-883 -149 0
-883 -150 0
-883 -151 0
-883 -152 0
-883 -153 0
-883 -157 0
-883 -158 0
-883 -159 0
-883 -160 0
-883 -161 0
-883 -162 0
-883 -253 0
-883 -254 0
-883 -255 0
-883 -256 0
-883 -257 0
-883 -258 0
-883 -259 0
-883 -260 0
-883 -261 0
-883 -265 0
-883 -266 0
-883 -267 0
-883 -268 0
-883 -269 0
-883 -270 0
-883 -415 0
-883 -416 0
-883 -417 0
-883 -418 0
-883 -419 0
-883 -420 0
-883 -421 0
-883 -422 0
-883 -423 0
-883 -427 0
-883 -428 0
-883 -429 0
-883 -430 0
-883 -431 0
-883 -432 0
-884 -145 0
-884 -146 0
-884 -147 0
-884 -148 0
-884 -149 0
-884 -150 0
-884 -151 0
-884 -152 0
-884 -153 0
-884 -154 0
-884 -158 0
-884 -159 0
-884 -160 0
-884 -161 0
-884 -162 0
-884 -253 0
-884 -254 0
-884 -255 0
-884 -256 0
-884 -257 0
-884 -258 0
-884 -259 0
-884 -260 0
-884 -261 0
-884 -262 0
-884 -266 0
-884 -267 0
-884 -268 0
-884 -269 0
-884 -270 0
-884 -415 0
-884 -416 0
-884 -417 0
-884 -418 0
-884 -419 0
-884 -420 0
-884 -421 0
-884 -422 0
-884 -423 0
-884 -424 0
-884 -428 0
-884 -429 0
-884 -430 0
-884 -431 0
-884 -432 0
-885 -145 0
-885 -146 0
-885 -147 0
-885 -148 0
-885 -149 0
-885 -150 0
-885 -151 0
-885 -152 0
-885 -153 0
-885 -154 0
-885 -155 0
-885 -159 0
-885 -160 0
-885 -161 0
-885 -162 0
-885 -253 0
-885 -254 0
-885 -255 0
-885 -256 0
-885 -257 0
-885 -258 0
-885 -259 0
-885 -260 0
-885 -261 0
-885 -262 0
-885 -263 0
-885 -267 0
-885 -268 0
-885 -269 0
-885 -270 0
-885 -415 0
-885 -416 0
-885 -417 0
-885 -418 0
-885 -419 0
-885 -420 0
-885 -421 0
-885 -422 0
-885 -423 0
-885 -424 0
-885 -425 0
-885 -429 0
-885 -430 0
-885 -431 0
-885 -432 0
-886 -145 0
-886 -146 0
-886 -147 0
-886 -148 0
-886 -149 0
-886 -150 0
-886 -151 0
-886 -152 0
-886 -153 0
-886 -154 0
-886 -155 0
-886 -156 0
-886 -160 0
-886 -161 0
-886 -162 0
-886 -253 0
-886 -254 0
-886 -255 0
-886 -256 0
-886 -257 0
-886 -258 0
-886 -259 0
-886 -260 0
-886 -261 0
-886 -262 0
-886 -263 0
-886 -264 0
-886 -268 0
-886 -269 0
-886 -270 0
-886 -415 0
-886 -416 0
-886 -417 0
-886 -418 0
-886 -419 0
-886 -420 0
-886 -421 0
-886 -422 0
-886 -423 0
-886 -424 0
-886 -425 0
-886 -426 0
-886 -430 0
-886 -431 0
-886 -432 0
-887 -145 0
-887 -146 0
-887 -147 0
-887 -148 0
-887 -149 0
-887 -150 0
-887 -151 0
-887 -152 0
-887 -153 0
-887 -154 0
-887 -155 0
-887 -156 0
-887 -157 0
-887 -161 0
-887 -162 0
-887 -253 0
-887 -254 0
-887 -255 0
-887 -256 0
-887 -257 0
-887 -258 0
-887 -259 0
-887 -260 0
-887 -261 0
-887 -262 0
-887 -263 0
-887 -264 0
-887 -265 0
-887 -269 0
-887 -270 0
-887 -415 0
-887 -416 0
-887 -417 0
-887 -418 0
-887 -419 0
-887 -420 0
-887 -421 0
-887 -422 0
-887 -423 0
-887 -424 0
-887 -425 0
-887 -426 0
-887 -427 0
-887 -431 0
-887 -432 0
-888 -145 0
-888 -146 0
-888 -147 0
-888 -148 0
-888 -149 0
-888 -150 0
-888 -151 0
-888 -152 0
-888 -153 0
-888 -154 0
-888 -155 0
-888 -156 0
-888 -157 0
-888 -158 0
-888 -162 0
-888 -253 0
-888 -254 0
-888 -255 0
-888 -256 0
-888 -257 0
-888 -258 0
-888 -259 0
-888 -260 0
-888 -261 0
-888 -262 0
-888 -263 0
-888 -264 0
-888 -265 0
-888 -266 0
-888 -270 0
-888 -415 0
-888 -416 0
-888 -417 0
-888 -418 0
-888 -419 0
-888 -420 0
-888 -421 0
-888 -422 0
-888 -423 0
-888 -424 0
-888 -425 0
-888 -426 0
-888 -427 0
-888 -428 0
-888 -432 0
-889 -145 0
-889 -146 0
-889 -147 0
-889 -148 0
-889 -149 0
-889 -150 0
-889 -151 0
-889 -152 0
-889 -153 0
-889 -154 0
-889 -155 0
-889 -156 0
-889 -157 0
-889 -158 0
-889 -159 0
-889 -253 0
-889 -254 0
-889 -255 0
-889 -256 0
-889 -257 0
-889 -258 0
-889 -259 0
-889 -260 0
-889 -261 0
-889 -262 0
-889 -263 0
-889 -264 0
-889 -265 0
-889 -266 0
-889 -267 0
-889 -415 0
-889 -416 0
-889 -417 0
-889 -418 0
-889 -419 0
-889 -420 0
-889 -421 0
-889 -422 0
-889 -423 0
-889 -424 0
-889 -425 0
-889 -426 0
-889 -427 0
-889 -428 0
-889 -429 0
-199 -307 0
-199 -469 0
-307 -469 0
-200 -308 0
-200 -470 0
-308 -470 0
-201 -309 0
-201 -471 0
-309 -471 0
-202 -310 0
-202 -472 0
-310 -472 0
-203 -311 0
-203 -473 0
-311 -473 0
-204 -312 0
-204 -474 0
-312 -474 0
-205 -313 0
-205 -475 0
-313 -475 0
-206 -314 0
-206 -476 0
-314 -476 0
-207 -315 0
-207 -477 0
-315 -477 0
-208 -316 0
-208 -478 0
-316 -478 0
-209 -317 0
-209 -479 0
-317 -479 0
-210 -318 0
-210 -480 0
-318 -480 0
-211 -319 0
-211 -481 0
-319 -481 0
-212 -320 0
-212 -482 0
-320 -482 0
-213 -321 0
-213 -483 0
-321 -483 0
-214 -322 0
-214 -484 0
-322 -484 0
-215 -323 0
-215 -485 0
-323 -485 0
-216 -324 0
-216 -486 0
-324 -486 0
890 891 892 893 894 895 896 897 898 899 900 901 902 903 904 905 0
-890 -891 0
-890 -892 0
-890 -893 0
-890 -894 0
-890 -895 0
-890 -896 0
-890 -897 0
-890 -898 0
-890 -899 0
-890 -900 0
-890 -901 0
-890 -902 0
-890 -903 0
-890 -904 0
-890 -905 0
-891 -892 0
-891 -893 0
-891 -894 0
-891 -895 0
-891 -896 0
-891 -897 0
-891 -898 0
-891 -899 0
-891 -900 0
-891 -901 0
-891 -902 0
-891 -903 0
-891 -904 0
-891 -905 0
-892 -893 0
-892 -894 0
-892 -895 0
-892 -896 0
-892 -897 0
-892 -898 0
-892 -899 0
-892 -900 0
-892 -901 0
-892 -902 0
-892 -903 0
-892 -904 0
-892 -905 0
-893 -894 0
-893 -895 0
-893 -896 0
-893 -897 0
-893 -898 0
-893 -899 0
-893 -900 0
-893 -901 0
-893 -902 0
-893 -903 0
-893 -904 0
-893 -905 0
-894 -895 0
-894 -896 0
-894 -897 0
-894 -898 0
-894 -899 0
-894 -900 0
-894 -901 0
-894 -902 0
-894 -903 0
-894 -904 0
-894 -905 0
-895 -896 0
-895 -897 0
-895 -898 0
-895 -899 0
-895 -900 0
-895 -901 0
-895 -902 0
-895 -903 0
-895 -904 0
-895 -905 0
-896 -897 0
-896 -898 0
-896 -899 0
-896 -900 0
-896 -901 0
-896 -902 0
-896 -903 0
-896 -904 0
-896 -905 0
-897 -898 0
-897 -899 0
-897 -900 0
-897 -901 0
-897 -902 0
-897 -903 0
-897 -904 0
-897 -905 0
-898 -899 0
-898 -900 0
-898 -901 0
-898 -902 0
-898 -903 0
-898 -904 0
-898 -905 0
-899 -900 0
-899 -901 0
-899 -902 0
-899 -903 0
-899 -904 0
-899 -905 0
-900 -901 0
-900 -902 0
-900 -903 0
-900 -904 0
-900 -905 0
-901 -902 0
-901 -903 0
-901 -904 0
-901 -905 0
-902 -903 0
-902 -904 0
-902 -905 0
-903 -904 0
-903 -905 0
-904 -905 0
-199 890 0
-200 890 891 0
-201 890 891 892 0
-202 891 892 893 0
-203 892 893 894 0
-204 893 894 895 0
-205 894 895 896 0
-206 895 896 897 0
-207 896 897 898 0
-208 897 898 899 0
-209 898 899 900 0
-210 899 900 901 0
-211 900 901 902 0
-212 901 902 903 0
-213 902 903 904 0
-214 903 904 905 0
-215 904 905 0
-216 905 0
-307 890 0
-308 890 891 0
-309 890 891 892 0
-310 891 892 893 0
-311 892 893 894 0
-312 893 894 895 0
-313 894 895 896 0
-314 895 896 897 0
-315 896 897 898 0
-316 897 898 899 0
-317 898 899 900 0
-318 899 900 901 0
-319 900 901 902 0
-320 901 902 903 0
-321 902 903 904 0
-322 903 904 905 0
-323 904 905 0
-324 905 0
-469 890 0
-470 890 891 0
-471 890 891 892 0
-472 891 892 893 0
-473 892 893 894 0
-474 893 894 895 0
-475 894 895 896 0
-476 895 896 897 0
-477 896 897 898 0
-478 897 898 899 0
-479 898 899 900 0
-480 899 900 901 0
-481 900 901 902 0
-482 901 902 903 0
-483 902 903 904 0
-484 903 904 905 0
-485 904 905 0
-486 905 0
-890 -202 0
-890 -203 0
-890 -204 0
-890 -205 0
-890 -206 0
-890 -207 0
-890 -208 0
-890 -209 0
-890 -210 0
-890 -211 0
-890 -212 0
-890 -213 0
-890 -214 0
-890 -215 0
-890 -216 0
-890 -310 0
-890 -311 0
-890 -312 0
-890 -313 0
-890 -314 0
-890 -315 0
-890 -316 0
-890 -317 0
-890 -318 0
-890 -319 0
-890 -320 0
-890 -321 0
-890 -322 0
-890 -323 0
-890 -324 0
-890 -472 0
-890 -473 0
-890 -474 0
-890 -475 0
-890 -476 0
-890 -477 0
-890 -478 0
-890 -479 0
-890 -480 0
-890 -481 0
-890 -482 0
-890 -483 0
-890 -484 0
-890 -485 0
-890 -486 0
-891 -199 0
-891 -203 0
-891 -204 0
-891 -205 0
-891 -206 0
-891 -207 0
-891 -208 0
-891 -209 0
-891 -210 0
-891 -211 0
-891 -212 0
-891 -213 0
-891 -214 0
-891 -215 0
-891 -216 0
-891 -307 0
-891 -311 0
-891 -312 0
-891 -313 0
-891 -314 0
-891 -315 0
-891 -316 0
-891 -317 0
-891 -318 0
-891 -319 0
-891 -320 0
-891 -321 0
-891 -322 0
-891 -323 0
-891 -324 0
-891 -469 0
-891 -473 0
-891 -474 0
-891 -475 0
-891 -476 0
-891 -477 0
-891 -478 0
-891 -479 0
-891 -480 0
-891 -481 0
-891 -482 0
-891 -483 0
-891 -484 0
-891 -485 0
-891 -486 0
-892 -199 0
-892 -200 0
-892 -204 0
-892 -205 0
-892 -206 0
-892 -207 0
-892 -208 0
-892 -209 0
-892 -210 0
-892 -211 0
-892 -212 0
-892 -213 0
-892 -214 0
-892 -215 0
-892 -216 0
-892 -307 0
-892 -308 0
-892 -312 0
-892 -313 0
-892 -314 0
-892 -315 0
-892 -316 0
-892 -317 0
-892 -318 0
-892 -319 0
-892 -320 0
-892 -321 0
-892 -322 0
-892 -323 0
-892 -324 0
-892 -469 0
-892 -470 0
-892 -474 0
-892 -475 0
-892 -476 0
-892 -477 0
-892 -478 0
-892 -479 0
-892 -480 0
-892 -481 0
-892 -482 0
-892 -483 0
-892 -484 0
-892 -485 0
-892 -486 0
-893 -199 0
-893 -200 0
-893 -201 0
-893 -205 0
-893 -206 0
-893 -207 0
-893 -208 0
-893 -209 0
-893 -210 0
-893 -211 0
-893 -212 0
-893 -213 0
-893 -214 0
-893 -215 0
-893 -216 0
-893 -307 0
-893 -308 0
-893 -309 0
-893 -313 0
-893 -314 0
-893 -315 0
-893 -316 0
-893 -317 0
-893 -318 0
-893 -319 0
-893 -320 0
-893 -321 0
-893 -322 0
-893 -323 0
-893 -324 0
-893 -469 0
-893 -470 0
-893 -471 0
-893 -475 0
-893 -476 0
-893 -477 0
-893 -478 0
-893 -479 0
-893 -480 0
-893 -481 0
-893 -482 0
-893 -483 0
-893 -484 0
-893 -485 0
-893 -486 0
-894 -199 0
-894 -200 0
-894 -201 0
-894 -202 0
-894 -206 0
-894 -207 0
-894 -208 0
-894 -209 0
-894 -210 0
-894 -211 0
-894 -212 0
-894 -213 0
-894 -214 0
-894 -215 0
-894 -216 0
-894 -307 0
-894 -308 0
-894 -309 0
-894 -310 0
-894 -314 0
-894 -315 0
-894 -316 0
-894 -317 0
-894 -318 0
-894 -319 0
-894 -320 0
-894 -321 0
-894 -322 0
-894 -323 0
-894 -324 0
-894 -469 0
-894 -470 0
-894 -471 0
-894 -472 0
-894 -476 0
-894 -477 0
-894 -478 0
-894 -479 0
-894 -480 0
-894 -481 0
-894 -482 0
-894 -483 0
-894 -484 0
-894 -485 0
-894 -486 0
-895 -199 0
-895 -200 0
-895 -201 0
-895 -202 0
-895 -203 0
-895 -207 0
-895 -208 0
-895 -209 0
-895 -210 0
-895 -211 0
-895 -212 0
-895 -213 0
-895 -214 0
-895 -215 0
-895 -216 0
-895 -307 0
-895 -308 0
-895 -309 0
-895 -310 0
-895 -311 0
-895 -315 0
-895 -316 0
-895 -317 0
-895 -318 0
-895 -319 0
-895 -320 0
-895 -321 0
-895 -322 0
-895 -323 0
-895 -324 0
-895 -469 0
-895 -470 0
-895 -471 0
-895 -472 0
-895 -473 0
-895 -477 0
-895 -478 0
-895 -479 0
-895 -480 0
-895 -481 0
-895 -482 0
-895 -483 0
-895 -484 0
-895 -485 0
-895 -486 0
-896 -199 0
-896 -200 0
-896 -201 0
-896 -202 0
-896 -203 0
-896 -204 0
-896 -208 0
-896 -209 0
-896 -210 0
-896 -211 0
-896 -212 0
-896 -213 0
-896 -214 0
-896 -215 0
-896 -216 0
-896 -307 0
-896 -308 0
-896 -309 0
-896 -310 0
-896 -311 0
-896 -312 0
-896 -316 0
-896 -317 0
-896 -318 0
-896 -319 0
-896 -320 0
-896 -321 0
-896 -322 0
-896 -323 0
-896 -324 0
-896 -469 0
-896 -470 0
-896 -471 0
-896 -472 0
-896 -473 0
-896 -474 0
-896 -478 0
-896 -479 0
-896 -480 0
-896 -481 0
-896 -482 0
-896 -483 0
-896 -484 0
-896 -485 0
-896 -486 0
-897 -199 0
-897 -200 0
-897 -201 0
-897 -202 0
-897 -203 0
-897 -204 0
-897 -205 0
-897 -209 0
-897 -210 0
-897 -211 0
-897 -212 0
-897 -213 0
-897 -214 0
-897 -215 0
-897 -216 0
-897 -307 0
-897 -308 0
-897 -309 0
-897 -310 0
-897 -311 0
-897 -312 0
-897 -313 0
-897 -317 0
-897 -318 0
-897 -319 0
-897 -320 0
-897 -321 0
-897 -322 0
-897 -323 0
-897 -324 0
-897 -469 0
-897 -470 0
-897 -471 0
-897 -472 0
-897 -473 0
-897 -474 0
-897 -475 0
-897 -479 0
-897 -480 0
-897 -481 0
-897 -482 0
-897 -483 0
-897 -484 0
-897 -485 0
-897 -486 0
-898 -199 0
-898 -200 0
-898 -201 0
-898 -202 0
-898 -203 0
-898 -204 0
-898 -205 0
-898 -206 0
-898 -210 0
-898 -211 0
-898 -212 0
-898 -213 0
-898 -214 0
-898 -215 0
-898 -216 0
-898 -307 0
-898 -308 0
-898 -309 0
-898 -310 0
-898 -311 0
-898 -312 0
-898 -313 0
-898 -314 0
-898 -318 0
-898 -319 0
-898 -320 0
-898 -321 0
-898 -322 0
-898 -323 0
-898 -324 0
-898 -469 0
-898 -470 0
-898 -471 0
-898 -472 0
-898 -473 0
-898 -474 0
-898 -475 0
-898 -476 0
-898 -480 0
-898 -481 0
-898 -482 0
-898 -483 0
-898 -484 0
-898 -485 0
-898 -486 0
-899 -199 0
-899 -200 0
-899 -201 0
-899 -202 0
-899 -203 0
-899 -204 0
-899 -205 0
-899 -206 0
-899 -207 0
-899 -211 0
-899 -212 0
-899 -213 0
-899 -214 0
-899 -215 0
-899 -216 0
-899 -307 0
-899 -308 0
-899 -309 0
-899 -310 0
-899 -311 0
-899 -312 0
-899 -313 0
-899 -314 0
-899 -315 0
-899 -319 0
-899 -320 0
-899 -321 0
-899 -322 0
-899 -323 0
-899 -324 0
-899 -469 0
-899 -470 0
-899 -471 0
-899 -472 0
-899 -473 0
-899 -474 0
-899 -475 0
-899 -476 0
-899 -477 0
-899 -481 0
-899 -482 0
-899 -483 0
-899 -484 0
-899 -485 0
-899 -486 0
-900 -199 0
-900 -200 0
-900 -201 0
-900 -202 0
-900 -203 0
-900 -204 0
-900 -205 0
-900 -206 0
-900 -207 0
-900 -208 0
-900 -212 0
-900 -213 0
-900 -214 0
-900 -215 0
-900 -216 0
-900 -307 0
-900 -308 0
-900 -309 0
-900 -310 0
-900 -311 0
-900 -312 0
-900 -313 0
-900 -314 0
-900 -315 0
-900 -316 0
-900 -320 0
-900 -321 0
-900 -322 0
-900 -323 0
-900 -324 0
-900 -469 0
-900 -470 0
-900 -471 0
-900 -472 0
-900 -473 0
-900 -474 0
-900 -475 0
-900 -476 0
-900 -477 0
-900 -478 0
-900 -482 0
-900 -483 0
-900 -484 0
-900 -485 0
-900 -486 0
-901 -199 0
-901 -200 0
-901 -201 0
-901 -202 0
-901 -203 0
-901 -204 0
-901 -205 0
-901 -206 0
-901 -207 0
-901 -208 0
-901 -209 0
-901 -213 0
-901 -214 0
-901 -215 0
-901 -216 0
-901 -307 0
-901 -308 0
-901 -309 0
-901 -310 0
-901 -311 0
-901 -312 0
-901 -313 0
-901 -314 0
-901 -315 0
-901 -316 0
-901 -317 0
-901 -321 0
-901 -322 0
-901 -323 0
-901 -324 0
-901 -469 0
-901 -470 0
-901 -471 0
-901 -472 0
-901 -473 0
-901 -474 0
-901 -475 0
-901 -476 0
-901 -477 0
-901 -478 0
-901 -479 0
-901 -483 0
-901 -484 0
-901 -485 0
-901 -486 0
-902 -199 0
-902 -200 0
-902 -201 0
-902 -202 0
-902 -203 0
-902 -204 0
-902 -205 0
-902 -206 0
-902 -207 0
-902 -208 0
-902 -209 0
-902 -210 0
-902 -214 0
-902 -215 0
-902 -216 0
-902 -307 0
-902 -308 0
-902 -309 0
-902 -310 0
-902 -311 0
-902 -312 0
-902 -313 0
-902 -314 0
-902 -315 0
-902 -316 0
-902 -317 0
-902 -318 0
-902 -322 0
-902 -323 0
-902 -324 0
-902 -469 0
-902 -470 0
-902 -471 0
-902 -472 0
-902 -473 0
-902 -474 0
-902 -475 0
-902 -476 0
-902 -477 0
-902 -478 0
-902 -479 0
-902 -480 0
-902 -484 0
-902 -485 0
-902 -486 0
-903 -199 0
-903 -200 0
-903 -201 0
-903 -202 0
-903 -203 0
-903 -204 0
-903 -205 0
-903 -206 0
-903 -207 0
-903 -208 0
-903 -209 0
-903 -210 0
-903 -211 0
-903 -215 0
-903 -216 0
-903 -307 0
-903 -308 0
-903 -309 0
-903 -310 0
-903 -311 0
-903 -312 0
-903 -313 0
-903 -314 0
-903 -315 0
-903 -316 0
-903 -317 0
-903 -318 0
-903 -319 0
-903 -323 0
-903 -324 0
-903 -469 0
-903 -470 0
-903 -471 0
-903 -472 0
-903 -473 0
-903 -474 0
-903 -475 0
-903 -476 0
-903 -477 0
-903 -478 0
-903 -479 0
-903 -480 0
-903 -481 0
-903 -485 0
-903 -486 0
-904 -199 0
-904 -200 0
-904 -201 0
-904 -202 0
-904 -203 0
-904 -204 0
-904 -205 0
-904 -206 0
-904 -207 0
-904 -208 0
-904 -209 0
-904 -210 0
-904 -211 0
-904 -212 0
-904 -216 0
-904 -307 0
-904 -308 0
-904 -309 0
-904 -310 0
-904 -311 0
-904 -312 0
-904 -313 0
-904 -314 0
-904 -315 0
-904 -316 0
-904 -317 0
-904 -318 0
-904 -319 0
-904 -320 0
-904 -324 0
-904 -469 0
-904 -470 0
-904 -471 0
-904 -472 0
-904 -473 0
-904 -474 0
-904 -475 0
-904 -476 0
-904 -477 0
-904 -478 0
-904 -479 0
-904 -480 0
-904 -481 0
-904 -482 0
-904 -486 0
-905 -199 0
-905 -200 0
-905 -201 0
-905 -202 0
-905 -203 0
-905 -204 0
-905 -205 0
-905 -206 0
-905 -207 0
-905 -208 0
-905 -209 0
-905 -210 0
-905 -211 0
-905 -212 0
-905 -213 0
-905 -307 0
-905 -308 0
-905 -309 0
-905 -310 0
-905 -311 0
-905 -312 0
-905 -313 0
-905 -314 0
-905 -315 0
-905 -316 0
-905 -317 0
-905 -318 0
-905 -319 0
-905 -320 0
-905 -321 0
-905 -469 0
-905 -470 0
-905 -471 0
-905 -472 0
-905 -473 0
-905 -474 0
-905 -475 0
-905 -476 0
-905 -477 0
-905 -478 0
-905 -479 0
-905 -480 0
-905 -481 0
-905 -482 0
-905 -483 0
1 19 37 55 73 91 109 127 145 163 181 199 217 235 253 271 289 307 325 343 361 379 397 415 433 451 469 487 505 523 541 559 577 595 0
2 20 38 56 74 92 110 128 146 164 182 200 218 236 254 272 290 308 326 344 362 380 398 416 434 452 470 488 506 524 542 560 578 596 0
3 21 39 57 75 93 111 129 147 165 183 201 219 237 255 273 291 309 327 345 363 381 399 417 435 453 471 489 507 525 543 561 579 597 0
4 22 40 58 76 94 112 130 148 166 184 202 220 238 256 274 292 310 328 346 364 382 400 418 436 454 472 490 508 526 544 562 580 598 0
5 23 41 59 77 95 113 131 149 167 185 203 221 239 257 275 293 311 329 347 365 383 401 419 437 455 473 491 509 527 545 563 581 599 0
6 24 42 60 78 96 114 132 150 168 186 204 222 240 258 276 294 312 330 348 366 384 402 420 438 456 474 492 510 528 546 564 582 600 0
7 25 43 61 79 97 115 133 151 169 187 205 223 241 259 277 295 313 331 349 367 385 403 421 439 457 475 493 511 529 547 565 583 601 0
8 26 44 62 80 98 116 134 152 170 188 206 224 242 260 278 296 314 332 350 368 386 404 422 440 458 476 494 512 530 548 566 584 602 0
9 27 45 63 81 99 117 135 153 171 189 207 225 243 261 279 297 315 333 351 369 387 405 423 441 459 477 495 513 531 549 567 585 603 0
10 28 46 64 82 100 118 136 154 172 190 208 226 244 262 280 298 316 334 352 370 388 406 424 442 460 478 496 514 532 550 568 586 604 0
11 29 47 65 83 101 119 137 155 173 191 209 227 245 263 281 299 317 335 353 371 389 407 425 443 461 479 497 515 533 551 569 587 605 0
12 30 48 66 84 102 120 138 156 174 192 210 228 246 264 282 300 318 336 354 372 390 408 426 444 462 480 498 516 534 552 570 588 606 0
13 31 49 67 85 103 121 139 157 175 193 211 229 247 265 283 301 319 337 355 373 391 409 427 445 463 481 499 517 535 553 571 589 607 0
14 32 50 68 86 104 122 140 158 176 194 212 230 248 266 284 302 320 338 356 374 392 410 428 446 464 482 500 518 536 554 572 590 608 0
15 33 51 69 87 105 123 141 159 177 195 213 231 249 267 285 303 321 339 357 375 393 411 429 447 465 483 501 519 537 555 573 591 609 0
16 34 52 70 88 106 124 142 160 178 196 214 232 250 268 286 304 322 340 358 376 394 412 430 448 466 484 502 520 538 556 574 592 610 0
17 35 53 71 89 107 125 143 161 179 197 215 233 251 269 287 305 323 341 359 377 395 413 431 449 467 485 503 521 539 557 575 593 611 0
18 36 54 72 90 108 126 144 162 180 198 216 234 252 270 288 306 324 342 360 378 396 414 432 450 468 486 504 522 540 558 576 594 612 0
