p cnf 587 10242
1 2 3 4 5 6 7 8 9 10 11 12 0
-1 -2 0
-1 -3 0
-1 -4 0
-1 -5 0
-1 -6 0
-1 -7 0
-1 -8 0
-1 -9 0
-1 -10 0
-1 -11 0
-1 -12 0
-2 -3 0
-2 -4 0
-2 -5 0
-2 -6 0
-2 -7 0
-2 -8 0
-2 -9 0
-2 -10 0
-2 -11 0
-2 -12 0
-3 -4 0
-3 -5 0
-3 -6 0
-3 -7 0
-3 -8 0
-3 -9 0
-3 -10 0
-3 -11 0
-3 -12 0
-4 -5 0
-4 -6 0
-4 -7 0
-4 -8 0
-4 -9 0
-4 -10 0
-4 -11 0
-4 -12 0
-5 -6 0
-5 -7 0
-5 -8 0
-5 -9 0
-5 -10 0
-5 -11 0
-5 -12 0
-6 -7 0
-6 -8 0
-6 -9 0
-6 -10 0
-6 -11 0
-6 -12 0
-7 -8 0
-7 -9 0
-7 -10 0
-7 -11 0
-7 -12 0
-8 -9 0
-8 -10 0
-8 -11 0
-8 -12 0
-9 -10 0
-9 -11 0
-9 -12 0
-10 -11 0
-10 -12 0
-11 -12 0
13 14 15 16 17 18 19 20 21 22 23 24 0
-13 -14 0
-13 -15 0
-13 -16 0
-13 -17 0
-13 -18 0
-13 -19 0
-13 -20 0
-13 -21 0
-13 -22 0
-13 -23 0
-13 -24 0
-14 -15 0
-14 -16 0
-14 -17 0
-14 -18 0
-14 -19 0
-14 -20 0
-14 -21 0
-14 -22 0
-14 -23 0
-14 -24 0
-15 -16 0
-15 -17 0
-15 -18 0
-15 -19 0
-15 -20 0
-15 -21 0
-15 -22 0
-15 -23 0
-15 -24 0
-16 -17 0
-16 -18 0
-16 -19 0
-16 -20 0
-16 -21 0
-16 -22 0
-16 -23 0
-16 -24 0
-17 -18 0
-17 -19 0
-17 -20 0
-17 -21 0
-17 -22 0
-17 -23 0
-17 -24 0
-18 -19 0
-18 -20 0
-18 -21 0
-18 -22 0
-18 -23 0
-18 -24 0
-19 -20 0
-19 -21 0
-19 -22 0
-19 -23 0
-19 -24 0
-20 -21 0
-20 -22 0
-20 -23 0
-20 -24 0
-21 -22 0
-21 -23 0
-21 -24 0
-22 -23 0
-22 -24 0
-23 -24 0
25 26 27 28 29 30 31 32 33 34 35 36 0
-25 -26 0
-25 -27 0
-25 -28 0
-25 -29 0
-25 -30 0
-25 -31 0
-25 -32 0
-25 -33 0
-25 -34 0
-25 -35 0
-25 -36 0
-26 -27 0
-26 -28 0
-26 -29 0
-26 -30 0
-26 -31 0
-26 -32 0
-26 -33 0
-26 -34 0
-26 -35 0
-26 -36 0
-27 -28 0
-27 -29 0
-27 -30 0
-27 -31 0
-27 -32 0
-27 -33 0
-27 -34 0
-27 -35 0
-27 -36 0
-28 -29 0
-28 -30 0
-28 -31 0
-28 -32 0
-28 -33 0
-28 -34 0
-28 -35 0
-28 -36 0
-29 -30 0
-29 -31 0
-29 -32 0
-29 -33 0
-29 -34 0
-29 -35 0
-29 -36 0
-30 -31 0
-30 -32 0
-30 -33 0
-30 -34 0
-30 -35 0
-30 -36 0
-31 -32 0
-31 -33 0
-31 -34 0
-31 -35 0
-31 -36 0
-32 -33 0
-32 -34 0
-32 -35 0
-32 -36 0
-33 -34 0
-33 -35 0
-33 -36 0
-34 -35 0
-34 -36 0
-35 -36 0
37 38 39 40 41 42 43 44 45 46 47 48 0
-37 -38 0
-37 -39 0
-37 -40 0
-37 -41 0
-37 -42 0
-37 -43 0
-37 -44 0
-37 -45 0
-37 -46 0
-37 -47 0
-37 -48 0
-38 -39 0
-38 -40 0
-38 -41 0
-38 -42 0
-38 -43 0
-38 -44 0
-38 -45 0
-38 -46 0
-38 -47 0
-38 -48 0
-39 -40 0
-39 -41 0
-39 -42 0
-39 -43 0
-39 -44 0
-39 -45 0
-39 -46 0
-39 -47 0
-39 -48 0
-40 -41 0
-40 -42 0
-40 -43 0
-40 -44 0
-40 -45 0
-40 -46 0
-40 -47 0
-40 -48 0
-41 -42 0
-41 -43 0
-41 -44 0
-41 -45 0
-41 -46 0
-41 -47 0
-41 -48 0
-42 -43 0
-42 -44 0
-42 -45 0
-42 -46 0
-42 -47 0
-42 -48 0
-43 -44 0
-43 -45 0
-43 -46 0
-43 -47 0
-43 -48 0
-44 -45 0
-44 -46 0
-44 -47 0
-44 -48 0
-45 -46 0
-45 -47 0
-45 -48 0
-46 -47 0
-46 -48 0
-47 -48 0
49 50 51 52 53 54 55 56 57 58 59 60 0
-49 -50 0
-49 -51 0
-49 -52 0
-49 -53 0
-49 -54 0
-49 -55 0
-49 -56 0
-49 -57 0
-49 -58 0
-49 -59 0
-49 -60 0
-50 -51 0
-50 -52 0
-50 -53 0
-50 -54 0
-50 -55 0
-50 -56 0
-50 -57 0
-50 -58 0
-50 -59 0
-50 -60 0
-51 -52 0
-51 -53 0
-51 -54 0
-51 -55 0
-51 -56 0
-51 -57 0
-51 -58 0
-51 -59 0
-51 -60 0
-52 -53 0
-52 -54 0
-52 -55 0
-52 -56 0
-52 -57 0
-52 -58 0
-52 -59 0
-52 -60 0
-53 -54 0
-53 -55 0
-53 -56 0
-53 -57 0
-53 -58 0
-53 -59 0
-53 -60 0
-54 -55 0
-54 -56 0
-54 -57 0
-54 -58 0
-54 -59 0
-54 -60 0
-55 -56 0
-55 -57 0
-55 -58 0
-55 -59 0
-55 -60 0
-56 -57 0
-56 -58 0
-56 -59 0
-56 -60 0
-57 -58 0
-57 -59 0
-57 -60 0
-58 -59 0
-58 -60 0
-59 -60 0
61 62 63 64 65 66 67 68 69 70 71 72 0
-61 -62 0
-61 -63 0
-61 -64 0
-61 -65 0
-61 -66 0
-61 -67 0
-61 -68 0
-61 -69 0
-61 -70 0
-61 -71 0
-61 -72 0
-62 -63 0
-62 -64 0
-62 -65 0
-62 -66 0
-62 -67 0
-62 -68 0
-62 -69 0
-62 -70 0
-62 -71 0
-62 -72 0
-63 -64 0
-63 -65 0
-63 -66 0
-63 -67 0
-63 -68 0
-63 -69 0
-63 -70 0
-63 -71 0
-63 -72 0
-64 -65 0
-64 -66 0
-64 -67 0
-64 -68 0
-64 -69 0
-64 -70 0
-64 -71 0
-64 -72 0
-65 -66 0
-65 -67 0
-65 -68 0
-65 -69 0
-65 -70 0
-65 -71 0
-65 -72 0
-66 -67 0
-66 -68 0
-66 -69 0
-66 -70 0
-66 -71 0
-66 -72 0
-67 -68 0
-67 -69 0
-67 -70 0
-67 -71 0
-67 -72 0
-68 -69 0
-68 -70 0
-68 -71 0
-68 -72 0
-69 -70 0
-69 -71 0
-69 -72 0
-70 -71 0
-70 -72 0
-71 -72 0
73 74 75 76 77 78 79 80 81 82 83 84 0
-73 -74 0
-73 -75 0
-73 -76 0
-73 -77 0
-73 -78 0
-73 -79 0
-73 -80 0
-73 -81 0
-73 -82 0
-73 -83 0
-73 -84 0
-74 -75 0
-74 -76 0
-74 -77 0
-74 -78 0
-74 -79 0
-74 -80 0
-74 -81 0
-74 -82 0
-74 -83 0
-74 -84 0
-75 -76 0
-75 -77 0
-75 -78 0
-75 -79 0
-75 -80 0
-75 -81 0
-75 -82 0
-75 -83 0
-75 -84 0
-76 -77 0
-76 -78 0
-76 -79 0
-76 -80 0
-76 -81 0
-76 -82 0
-76 -83 0
-76 -84 0
-77 -78 0
-77 -79 0
-77 -80 0
-77 -81 0
-77 -82 0
-77 -83 0
-77 -84 0
-78 -79 0
-78 -80 0
-78 -81 0
-78 -82 0
-78 -83 0
-78 -84 0
-79 -80 0
-79 -81 0
-79 -82 0
-79 -83 0
-79 -84 0
-80 -81 0
-80 -82 0
-80 -83 0
-80 -84 0
-81 -82 0
-81 -83 0
-81 -84 0
-82 -83 0
-82 -84 0
-83 -84 0
85 86 87 88 89 90 91 92 93 94 95 96 0
-85 -86 0
-85 -87 0
-85 -88 0
-85 -89 0
-85 -90 0
-85 -91 0
-85 -92 0
-85 -93 0
-85 -94 0
-85 -95 0
-85 -96 0
-86 -87 0
-86 -88 0
-86 -89 0
-86 -90 0
-86 -91 0
-86 -92 0
-86 -93 0
-86 -94 0
-86 -95 0
-86 -96 0
-87 -88 0
-87 -89 0
-87 -90 0
-87 -91 0
-87 -92 0
-87 -93 0
-87 -94 0
-87 -95 0
-87 -96 0
-88 -89 0
-88 -90 0
-88 -91 0
-88 -92 0
-88 -93 0
-88 -94 0
-88 -95 0
-88 -96 0
-89 -90 0
-89 -91 0
-89 -92 0
-89 -93 0
-89 -94 0
-89 -95 0
-89 -96 0
-90 -91 0
-90 -92 0
-90 -93 0
-90 -94 0
-90 -95 0
-90 -96 0
-91 -92 0
-91 -93 0
-91 -94 0
-91 -95 0
-91 -96 0
-92 -93 0
-92 -94 0
-92 -95 0
-92 -96 0
-93 -94 0
-93 -95 0
-93 -96 0
-94 -95 0
-94 -96 0
-95 -96 0
97 98 99 100 101 102 103 104 105 106 107 108 0
-97 -98 0
-97 -99 0
-97 -100 0
-97 -101 0
-97 -102 0
-97 -103 0
-97 -104 0
-97 -105 0
-97 -106 0
-97 -107 0
-97 -108 0
-98 -99 0
-98 -100 0
-98 -101 0
-98 -102 0
-98 -103 0
-98 -104 0
-98 -105 0
-98 -106 0
-98 -107 0
-98 -108 0
-99 -100 0
-99 -101 0
-99 -102 0
-99 -103 0
-99 -104 0
-99 -105 0
-99 -106 0
-99 -107 0
-99 -108 0
-100 -101 0
-100 -102 0
-100 -103 0
-100 -104 0
-100 -105 0
-100 -106 0
-100 -107 0
-100 -108 0
-101 -102 0
-101 -103 0
-101 -104 0
-101 -105 0
-101 -106 0
-101 -107 0
-101 -108 0
-102 -103 0
-102 -104 0
-102 -105 0
-102 -106 0
-102 -107 0
-102 -108 0
-103 -104 0
-103 -105 0
-103 -106 0
-103 -107 0
-103 -108 0
-104 -105 0
-104 -106 0
-104 -107 0
-104 -108 0
-105 -106 0
-105 -107 0
-105 -108 0
-106 -107 0
-106 -108 0
-107 -108 0
109 110 111 112 113 114 115 116 117 118 119 120 0
-109 -110 0
-109 -111 0
-109 -112 0
-109 -113 0
-109 -114 0
-109 -115 0
-109 -116 0
-109 -117 0
-109 -118 0
-109 -119 0
-109 -120 0
-110 -111 0
-110 -112 0
-110 -113 0
-110 -114 0
-110 -115 0
-110 -116 0
-110 -117 0
-110 -118 0
-110 -119 0
-110 -120 0
-111 -112 0
-111 -113 0
-111 -114 0
-111 -115 0
-111 -116 0
-111 -117 0
-111 -118 0
-111 -119 0
-111 -120 0
-112 -113 0
-112 -114 0
-112 -115 0
-112 -116 0
-112 -117 0
-112 -118 0
-112 -119 0
-112 -120 0
-113 -114 0
-113 -115 0
-113 -116 0
-113 -117 0
-113 -118 0
-113 -119 0
-113 -120 0
-114 -115 0
-114 -116 0
-114 -117 0
-114 -118 0
-114 -119 0
-114 -120 0
-115 -116 0
-115 -117 0
-115 -118 0
-115 -119 0
-115 -120 0
-116 -117 0
-116 -118 0
-116 -119 0
-116 -120 0
-117 -118 0
-117 -119 0
-117 -120 0
-118 -119 0
-118 -120 0
-119 -120 0
121 122 123 124 125 126 127 128 129 130 131 132 0
-121 -122 0
-121 -123 0
-121 -124 0
-121 -125 0
-121 -126 0
-121 -127 0
-121 -128 0
-121 -129 0
-121 -130 0
-121 -131 0
-121 -132 0
-122 -123 0
-122 -124 0
-122 -125 0
-122 -126 0
-122 -127 0
-122 -128 0
-122 -129 0
-122 -130 0
-122 -131 0
-122 -132 0
-123 -124 0
-123 -125 0
-123 -126 0
-123 -127 0
-123 -128 0
-123 -129 0
-123 -130 0
-123 -131 0
-123 -132 0
-124 -125 0
-124 -126 0
-124 -127 0
-124 -128 0
-124 -129 0
-124 -130 0
-124 -131 0
-124 -132 0
-125 -126 0
-125 -127 0
-125 -128 0
-125 -129 0
-125 -130 0
-125 -131 0
-125 -132 0
-126 -127 0
-126 -128 0
-126 -129 0
-126 -130 0
-126 -131 0
-126 -132 0
-127 -128 0
-127 -129 0
-127 -130 0
-127 -131 0
-127 -132 0
-128 -129 0
-128 -130 0
-128 -131 0
-128 -132 0
-129 -130 0
-129 -131 0
-129 -132 0
-130 -131 0
-130 -132 0
-131 -132 0
133 134 135 136 137 138 139 140 141 142 143 144 0
-133 -134 0
-133 -135 0
-133 -136 0
-133 -137 0
-133 -138 0
-133 -139 0
-133 -140 0
-133 -141 0
-133 -142 0
-133 -143 0
-133 -144 0
-134 -135 0
-134 -136 0
-134 -137 0
-134 -138 0
-134 -139 0
-134 -140 0
-134 -141 0
-134 -142 0
-134 -143 0
-134 -144 0
-135 -136 0
-135 -137 0
-135 -138 0
-135 -139 0
-135 -140 0
-135 -141 0
-135 -142 0
-135 -143 0
-135 -144 0
-136 -137 0
-136 -138 0
-136 -139 0
-136 -140 0
-136 -141 0
-136 -142 0
-136 -143 0
-136 -144 0
-137 -138 0
-137 -139 0
-137 -140 0
-137 -141 0
-137 -142 0
-137 -143 0
-137 -144 0
-138 -139 0
-138 -140 0
-138 -141 0
-138 -142 0
-138 -143 0
-138 -144 0
-139 -140 0
-139 -141 0
-139 -142 0
-139 -143 0
-139 -144 0
-140 -141 0
-140 -142 0
-140 -143 0
-140 -144 0
-141 -142 0
-141 -143 0
-141 -144 0
-142 -143 0
-142 -144 0
-143 -144 0
145 146 147 148 149 150 151 152 153 154 155 156 0
-145 -146 0
-145 -147 0
-145 -148 0
-145 -149 0
-145 -150 0
-145 -151 0
-145 -152 0
-145 -153 0
-145 -154 0
-145 -155 0
-145 -156 0
-146 -147 0
-146 -148 0
-146 -149 0
-146 -150 0
-146 -151 0
-146 -152 0
-146 -153 0
-146 -154 0
-146 -155 0
-146 -156 0
-147 -148 0
-147 -149 0
-147 -150 0
-147 -151 0
-147 -152 0
-147 -153 0
-147 -154 0
-147 -155 0
-147 -156 0
-148 -149 0
-148 -150 0
-148 -151 0
-148 -152 0
-148 -153 0
-148 -154 0
-148 -155 0
-148 -156 0
-149 -150 0
-149 -151 0
-149 -152 0
-149 -153 0
-149 -154 0
-149 -155 0
-149 -156 0
-150 -151 0
-150 -152 0
-150 -153 0
-150 -154 0
-150 -155 0
-150 -156 0
-151 -152 0
-151 -153 0
-151 -154 0
-151 -155 0
-151 -156 0
-152 -153 0
-152 -154 0
-152 -155 0
-152 -156 0
-153 -154 0
-153 -155 0
-153 -156 0
-154 -155 0
-154 -156 0
-155 -156 0
157 158 159 160 161 162 163 164 165 166 167 168 0
-157 -158 0
-157 -159 0
-157 -160 0
-157 -161 0
-157 -162 0
-157 -163 0
-157 -164 0
-157 -165 0
-157 -166 0
-157 -167 0
-157 -168 0
-158 -159 0
-158 -160 0
-158 -161 0
-158 -162 0
-158 -163 0
-158 -164 0
-158 -165 0
-158 -166 0
-158 -167 0
-158 -168 0
-159 -160 0
-159 -161 0
-159 -162 0
-159 -163 0
-159 -164 0
-159 -165 0
-159 -166 0
-159 -167 0
-159 -168 0
-160 -161 0
-160 -162 0
-160 -163 0
-160 -164 0
-160 -165 0
-160 -166 0
-160 -167 0
-160 -168 0
-161 -162 0
-161 -163 0
-161 -164 0
-161 -165 0
-161 -166 0
-161 -167 0
-161 -168 0
-162 -163 0
-162 -164 0
-162 -165 0
-162 -166 0
-162 -167 0
-162 -168 0
-163 -164 0
-163 -165 0
-163 -166 0
-163 -167 0
-163 -168 0
-164 -165 0
-164 -166 0
-164 -167 0
-164 -168 0
-165 -166 0
-165 -167 0
-165 -168 0
-166 -167 0
-166 -168 0
-167 -168 0
169 170 171 172 173 174 175 176 177 178 179 180 0
-169 -170 0
-169 -171 0
-169 -172 0
-169 -173 0
-169 -174 0
-169 -175 0
-169 -176 0
-169 -177 0
-169 -178 0
-169 -179 0
-169 -180 0
-170 -171 0
-170 -172 0
-170 -173 0
-170 -174 0
-170 -175 0
-170 -176 0
-170 -177 0
-170 -178 0
-170 -179 0
-170 -180 0
-171 -172 0
-171 -173 0
-171 -174 0
-171 -175 0
-171 -176 0
-171 -177 0
-171 -178 0
-171 -179 0
-171 -180 0
-172 -173 0
-172 -174 0
-172 -175 0
-172 -176 0
-172 -177 0
-172 -178 0
-172 -179 0
-172 -180 0
-173 -174 0
-173 -175 0
-173 -176 0
-173 -177 0
-173 -178 0
-173 -179 0
-173 -180 0
-174 -175 0
-174 -176 0
-174 -177 0
-174 -178 0
-174 -179 0
-174 -180 0
-175 -176 0
-175 -177 0
-175 -178 0
-175 -179 0
-175 -180 0
-176 -177 0
-176 -178 0
-176 -179 0
-176 -180 0
-177 -178 0
-177 -179 0
-177 -180 0
-178 -179 0
-178 -180 0
-179 -180 0
181 182 183 184 185 186 187 188 189 190 191 192 0
-181 -182 0
-181 -183 0
-181 -184 0
-181 -185 0
-181 -186 0
-181 -187 0
-181 -188 0
-181 -189 0
-181 -190 0
-181 -191 0
-181 -192 0
-182 -183 0
-182 -184 0
-182 -185 0
-182 -186 0
-182 -187 0
-182 -188 0
-182 -189 0
-182 -190 0
-182 -191 0
-182 -192 0
-183 -184 0
-183 -185 0
-183 -186 0
-183 -187 0
-183 -188 0
-183 -189 0
-183 -190 0
-183 -191 0
-183 -192 0
-184 -185 0
-184 -186 0
-184 -187 0
-184 -188 0
-184 -189 0
-184 -190 0
-184 -191 0
-184 -192 0
-185 -186 0
-185 -187 0
-185 -188 0
-185 -189 0
-185 -190 0
-185 -191 0
-185 -192 0
-186 -187 0
-186 -188 0
-186 -189 0
-186 -190 0
-186 -191 0
-186 -192 0
-187 -188 0
-187 -189 0
-187 -190 0
-187 -191 0
-187 -192 0
-188 -189 0
-188 -190 0
-188 -191 0
-188 -192 0
-189 -190 0
-189 -191 0
-189 -192 0
-190 -191 0
-190 -192 0
-191 -192 0
193 194 195 196 197 198 199 200 201 202 203 204 0
-193 -194 0
-193 -195 0
-193 -196 0
-193 -197 0
-193 -198 0
-193 -199 0
-193 -200 0
-193 -201 0
-193 -202 0
-193 -203 0
-193 -204 0
-194 -195 0
-194 -196 0
-194 -197 0
-194 -198 0
-194 -199 0
-194 -200 0
-194 -201 0
-194 -202 0
-194 -203 0
-194 -204 0
-195 -196 0
-195 -197 0
-195 -198 0
-195 -199 0
-195 -200 0
-195 -201 0
-195 -202 0
-195 -203 0
-195 -204 0
-196 -197 0
-196 -198 0
-196 -199 0
-196 -200 0
-196 -201 0
-196 -202 0
-196 -203 0
-196 -204 0
-197 -198 0
-197 -199 0
-197 -200 0
-197 -201 0
-197 -202 0
-197 -203 0
-197 -204 0
-198 -199 0
-198 -200 0
-198 -201 0
-198 -202 0
-198 -203 0
-198 -204 0
-199 -200 0
-199 -201 0
-199 -202 0
-199 -203 0
-199 -204 0
-200 -201 0
-200 -202 0
-200 -203 0
-200 -204 0
-201 -202 0
-201 -203 0
-201 -204 0
-202 -203 0
-202 -204 0
-203 -204 0
205 206 207 208 209 210 211 212 213 214 215 216 0
-205 -206 0
-205 -207 0
-205 -208 0
-205 -209 0
-205 -210 0
-205 -211 0
-205 -212 0
-205 -213 0
-205 -214 0
-205 -215 0
-205 -216 0
-206 -207 0
-206 -208 0
-206 -209 0
-206 -210 0
-206 -211 0
-206 -212 0
-206 -213 0
-206 -214 0
-206 -215 0
-206 -216 0
-207 -208 0
-207 -209 0
-207 -210 0
-207 -211 0
-207 -212 0
-207 -213 0
-207 -214 0
-207 -215 0
-207 -216 0
-208 -209 0
-208 -210 0
-208 -211 0
-208 -212 0
-208 -213 0
-208 -214 0
-208 -215 0
-208 -216 0
-209 -210 0
-209 -211 0
-209 -212 0
-209 -213 0
-209 -214 0
-209 -215 0
-209 -216 0
-210 -211 0
-210 -212 0
-210 -213 0
-210 -214 0
-210 -215 0
-210 -216 0
-211 -212 0
-211 -213 0
-211 -214 0
-211 -215 0
-211 -216 0
-212 -213 0
-212 -214 0
-212 -215 0
-212 -216 0
-213 -214 0
-213 -215 0
-213 -216 0
-214 -215 0
-214 -216 0
-215 -216 0
217 218 219 220 221 222 223 224 225 226 227 228 0
-217 -218 0
-217 -219 0
-217 -220 0
-217 -221 0
-217 -222 0
-217 -223 0
-217 -224 0
-217 -225 0
-217 -226 0
-217 -227 0
-217 -228 0
-218 -219 0
-218 -220 0
-218 -221 0
-218 -222 0
-218 -223 0
-218 -224 0
-218 -225 0
-218 -226 0
-218 -227 0
-218 -228 0
-219 -220 0
-219 -221 0
-219 -222 0
-219 -223 0
-219 -224 0
-219 -225 0
-219 -226 0
-219 -227 0
-219 -228 0
-220 -221 0
-220 -222 0
-220 -223 0
-220 -224 0
-220 -225 0
-220 -226 0
-220 -227 0
-220 -228 0
-221 -222 0
-221 -223 0
-221 -224 0
-221 -225 0
-221 -226 0
-221 -227 0
-221 -228 0
-222 -223 0
-222 -224 0
-222 -225 0
-222 -226 0
-222 -227 0
-222 -228 0
-223 -224 0
-223 -225 0
-223 -226 0
-223 -227 0
-223 -228 0
-224 -225 0
-224 -226 0
-224 -227 0
-224 -228 0
-225 -226 0
-225 -227 0
-225 -228 0
-226 -227 0
-226 -228 0
-227 -228 0
229 230 231 232 233 234 235 236 237 238 239 240 0
-229 -230 0
-229 -231 0
-229 -232 0
-229 -233 0
-229 -234 0
-229 -235 0
-229 -236 0
-229 -237 0
-229 -238 0
-229 -239 0
-229 -240 0
-230 -231 0
-230 -232 0
-230 -233 0
-230 -234 0
-230 -235 0
-230 -236 0
-230 -237 0
-230 -238 0
-230 -239 0
-230 -240 0
-231 -232 0
-231 -233 0
-231 -234 0
-231 -235 0
-231 -236 0
-231 -237 0
-231 -238 0
-231 -239 0
-231 -240 0
-232 -233 0
-232 -234 0
-232 -235 0
-232 -236 0
-232 -237 0
-232 -238 0
-232 -239 0
-232 -240 0
-233 -234 0
-233 -235 0
-233 -236 0
-233 -237 0
-233 -238 0
-233 -239 0
-233 -240 0
-234 -235 0
-234 -236 0
-234 -237 0
-234 -238 0
-234 -239 0
-234 -240 0
-235 -236 0
-235 -237 0
-235 -238 0
-235 -239 0
-235 -240 0
-236 -237 0
-236 -238 0
-236 -239 0
-236 -240 0
-237 -238 0
-237 -239 0
-237 -240 0
-238 -239 0
-238 -240 0
-239 -240 0
241 242 243 244 245 246 247 248 249 250 251 252 0
-241 -242 0
-241 -243 0
-241 -244 0
-241 -245 0
-241 -246 0
-241 -247 0
-241 -248 0
-241 -249 0
-241 -250 0
-241 -251 0
-241 -252 0
-242 -243 0
-242 -244 0
-242 -245 0
-242 -246 0
-242 -247 0
-242 -248 0
-242 -249 0
-242 -250 0
-242 -251 0
-242 -252 0
-243 -244 0
-243 -245 0
-243 -246 0
-243 -247 0
-243 -248 0
-243 -249 0
-243 -250 0
-243 -251 0
-243 -252 0
-244 -245 0
-244 -246 0
-244 -247 0
-244 -248 0
-244 -249 0
-244 -250 0
-244 -251 0
-244 -252 0
-245 -246 0
-245 -247 0
-245 -248 0
-245 -249 0
-245 -250 0
-245 -251 0
-245 -252 0
-246 -247 0
-246 -248 0
-246 -249 0
-246 -250 0
-246 -251 0
-246 -252 0
-247 -248 0
-247 -249 0
-247 -250 0
-247 -251 0
-247 -252 0
-248 -249 0
-248 -250 0
-248 -251 0
-248 -252 0
-249 -250 0
-249 -251 0
-249 -252 0
-250 -251 0
-250 -252 0
-251 -252 0
253 254 255 256 257 258 259 260 261 262 263 264 0
-253 -254 0
-253 -255 0
-253 -256 0
-253 -257 0
-253 -258 0
-253 -259 0
-253 -260 0
-253 -261 0
-253 -262 0
-253 -263 0
-253 -264 0
-254 -255 0
-254 -256 0
-254 -257 0
-254 -258 0
-254 -259 0
-254 -260 0
-254 -261 0
-254 -262 0
-254 -263 0
-254 -264 0
-255 -256 0
-255 -257 0
-255 -258 0
-255 -259 0
-255 -260 0
-255 -261 0
-255 -262 0
-255 -263 0
-255 -264 0
-256 -257 0
-256 -258 0
-256 -259 0
-256 -260 0
-256 -261 0
-256 -262 0
-256 -263 0
-256 -264 0
-257 -258 0
-257 -259 0
-257 -260 0
-257 -261 0
-257 -262 0
-257 -263 0
-257 -264 0
-258 -259 0
-258 -260 0
-258 -261 0
-258 -262 0
-258 -263 0
-258 -264 0
-259 -260 0
-259 -261 0
-259 -262 0
-259 -263 0
-259 -264 0
-260 -261 0
-260 -262 0
-260 -263 0
-260 -264 0
-261 -262 0
-261 -263 0
-261 -264 0
-262 -263 0
-262 -264 0
-263 -264 0
265 266 267 268 269 270 271 272 273 274 275 276 0
-265 -266 0
-265 -267 0
-265 -268 0
-265 -269 0
-265 -270 0
-265 -271 0
-265 -272 0
-265 -273 0
-265 -274 0
-265 -275 0
-265 -276 0
-266 -267 0
-266 -268 0
-266 -269 0
-266 -270 0
-266 -271 0
-266 -272 0
-266 -273 0
-266 -274 0
-266 -275 0
-266 -276 0
-267 -268 0
-267 -269 0
-267 -270 0
-267 -271 0
-267 -272 0
-267 -273 0
-267 -274 0
-267 -275 0
-267 -276 0
-268 -269 0
-268 -270 0
-268 -271 0
-268 -272 0
-268 -273 0
-268 -274 0
-268 -275 0
-268 -276 0
-269 -270 0
-269 -271 0
-269 -272 0
-269 -273 0
-269 -274 0
-269 -275 0
-269 -276 0
-270 -271 0
-270 -272 0
-270 -273 0
-270 -274 0
-270 -275 0
-270 -276 0
-271 -272 0
-271 -273 0
-271 -274 0
-271 -275 0
-271 -276 0
-272 -273 0
-272 -274 0
-272 -275 0
-272 -276 0
-273 -274 0
-273 -275 0
-273 -276 0
-274 -275 0
-274 -276 0
-275 -276 0
277 278 279 280 281 282 283 284 285 286 287 288 0
-277 -278 0
-277 -279 0
-277 -280 0
-277 -281 0
-277 -282 0
-277 -283 0
-277 -284 0
-277 -285 0
-277 -286 0
-277 -287 0
-277 -288 0
-278 -279 0
-278 -280 0
-278 -281 0
-278 -282 0
-278 -283 0
-278 -284 0
-278 -285 0
-278 -286 0
-278 -287 0
-278 -288 0
-279 -280 0
-279 -281 0
-279 -282 0
-279 -283 0
-279 -284 0
-279 -285 0
-279 -286 0
-279 -287 0
-279 -288 0
-280 -281 0
-280 -282 0
-280 -283 0
-280 -284 0
-280 -285 0
-280 -286 0
-280 -287 0
-280 -288 0
-281 -282 0
-281 -283 0
-281 -284 0
-281 -285 0
-281 -286 0
-281 -287 0
-281 -288 0
-282 -283 0
-282 -284 0
-282 -285 0
-282 -286 0
-282 -287 0
-282 -288 0
-283 -284 0
-283 -285 0
-283 -286 0
-283 -287 0
-283 -288 0
-284 -285 0
-284 -286 0
-284 -287 0
-284 -288 0
-285 -286 0
-285 -287 0
-285 -288 0
-286 -287 0
-286 -288 0
-287 -288 0
289 290 291 292 293 294 295 296 297 298 299 300 0
-289 -290 0
-289 -291 0
-289 -292 0
-289 -293 0
-289 -294 0
-289 -295 0
-289 -296 0
-289 -297 0
-289 -298 0
-289 -299 0
-289 -300 0
-290 -291 0
-290 -292 0
-290 -293 0
-290 -294 0
-290 -295 0
-290 -296 0
-290 -297 0
-290 -298 0
-290 -299 0
-290 -300 0
-291 -292 0
-291 -293 0
-291 -294 0
-291 -295 0
-291 -296 0
-291 -297 0
-291 -298 0
-291 -299 0
-291 -300 0
-292 -293 0
-292 -294 0
-292 -295 0
-292 -296 0
-292 -297 0
-292 -298 0
-292 -299 0
-292 -300 0
-293 -294 0
-293 -295 0
-293 -296 0
-293 -297 0
-293 -298 0
-293 -299 0
-293 -300 0
-294 -295 0
-294 -296 0
-294 -297 0
-294 -298 0
-294 -299 0
-294 -300 0
-295 -296 0
-295 -297 0
-295 -298 0
-295 -299 0
-295 -300 0
-296 -297 0
-296 -298 0
-296 -299 0
-296 -300 0
-297 -298 0
-297 -299 0
-297 -300 0
-298 -299 0
-298 -300 0
-299 -300 0
301 302 303 304 305 306 307 308 309 310 311 312 0
-301 -302 0
-301 -303 0
-301 -304 0
-301 -305 0
-301 -306 0
-301 -307 0
-301 -308 0
-301 -309 0
-301 -310 0
-301 -311 0
-301 -312 0
-302 -303 0
-302 -304 0
-302 -305 0
-302 -306 0
-302 -307 0
-302 -308 0
-302 -309 0
-302 -310 0
-302 -311 0
-302 -312 0
-303 -304 0
-303 -305 0
-303 -306 0
-303 -307 0
-303 -308 0
-303 -309 0
-303 -310 0
-303 -311 0
-303 -312 0
-304 -305 0
-304 -306 0
-304 -307 0
-304 -308 0
-304 -309 0
-304 -310 0
-304 -311 0
-304 -312 0
-305 -306 0
-305 -307 0
-305 -308 0
-305 -309 0
-305 -310 0
-305 -311 0
-305 -312 0
-306 -307 0
-306 -308 0
-306 -309 0
-306 -310 0
-306 -311 0
-306 -312 0
-307 -308 0
-307 -309 0
-307 -310 0
-307 -311 0
-307 -312 0
-308 -309 0
-308 -310 0
-308 -311 0
-308 -312 0
-309 -310 0
-309 -311 0
-309 -312 0
-310 -311 0
-310 -312 0
-311 -312 0
313 314 315 316 317 318 319 320 321 322 323 324 0
-313 -314 0
-313 -315 0
-313 -316 0
-313 -317 0
-313 -318 0
-313 -319 0
-313 -320 0
-313 -321 0
-313 -322 0
-313 -323 0
-313 -324 0
-314 -315 0
-314 -316 0
-314 -317 0
-314 -318 0
-314 -319 0
-314 -320 0
-314 -321 0
-314 -322 0
-314 -323 0
-314 -324 0
-315 -316 0
-315 -317 0
-315 -318 0
-315 -319 0
-315 -320 0
-315 -321 0
-315 -322 0
-315 -323 0
-315 -324 0
-316 -317 0
-316 -318 0
-316 -319 0
-316 -320 0
-316 -321 0
-316 -322 0
-316 -323 0
-316 -324 0
-317 -318 0
-317 -319 0
-317 -320 0
-317 -321 0
-317 -322 0
-317 -323 0
-317 -324 0
-318 -319 0
-318 -320 0
-318 -321 0
-318 -322 0
-318 -323 0
-318 -324 0
-319 -320 0
-319 -321 0
-319 -322 0
-319 -323 0
-319 -324 0
-320 -321 0
-320 -322 0
-320 -323 0
-320 -324 0
-321 -322 0
-321 -323 0
-321 -324 0
-322 -323 0
-322 -324 0
-323 -324 0
325 326 327 328 329 330 331 332 333 334 335 336 0
-325 -326 0
-325 -327 0
-325 -328 0
-325 -329 0
-325 -330 0
-325 -331 0
-325 -332 0
-325 -333 0
-325 -334 0
-325 -335 0
-325 -336 0
-326 -327 0
-326 -328 0
-326 -329 0
-326 -330 0
-326 -331 0
-326 -332 0
-326 -333 0
-326 -334 0
-326 -335 0
-326 -336 0
-327 -328 0
-327 -329 0
-327 -330 0
-327 -331 0
-327 -332 0
-327 -333 0
-327 -334 0
-327 -335 0
-327 -336 0
-328 -329 0
-328 -330 0
-328 -331 0
-328 -332 0
-328 -333 0
-328 -334 0
-328 -335 0
-328 -336 0
-329 -330 0
-329 -331 0
-329 -332 0
-329 -333 0
-329 -334 0
-329 -335 0
-329 -336 0
-330 -331 0
-330 -332 0
-330 -333 0
-330 -334 0
-330 -335 0
-330 -336 0
-331 -332 0
-331 -333 0
-331 -334 0
-331 -335 0
-331 -336 0
-332 -333 0
-332 -334 0
-332 -335 0
-332 -336 0
-333 -334 0
-333 -335 0
-333 -336 0
-334 -335 0
-334 -336 0
-335 -336 0
337 338 339 340 341 342 343 344 345 346 347 348 0
-337 -338 0
-337 -339 0
-337 -340 0
-337 -341 0
-337 -342 0
-337 -343 0
-337 -344 0
-337 -345 0
-337 -346 0
-337 -347 0
-337 -348 0
-338 -339 0
-338 -340 0
-338 -341 0
-338 -342 0
-338 -343 0
-338 -344 0
-338 -345 0
-338 -346 0
-338 -347 0
-338 -348 0
-339 -340 0
-339 -341 0
-339 -342 0
-339 -343 0
-339 -344 0
-339 -345 0
-339 -346 0
-339 -347 0
-339 -348 0
-340 -341 0
-340 -342 0
-340 -343 0
-340 -344 0
-340 -345 0
-340 -346 0
-340 -347 0
-340 -348 0
-341 -342 0
-341 -343 0
-341 -344 0
-341 -345 0
-341 -346 0
-341 -347 0
-341 -348 0
-342 -343 0
-342 -344 0
-342 -345 0
-342 -346 0
-342 -347 0
-342 -348 0
-343 -344 0
-343 -345 0
-343 -346 0
-343 -347 0
-343 -348 0
-344 -345 0
-344 -346 0
-344 -347 0
-344 -348 0
-345 -346 0
-345 -347 0
-345 -348 0
-346 -347 0
-346 -348 0
-347 -348 0
349 350 351 352 353 354 355 356 357 358 359 360 0
-349 -350 0
-349 -351 0
-349 -352 0
-349 -353 0
-349 -354 0
-349 -355 0
-349 -356 0
-349 -357 0
-349 -358 0
-349 -359 0
-349 -360 0
-350 -351 0
-350 -352 0
-350 -353 0
-350 -354 0
-350 -355 0
-350 -356 0
-350 -357 0
-350 -358 0
-350 -359 0
-350 -360 0
-351 -352 0
-351 -353 0
-351 -354 0
-351 -355 0
-351 -356 0
-351 -357 0
-351 -358 0
-351 -359 0
-351 -360 0
-352 -353 0
-352 -354 0
-352 -355 0
-352 -356 0
-352 -357 0
-352 -358 0
-352 -359 0
-352 -360 0
-353 -354 0
-353 -355 0
-353 -356 0
-353 -357 0
-353 -358 0
-353 -359 0
-353 -360 0
-354 -355 0
-354 -356 0
-354 -357 0
-354 -358 0
-354 -359 0
-354 -360 0
-355 -356 0
-355 -357 0
-355 -358 0
-355 -359 0
-355 -360 0
-356 -357 0
-356 -358 0
-356 -359 0
-356 -360 0
-357 -358 0
-357 -359 0
-357 -360 0
-358 -359 0
-358 -360 0
-359 -360 0
361 362 363 364 365 366 367 368 369 370 371 372 0
-361 -362 0
-361 -363 0
-361 -364 0
-361 -365 0
-361 -366 0
-361 -367 0
-361 -368 0
-361 -369 0
-361 -370 0
-361 -371 0
-361 -372 0
-362 -363 0
-362 -364 0
-362 -365 0
-362 -366 0
-362 -367 0
-362 -368 0
-362 -369 0
-362 -370 0
-362 -371 0
-362 -372 0
-363 -364 0
-363 -365 0
-363 -366 0
-363 -367 0
-363 -368 0
-363 -369 0
-363 -370 0
-363 -371 0
-363 -372 0
-364 -365 0
-364 -366 0
-364 -367 0
-364 -368 0
-364 -369 0
-364 -370 0
-364 -371 0
-364 -372 0
-365 -366 0
-365 -367 0
-365 -368 0
-365 -369 0
-365 -370 0
-365 -371 0
-365 -372 0
-366 -367 0
-366 -368 0
-366 -369 0
-366 -370 0
-366 -371 0
-366 -372 0
-367 -368 0
-367 -369 0
-367 -370 0
-367 -371 0
-367 -372 0
-368 -369 0
-368 -370 0
-368 -371 0
-368 -372 0
-369 -370 0
-369 -371 0
-369 -372 0
-370 -371 0
-370 -372 0
-371 -372 0
373 374 375 376 377 378 379 380 381 382 383 384 0
-373 -374 0
-373 -375 0
-373 -376 0
-373 -377 0
-373 -378 0
-373 -379 0
-373 -380 0
-373 -381 0
-373 -382 0
-373 -383 0
-373 -384 0
-374 -375 0
-374 -376 0
-374 -377 0
-374 -378 0
-374 -379 0
-374 -380 0
-374 -381 0
-374 -382 0
-374 -383 0
-374 -384 0
-375 -376 0
-375 -377 0
-375 -378 0
-375 -379 0
-375 -380 0
-375 -381 0
-375 -382 0
-375 -383 0
-375 -384 0
-376 -377 0
-376 -378 0
-376 -379 0
-376 -380 0
-376 -381 0
-376 -382 0
-376 -383 0
-376 -384 0
-377 -378 0
-377 -379 0
-377 -380 0
-377 -381 0
-377 -382 0
-377 -383 0
-377 -384 0
-378 -379 0
-378 -380 0
-378 -381 0
-378 -382 0
-378 -383 0
-378 -384 0
-379 -380 0
-379 -381 0
-379 -382 0
-379 -383 0
-379 -384 0
-380 -381 0
-380 -382 0
-380 -383 0
-380 -384 0
-381 -382 0
-381 -383 0
-381 -384 0
-382 -383 0
-382 -384 0
-383 -384 0
385 386 387 388 389 390 391 392 393 394 395 396 0
-385 -386 0
-385 -387 0
-385 -388 0
-385 -389 0
-385 -390 0
-385 -391 0
-385 -392 0
-385 -393 0
-385 -394 0
-385 -395 0
-385 -396 0
-386 -387 0
-386 -388 0
-386 -389 0
-386 -390 0
-386 -391 0
-386 -392 0
-386 -393 0
-386 -394 0
-386 -395 0
-386 -396 0
-387 -388 0
-387 -389 0
-387 -390 0
-387 -391 0
-387 -392 0
-387 -393 0
-387 -394 0
-387 -395 0
-387 -396 0
-388 -389 0
-388 -390 0
-388 -391 0
-388 -392 0
-388 -393 0
-388 -394 0
-388 -395 0
-388 -396 0
-389 -390 0
-389 -391 0
-389 -392 0
-389 -393 0
-389 -394 0
-389 -395 0
-389 -396 0
-390 -391 0
-390 -392 0
-390 -393 0
-390 -394 0
-390 -395 0
-390 -396 0
-391 -392 0
-391 -393 0
-391 -394 0
-391 -395 0
-391 -396 0
-392 -393 0
-392 -394 0
-392 -395 0
-392 -396 0
-393 -394 0
-393 -395 0
-393 -396 0
-394 -395 0
-394 -396 0
-395 -396 0
397 398 399 400 401 402 403 404 405 406 407 408 0
-397 -398 0
-397 -399 0
-397 -400 0
-397 -401 0
-397 -402 0
-397 -403 0
-397 -404 0
-397 -405 0
-397 -406 0
-397 -407 0
-397 -408 0
-398 -399 0
-398 -400 0
-398 -401 0
-398 -402 0
-398 -403 0
-398 -404 0
-398 -405 0
-398 -406 0
-398 -407 0
-398 -408 0
-399 -400 0
-399 -401 0
-399 -402 0
-399 -403 0
-399 -404 0
-399 -405 0
-399 -406 0
-399 -407 0
-399 -408 0
-400 -401 0
-400 -402 0
-400 -403 0
-400 -404 0
-400 -405 0
-400 -406 0
-400 -407 0
-400 -408 0
-401 -402 0
-401 -403 0
-401 -404 0
-401 -405 0
-401 -406 0
-401 -407 0
-401 -408 0
-402 -403 0
-402 -404 0
-402 -405 0
-402 -406 0
-402 -407 0
-402 -408 0
-403 -404 0
-403 -405 0
-403 -406 0
-403 -407 0
-403 -408 0
-404 -405 0
-404 -406 0
-404 -407 0
-404 -408 0
-405 -406 0
-405 -407 0
-405 -408 0
-406 -407 0
-406 -408 0
-407 -408 0
-1 -13 0
-1 -25 0
-1 -37 0
-13 -25 0
-13 -37 0
-25 -37 0
-2 -14 0
-2 -26 0
-2 -38 0
-14 -26 0
-14 -38 0
-26 -38 0
-3 -15 0
-3 -27 0
-3 -39 0
-15 -27 0
-15 -39 0
-27 -39 0
-4 -16 0
-4 -28 0
-4 -40 0
-16 -28 0
-16 -40 0
-28 -40 0
-5 -17 0
-5 -29 0
-5 -41 0
-17 -29 0
-17 -41 0
-29 -41 0
-6 -18 0
-6 -30 0
-6 -42 0
-18 -30 0
-18 -42 0
-30 -42 0
-7 -19 0
-7 -31 0
-7 -43 0
-19 -31 0
-19 -43 0
-31 -43 0
-8 -20 0
-8 -32 0
-8 -44 0
-20 -32 0
-20 -44 0
-32 -44 0
-9 -21 0
-9 -33 0
-9 -45 0
-21 -33 0
-21 -45 0
-33 -45 0
-10 -22 0
-10 -34 0
-10 -46 0
-22 -34 0
-22 -46 0
-34 -46 0
-11 -23 0
-11 -35 0
-11 -47 0
-23 -35 0
-23 -47 0
-35 -47 0
-12 -24 0
-12 -36 0
-12 -48 0
-24 -36 0
-24 -48 0
-36 -48 0
409 410 411 412 413 414 415 416 417 0
-409 -410 0
-409 -411 0
-409 -412 0
-409 -413 0
-409 -414 0
-409 -415 0
-409 -416 0
-409 -417 0
-410 -411 0
-410 -412 0
-410 -413 0
-410 -414 0
-410 -415 0
-410 -416 0
-410 -417 0
-411 -412 0
-411 -413 0
-411 -414 0
-411 -415 0
-411 -416 0
-411 -417 0
-412 -413 0
-412 -414 0
-412 -415 0
-412 -416 0
-412 -417 0
-413 -414 0
-413 -415 0
-413 -416 0
-413 -417 0
-414 -415 0
-414 -416 0
-414 -417 0
-415 -416 0
-415 -417 0
-416 -417 0
-1 409 0
-2 409 410 0
-3 409 410 411 0
-4 409 410 411 412 0
-5 410 411 412 413 0
-6 411 412 413 414 0
-7 412 413 414 415 0
-8 413 414 415 416 0
-9 414 415 416 417 0
-10 415 416 417 0
-11 416 417 0
-12 417 0
-13 409 0
-14 409 410 0
-15 409 410 411 0
-16 409 410 411 412 0
-17 410 411 412 413 0
-18 411 412 413 414 0
-19 412 413 414 415 0
-20 413 414 415 416 0
-21 414 415 416 417 0
-22 415 416 417 0
-23 416 417 0
-24 417 0
-25 409 0
-26 409 410 0
-27 409 410 411 0
-28 409 410 411 412 0
-29 410 411 412 413 0
-30 411 412 413 414 0
-31 412 413 414 415 0
-32 413 414 415 416 0
-33 414 415 416 417 0
-34 415 416 417 0
-35 416 417 0
-36 417 0
-37 409 0
-38 409 410 0
-39 409 410 411 0
-40 409 410 411 412 0
-41 410 411 412 413 0
-42 411 412 413 414 0
-43 412 413 414 415 0
-44 413 414 415 416 0
-45 414 415 416 417 0
-46 415 416 417 0
-47 416 417 0
-48 417 0
-409 -5 0
-409 -6 0
-409 -7 0
-409 -8 0
-409 -9 0
-409 -10 0
-409 -11 0
-409 -12 0
-409 -17 0
-409 -18 0
-409 -19 0
-409 -20 0
-409 -21 0
-409 -22 0
-409 -23 0
-409 -24 0
-409 -29 0
-409 -30 0
-409 -31 0
-409 -32 0
-409 -33 0
-409 -34 0
-409 -35 0
-409 -36 0
-409 -41 0
-409 -42 0
-409 -43 0
-409 -44 0
-409 -45 0
-409 -46 0
-409 -47 0
-409 -48 0
-410 -1 0
-410 -6 0
-410 -7 0
-410 -8 0
-410 -9 0
-410 -10 0
-410 -11 0
-410 -12 0
-410 -13 0
-410 -18 0
-410 -19 0
-410 -20 0
-410 -21 0
-410 -22 0
-410 -23 0
-410 -24 0
-410 -25 0
-410 -30 0
-410 -31 0
-410 -32 0
-410 -33 0
-410 -34 0
-410 -35 0
-410 -36 0
-410 -37 0
-410 -42 0
-410 -43 0
-410 -44 0
-410 -45 0
-410 -46 0
-410 -47 0
-410 -48 0
-411 -1 0
-411 -2 0
-411 -7 0
-411 -8 0
-411 -9 0
-411 -10 0
-411 -11 0
-411 -12 0
-411 -13 0
-411 -14 0
-411 -19 0
-411 -20 0
-411 -21 0
-411 -22 0
-411 -23 0
-411 -24 0
-411 -25 0
-411 -26 0
-411 -31 0
-411 -32 0
-411 -33 0
-411 -34 0
-411 -35 0
-411 -36 0
-411 -37 0
-411 -38 0
-411 -43 0
-411 -44 0
-411 -45 0
-411 -46 0
-411 -47 0
-411 -48 0
-412 -1 0
-412 -2 0
-412 -3 0
-412 -8 0
-412 -9 0
-412 -10 0
-412 -11 0
-412 -12 0
-412 -13 0
-412 -14 0
-412 -15 0
-412 -20 0
-412 -21 0
-412 -22 0
-412 -23 0
-412 -24 0
-412 -25 0
-412 -26 0
-412 -27 0
-412 -32 0
-412 -33 0
-412 -34 0
-412 -35 0
-412 -36 0
-412 -37 0
-412 -38 0
-412 -39 0
-412 -44 0
-412 -45 0
-412 -46 0
-412 -47 0
-412 -48 0
-413 -1 0
-413 -2 0
-413 -3 0
-413 -4 0
-413 -9 0
-413 -10 0
-413 -11 0
-413 -12 0
-413 -13 0
-413 -14 0
-413 -15 0
-413 -16 0
-413 -21 0
-413 -22 0
-413 -23 0
-413 -24 0
-413 -25 0
-413 -26 0
-413 -27 0
-413 -28 0
-413 -33 0
-413 -34 0
-413 -35 0
-413 -36 0
-413 -37 0
-413 -38 0
-413 -39 0
-413 -40 0
-413 -45 0
-413 -46 0
-413 -47 0
-413 -48 0
-414 -1 0
-414 -2 0
-414 -3 0
-414 -4 0
-414 -5 0
-414 -10 0
-414 -11 0
-414 -12 0
-414 -13 0
-414 -14 0
-414 -15 0
-414 -16 0
-414 -17 0
-414 -22 0
-414 -23 0
-414 -24 0
-414 -25 0
-414 -26 0
-414 -27 0
-414 -28 0
-414 -29 0
-414 -34 0
-414 -35 0
-414 -36 0
-414 -37 0
-414 -38 0
-414 -39 0
-414 -40 0
-414 -41 0
-414 -46 0
-414 -47 0
-414 -48 0
-415 -1 0
-415 -2 0
-415 -3 0
-415 -4 0
-415 -5 0
-415 -6 0
-415 -11 0
-415 -12 0
-415 -13 0
-415 -14 0
-415 -15 0
-415 -16 0
-415 -17 0
-415 -18 0
-415 -23 0
-415 -24 0
-415 -25 0
-415 -26 0
-415 -27 0
-415 -28 0
-415 -29 0
-415 -30 0
-415 -35 0
-415 -36 0
-415 -37 0
-415 -38 0
-415 -39 0
-415 -40 0
-415 -41 0
-415 -42 0
-415 -47 0
-415 -48 0
-416 -1 0
-416 -2 0
-416 -3 0
-416 -4 0
-416 -5 0
-416 -6 0
-416 -7 0
-416 -12 0
-416 -13 0
-416 -14 0
-416 -15 0
-416 -16 0
-416 -17 0
-416 -18 0
-416 -19 0
-416 -24 0
-416 -25 0
-416 -26 0
-416 -27 0
-416 -28 0
-416 -29 0
-416 -30 0
-416 -31 0
-416 -36 0
-416 -37 0
-416 -38 0
-416 -39 0
-416 -40 0
-416 -41 0
-416 -42 0
-416 -43 0
-416 -48 0
-417 -1 0
-417 -2 0
-417 -3 0
-417 -4 0
-417 -5 0
-417 -6 0
-417 -7 0
-417 -8 0
-417 -13 0
-417 -14 0
-417 -15 0
-417 -16 0
-417 -17 0
-417 -18 0
-417 -19 0
-417 -20 0
-417 -25 0
-417 -26 0
-417 -27 0
-417 -28 0
-417 -29 0
-417 -30 0
-417 -31 0
-417 -32 0
-417 -37 0
-417 -38 0
-417 -39 0
-417 -40 0
-417 -41 0
-417 -42 0
-417 -43 0
-417 -44 0
-49 -61 0
-49 -73 0
-61 -73 0
-50 -62 0
-50 -74 0
-62 -74 0
-51 -63 0
-51 -75 0
-63 -75 0
-52 -64 0
-52 -76 0
-64 -76 0
-53 -65 0
-53 -77 0
-65 -77 0
-54 -66 0
-54 -78 0
-66 -78 0
-55 -67 0
-55 -79 0
-67 -79 0
-56 -68 0
-56 -80 0
-68 -80 0
-57 -69 0
-57 -81 0
-69 -81 0
-58 -70 0
-58 -82 0
-70 -82 0
-59 -71 0
-59 -83 0
-71 -83 0
-60 -72 0
-60 -84 0
-72 -84 0
418 419 420 421 422 423 424 425 426 427 0
-418 -419 0
-418 -420 0
-418 -421 0
-418 -422 0
-418 -423 0
-418 -424 0
-418 -425 0
-418 -426 0
-418 -427 0
-419 -420 0
-419 -421 0
-419 -422 0
-419 -423 0
-419 -424 0
-419 -425 0
-419 -426 0
-419 -427 0
-420 -421 0
-420 -422 0
-420 -423 0
-420 -424 0
-420 -425 0
-420 -426 0
-420 -427 0
-421 -422 0
-421 -423 0
-421 -424 0
-421 -425 0
-421 -426 0
-421 -427 0
-422 -423 0
-422 -424 0
-422 -425 0
-422 -426 0
-422 -427 0
-423 -424 0
-423 -425 0
-423 -426 0
-423 -427 0
-424 -425 0
-424 -426 0
-424 -427 0
-425 -426 0
-425 -427 0
-426 -427 0
-49 418 0
-50 418 419 0
-51 418 419 420 0
-52 419 420 421 0
-53 420 421 422 0
-54 421 422 423 0
-55 422 423 424 0
-56 423 424 425 0
-57 424 425 426 0
-58 425 426 427 0
-59 426 427 0
-60 427 0
-61 418 0
-62 418 419 0
-63 418 419 420 0
-64 419 420 421 0
-65 420 421 422 0
-66 421 422 423 0
-67 422 423 424 0
-68 423 424 425 0
-69 424 425 426 0
-70 425 426 427 0
-71 426 427 0
-72 427 0
-73 418 0
-74 418 419 0
-75 418 419 420 0
-76 419 420 421 0
-77 420 421 422 0
-78 421 422 423 0
-79 422 423 424 0
-80 423 424 425 0
-81 424 425 426 0
-82 425 426 427 0
-83 426 427 0
-84 427 0
-418 -52 0
-418 -53 0
-418 -54 0
-418 -55 0
-418 -56 0
-418 -57 0
-418 -58 0
-418 -59 0
-418 -60 0
-418 -64 0
-418 -65 0
-418 -66 0
-418 -67 0
-418 -68 0
-418 -69 0
-418 -70 0
-418 -71 0
-418 -72 0
-418 -76 0
-418 -77 0
-418 -78 0
-418 -79 0
-418 -80 0
-418 -81 0
-418 -82 0
-418 -83 0
-418 -84 0
-419 -49 0
-419 -53 0
-419 -54 0
-419 -55 0
-419 -56 0
-419 -57 0
-419 -58 0
-419 -59 0
-419 -60 0
-419 -61 0
-419 -65 0
-419 -66 0
-419 -67 0
-419 -68 0
-419 -69 0
-419 -70 0
-419 -71 0
-419 -72 0
-419 -73 0
-419 -77 0
-419 -78 0
-419 -79 0
-419 -80 0
-419 -81 0
-419 -82 0
-419 -83 0
-419 -84 0
-420 -49 0
-420 -50 0
-420 -54 0
-420 -55 0
-420 -56 0
-420 -57 0
-420 -58 0
-420 -59 0
-420 -60 0
-420 -61 0
-420 -62 0
-420 -66 0
-420 -67 0
-420 -68 0
-420 -69 0
-420 -70 0
-420 -71 0
-420 -72 0
-420 -73 0
-420 -74 0
-420 -78 0
-420 -79 0
-420 -80 0
-420 -81 0
-420 -82 0
-420 -83 0
-420 -84 0
-421 -49 0
-421 -50 0
-421 -51 0
-421 -55 0
-421 -56 0
-421 -57 0
-421 -58 0
-421 -59 0
-421 -60 0
-421 -61 0
-421 -62 0
-421 -63 0
-421 -67 0
-421 -68 0
-421 -69 0
-421 -70 0
-421 -71 0
-421 -72 0
-421 -73 0
-421 -74 0
-421 -75 0
-421 -79 0
-421 -80 0
-421 -81 0
-421 -82 0
-421 -83 0
-421 -84 0
-422 -49 0
-422 -50 0
-422 -51 0
-422 -52 0
-422 -56 0
-422 -57 0
-422 -58 0
-422 -59 0
-422 -60 0
-422 -61 0
-422 -62 0
-422 -63 0
-422 -64 0
-422 -68 0
-422 -69 0
-422 -70 0
-422 -71 0
-422 -72 0
-422 -73 0
-422 -74 0
-422 -75 0
-422 -76 0
-422 -80 0
-422 -81 0
-422 -82 0
-422 -83 0
-422 -84 0
-423 -49 0
-423 -50 0
-423 -51 0
-423 -52 0
-423 -53 0
-423 -57 0
-423 -58 0
-423 -59 0
-423 -60 0
-423 -61 0
-423 -62 0
-423 -63 0
-423 -64 0
-423 -65 0
-423 -69 0
-423 -70 0
-423 -71 0
-423 -72 0
-423 -73 0
-423 -74 0
-423 -75 0
-423 -76 0
-423 -77 0
-423 -81 0
-423 -82 0
-423 -83 0
-423 -84 0
-424 -49 0
-424 -50 0
-424 -51 0
-424 -52 0
-424 -53 0
-424 -54 0
-424 -58 0
-424 -59 0
-424 -60 0
-424 -61 0
-424 -62 0
-424 -63 0
-424 -64 0
-424 -65 0
-424 -66 0
-424 -70 0
-424 -71 0
-424 -72 0
-424 -73 0
-424 -74 0
-424 -75 0
-424 -76 0
-424 -77 0
-424 -78 0
-424 -82 0
-424 -83 0
-424 -84 0
-425 -49 0
-425 -50 0
-425 -51 0
-425 -52 0
-425 -53 0
-425 -54 0
-425 -55 0
-425 -59 0
-425 -60 0
-425 -61 0
-425 -62 0
-425 -63 0
-425 -64 0
-425 -65 0
-425 -66 0
-425 -67 0
-425 -71 0
-425 -72 0
-425 -73 0
-425 -74 0
-425 -75 0
-425 -76 0
-425 -77 0
-425 -78 0
-425 -79 0
-425 -83 0
-425 -84 0
-426 -49 0
-426 -50 0
-426 -51 0
-426 -52 0
-426 -53 0
-426 -54 0
-426 -55 0
-426 -56 0
-426 -60 0
-426 -61 0
-426 -62 0
-426 -63 0
-426 -64 0
-426 -65 0
-426 -66 0
-426 -67 0
-426 -68 0
-426 -72 0
-426 -73 0
-426 -74 0
-426 -75 0
-426 -76 0
-426 -77 0
-426 -78 0
-426 -79 0
-426 -80 0
-426 -84 0
-427 -49 0
-427 -50 0
-427 -51 0
-427 -52 0
-427 -53 0
-427 -54 0
-427 -55 0
-427 -56 0
-427 -57 0
-427 -61 0
-427 -62 0
-427 -63 0
-427 -64 0
-427 -65 0
-427 -66 0
-427 -67 0
-427 -68 0
-427 -69 0
-427 -73 0
-427 -74 0
-427 -75 0
-427 -76 0
-427 -77 0
-427 -78 0
-427 -79 0
-427 -80 0
-427 -81 0
-85 -97 0
-85 -109 0
-97 -109 0
-86 -98 0
-86 -110 0
-98 -110 0
-87 -99 0
-87 -111 0
-99 -111 0
-88 -100 0
-88 -112 0
-100 -112 0
-89 -101 0
-89 -113 0
-101 -113 0
-90 -102 0
-90 -114 0
-102 -114 0
-91 -103 0
-91 -115 0
-103 -115 0
-92 -104 0
-92 -116 0
-104 -116 0
-93 -105 0
-93 -117 0
-105 -117 0
-94 -106 0
-94 -118 0
-106 -118 0
-95 -107 0
-95 -119 0
-107 -119 0
-96 -108 0
-96 -120 0
-108 -120 0
428 429 430 431 432 433 434 435 436 437 0
-428 -429 0
-428 -430 0
-428 -431 0
-428 -432 0
-428 -433 0
-428 -434 0
-428 -435 0
-428 -436 0
-428 -437 0
-429 -430 0
-429 -431 0
-429 -432 0
-429 -433 0
-429 -434 0
-429 -435 0
-429 -436 0
-429 -437 0
-430 -431 0
-430 -432 0
-430 -433 0
-430 -434 0
-430 -435 0
-430 -436 0
-430 -437 0
-431 -432 0
-431 -433 0
-431 -434 0
-431 -435 0
-431 -436 0
-431 -437 0
-432 -433 0
-432 -434 0
-432 -435 0
-432 -436 0
-432 -437 0
-433 -434 0
-433 -435 0
-433 -436 0
-433 -437 0
-434 -435 0
-434 -436 0
-434 -437 0
-435 -436 0
-435 -437 0
-436 -437 0
-85 428 0
-86 428 429 0
-87 428 429 430 0
-88 429 430 431 0
-89 430 431 432 0
-90 431 432 433 0
-91 432 433 434 0
-92 433 434 435 0
-93 434 435 436 0
-94 435 436 437 0
-95 436 437 0
-96 437 0
-97 428 0
-98 428 429 0
-99 428 429 430 0
-100 429 430 431 0
-101 430 431 432 0
-102 431 432 433 0
-103 432 433 434 0
-104 433 434 435 0
-105 434 435 436 0
-106 435 436 437 0
-107 436 437 0
-108 437 0
-109 428 0
-110 428 429 0
-111 428 429 430 0
-112 429 430 431 0
-113 430 431 432 0
-114 431 432 433 0
-115 432 433 434 0
-116 433 434 435 0
-117 434 435 436 0
-118 435 436 437 0
-119 436 437 0
-120 437 0
-428 -88 0
-428 -89 0
-428 -90 0
-428 -91 0
-428 -92 0
-428 -93 0
-428 -94 0
-428 -95 0
-428 -96 0
-428 -100 0
-428 -101 0
-428 -102 0
-428 -103 0
-428 -104 0
-428 -105 0
-428 -106 0
-428 -107 0
-428 -108 0
-428 -112 0
-428 -113 0
-428 -114 0
-428 -115 0
-428 -116 0
-428 -117 0
-428 -118 0
-428 -119 0
-428 -120 0
-429 -85 0
-429 -89 0
-429 -90 0
-429 -91 0
-429 -92 0
-429 -93 0
-429 -94 0
-429 -95 0
-429 -96 0
-429 -97 0
-429 -101 0
-429 -102 0
-429 -103 0
-429 -104 0
-429 -105 0
-429 -106 0
-429 -107 0
-429 -108 0
-429 -109 0
-429 -113 0
-429 -114 0
-429 -115 0
-429 -116 0
-429 -117 0
-429 -118 0
-429 -119 0
-429 -120 0
-430 -85 0
-430 -86 0
-430 -90 0
-430 -91 0
-430 -92 0
-430 -93 0
-430 -94 0
-430 -95 0
-430 -96 0
-430 -97 0
-430 -98 0
-430 -102 0
-430 -103 0
-430 -104 0
-430 -105 0
-430 -106 0
-430 -107 0
-430 -108 0
-430 -109 0
-430 -110 0
-430 -114 0
-430 -115 0
-430 -116 0
-430 -117 0
-430 -118 0
-430 -119 0
-430 -120 0
-431 -85 0
-431 -86 0
-431 -87 0
-431 -91 0
-431 -92 0
-431 -93 0
-431 -94 0
-431 -95 0
-431 -96 0
-431 -97 0
-431 -98 0
-431 -99 0
-431 -103 0
-431 -104 0
-431 -105 0
-431 -106 0
-431 -107 0
-431 -108 0
-431 -109 0
-431 -110 0
-431 -111 0
-431 -115 0
-431 -116 0
-431 -117 0
-431 -118 0
-431 -119 0
-431 -120 0
-432 -85 0
-432 -86 0
-432 -87 0
-432 -88 0
-432 -92 0
-432 -93 0
-432 -94 0
-432 -95 0
-432 -96 0
-432 -97 0
-432 -98 0
-432 -99 0
-432 -100 0
-432 -104 0
-432 -105 0
-432 -106 0
-432 -107 0
-432 -108 0
-432 -109 0
-432 -110 0
-432 -111 0
-432 -112 0
-432 -116 0
-432 -117 0
-432 -118 0
-432 -119 0
-432 -120 0
-433 -85 0
-433 -86 0
-433 -87 0
-433 -88 0
-433 -89 0
-433 -93 0
-433 -94 0
-433 -95 0
-433 -96 0
-433 -97 0
-433 -98 0
-433 -99 0
-433 -100 0
-433 -101 0
-433 -105 0
-433 -106 0
-433 -107 0
-433 -108 0
-433 -109 0
-433 -110 0
-433 -111 0
-433 -112 0
-433 -113 0
-433 -117 0
-433 -118 0
-433 -119 0
-433 -120 0
-434 -85 0
-434 -86 0
-434 -87 0
-434 -88 0
-434 -89 0
-434 -90 0
-434 -94 0
-434 -95 0
-434 -96 0
-434 -97 0
-434 -98 0
-434 -99 0
-434 -100 0
-434 -101 0
-434 -102 0
-434 -106 0
-434 -107 0
-434 -108 0
-434 -109 0
-434 -110 0
-434 -111 0
-434 -112 0
-434 -113 0
-434 -114 0
-434 -118 0
-434 -119 0
-434 -120 0
-435 -85 0
-435 -86 0
-435 -87 0
-435 -88 0
-435 -89 0
-435 -90 0
-435 -91 0
-435 -95 0
-435 -96 0
-435 -97 0
-435 -98 0
-435 -99 0
-435 -100 0
-435 -101 0
-435 -102 0
-435 -103 0
-435 -107 0
-435 -108 0
-435 -109 0
-435 -110 0
-435 -111 0
-435 -112 0
-435 -113 0
-435 -114 0
-435 -115 0
-435 -119 0
-435 -120 0
-436 -85 0
-436 -86 0
-436 -87 0
-436 -88 0
-436 -89 0
-436 -90 0
-436 -91 0
-436 -92 0
-436 -96 0
-436 -97 0
-436 -98 0
-436 -99 0
-436 -100 0
-436 -101 0
-436 -102 0
-436 -103 0
-436 -104 0
-436 -108 0
-436 -109 0
-436 -110 0
-436 -111 0
-436 -112 0
-436 -113 0
-436 -114 0
-436 -115 0
-436 -116 0
-436 -120 0
-437 -85 0
-437 -86 0
-437 -87 0
-437 -88 0
-437 -89 0
-437 -90 0
-437 -91 0
-437 -92 0
-437 -93 0
-437 -97 0
-437 -98 0
-437 -99 0
-437 -100 0
-437 -101 0
-437 -102 0
-437 -103 0
-437 -104 0
-437 -105 0
-437 -109 0
-437 -110 0
-437 -111 0
-437 -112 0
-437 -113 0
-437 -114 0
-437 -115 0
-437 -116 0
-437 -117 0
-121 -133 0
-121 -145 0
-133 -145 0
-122 -134 0
-122 -146 0
-134 -146 0
-123 -135 0
-123 -147 0
-135 -147 0
-124 -136 0
-124 -148 0
-136 -148 0
-125 -137 0
-125 -149 0
-137 -149 0
-126 -138 0
-126 -150 0
-138 -150 0
-127 -139 0
-127 -151 0
-139 -151 0
-128 -140 0
-128 -152 0
-140 -152 0
-129 -141 0
-129 -153 0
-141 -153 0
-130 -142 0
-130 -154 0
-142 -154 0
-131 -143 0
-131 -155 0
-143 -155 0
-132 -144 0
-132 -156 0
-144 -156 0
438 439 440 441 442 443 444 445 446 447 0
-438 -439 0
-438 -440 0
-438 -441 0
-438 -442 0
-438 -443 0
-438 -444 0
-438 -445 0
-438 -446 0
-438 -447 0
-439 -440 0
-439 -441 0
-439 -442 0
-439 -443 0
-439 -444 0
-439 -445 0
-439 -446 0
-439 -447 0
-440 -441 0
-440 -442 0
-440 -443 0
-440 -444 0
-440 -445 0
-440 -446 0
-440 -447 0
-441 -442 0
-441 -443 0
-441 -444 0
-441 -445 0
-441 -446 0
-441 -447 0
-442 -443 0
-442 -444 0
-442 -445 0
-442 -446 0
-442 -447 0
-443 -444 0
-443 -445 0
-443 -446 0
-443 -447 0
-444 -445 0
-444 -446 0
-444 -447 0
-445 -446 0
-445 -447 0
-446 -447 0
-121 438 0
-122 438 439 0
-123 438 439 440 0
-124 439 440 441 0
-125 440 441 442 0
-126 441 442 443 0
-127 442 443 444 0
-128 443 444 445 0
-129 444 445 446 0
-130 445 446 447 0
-131 446 447 0
-132 447 0
-133 438 0
-134 438 439 0
-135 438 439 440 0
-136 439 440 441 0
-137 440 441 442 0
-138 441 442 443 0
-139 442 443 444 0
-140 443 444 445 0
-141 444 445 446 0
-142 445 446 447 0
-143 446 447 0
-144 447 0
-145 438 0
-146 438 439 0
-147 438 439 440 0
-148 439 440 441 0
-149 440 441 442 0
-150 441 442 443 0
-151 442 443 444 0
-152 443 444 445 0
-153 444 445 446 0
-154 445 446 447 0
-155 446 447 0
-156 447 0
-438 -124 0
-438 -125 0
-438 -126 0
-438 -127 0
-438 -128 0
-438 -129 0
-438 -130 0
-438 -131 0
-438 -132 0
-438 -136 0
-438 -137 0
-438 -138 0
-438 -139 0
-438 -140 0
-438 -141 0
-438 -142 0
-438 -143 0
-438 -144 0
-438 -148 0
-438 -149 0
-438 -150 0
-438 -151 0
-438 -152 0
-438 -153 0
-438 -154 0
-438 -155 0
-438 -156 0
-439 -121 0
-439 -125 0
-439 -126 0
-439 -127 0
-439 -128 0
-439 -129 0
-439 -130 0
-439 -131 0
-439 -132 0
-439 -133 0
-439 -137 0
-439 -138 0
-439 -139 0
-439 -140 0
-439 -141 0
-439 -142 0
-439 -143 0
-439 -144 0
-439 -145 0
-439 -149 0
-439 -150 0
-439 -151 0
-439 -152 0
-439 -153 0
-439 -154 0
-439 -155 0
-439 -156 0
-440 -121 0
-440 -122 0
-440 -126 0
-440 -127 0
-440 -128 0
-440 -129 0
-440 -130 0
-440 -131 0
-440 -132 0
-440 -133 0
-440 -134 0
-440 -138 0
-440 -139 0
-440 -140 0
-440 -141 0
-440 -142 0
-440 -143 0
-440 -144 0
-440 -145 0
-440 -146 0
-440 -150 0
-440 -151 0
-440 -152 0
-440 -153 0
-440 -154 0
-440 -155 0
-440 -156 0
-441 -121 0
-441 -122 0
-441 -123 0
-441 -127 0
-441 -128 0
-441 -129 0
-441 -130 0
-441 -131 0
-441 -132 0
-441 -133 0
-441 -134 0
-441 -135 0
-441 -139 0
-441 -140 0
-441 -141 0
-441 -142 0
-441 -143 0
-441 -144 0
-441 -145 0
-441 -146 0
-441 -147 0
-441 -151 0
-441 -152 0
-441 -153 0
-441 -154 0
-441 -155 0
-441 -156 0
-442 -121 0
-442 -122 0
-442 -123 0
-442 -124 0
-442 -128 0
-442 -129 0
-442 -130 0
-442 -131 0
-442 -132 0
-442 -133 0
-442 -134 0
-442 -135 0
-442 -136 0
-442 -140 0
-442 -141 0
-442 -142 0
-442 -143 0
-442 -144 0
-442 -145 0
-442 -146 0
-442 -147 0
-442 -148 0
-442 -152 0
-442 -153 0
-442 -154 0
-442 -155 0
-442 -156 0
-443 -121 0
-443 -122 0
-443 -123 0
-443 -124 0
-443 -125 0
-443 -129 0
-443 -130 0
-443 -131 0
-443 -132 0
-443 -133 0
-443 -134 0
-443 -135 0
-443 -136 0
-443 -137 0
-443 -141 0
-443 -142 0
-443 -143 0
-443 -144 0
-443 -145 0
-443 -146 0
-443 -147 0
-443 -148 0
-443 -149 0
-443 -153 0
-443 -154 0
-443 -155 0
-443 -156 0
-444 -121 0
-444 -122 0
-444 -123 0
-444 -124 0
-444 -125 0
-444 -126 0
-444 -130 0
-444 -131 0
-444 -132 0
-444 -133 0
-444 -134 0
-444 -135 0
-444 -136 0
-444 -137 0
-444 -138 0
-444 -142 0
-444 -143 0
-444 -144 0
-444 -145 0
-444 -146 0
-444 -147 0
-444 -148 0
-444 -149 0
-444 -150 0
-444 -154 0
-444 -155 0
-444 -156 0
-445 -121 0
-445 -122 0
-445 -123 0
-445 -124 0
-445 -125 0
-445 -126 0
-445 -127 0
-445 -131 0
-445 -132 0
-445 -133 0
-445 -134 0
-445 -135 0
-445 -136 0
-445 -137 0
-445 -138 0
-445 -139 0
-445 -143 0
-445 -144 0
-445 -145 0
-445 -146 0
-445 -147 0
-445 -148 0
-445 -149 0
-445 -150 0
-445 -151 0
-445 -155 0
-445 -156 0
-446 -121 0
-446 -122 0
-446 -123 0
-446 -124 0
-446 -125 0
-446 -126 0
-446 -127 0
-446 -128 0
-446 -132 0
-446 -133 0
-446 -134 0
-446 -135 0
-446 -136 0
-446 -137 0
-446 -138 0
-446 -139 0
-446 -140 0
-446 -144 0
-446 -145 0
-446 -146 0
-446 -147 0
-446 -148 0
-446 -149 0
-446 -150 0
-446 -151 0
-446 -152 0
-446 -156 0
-447 -121 0
-447 -122 0
-447 -123 0
-447 -124 0
-447 -125 0
-447 -126 0
-447 -127 0
-447 -128 0
-447 -129 0
-447 -133 0
-447 -134 0
-447 -135 0
-447 -136 0
-447 -137 0
-447 -138 0
-447 -139 0
-447 -140 0
-447 -141 0
-447 -145 0
-447 -146 0
-447 -147 0
-447 -148 0
-447 -149 0
-447 -150 0
-447 -151 0
-447 -152 0
-447 -153 0
-157 -169 0
-157 -181 0
-169 -181 0
-158 -170 0
-158 -182 0
-170 -182 0
-159 -171 0
-159 -183 0
-171 -183 0
-160 -172 0
-160 -184 0
-172 -184 0
-161 -173 0
-161 -185 0
-173 -185 0
-162 -174 0
-162 -186 0
-174 -186 0
-163 -175 0
-163 -187 0
-175 -187 0
-164 -176 0
-164 -188 0
-176 -188 0
-165 -177 0
-165 -189 0
-177 -189 0
-166 -178 0
-166 -190 0
-178 -190 0
-167 -179 0
-167 -191 0
-179 -191 0
-168 -180 0
-168 -192 0
-180 -192 0
448 449 450 451 452 453 454 455 456 457 0
-448 -449 0
-448 -450 0
-448 -451 0
-448 -452 0
-448 -453 0
-448 -454 0
-448 -455 0
-448 -456 0
-448 -457 0
-449 -450 0
-449 -451 0
-449 -452 0
-449 -453 0
-449 -454 0
-449 -455 0
-449 -456 0
-449 -457 0
-450 -451 0
-450 -452 0
-450 -453 0
-450 -454 0
-450 -455 0
-450 -456 0
-450 -457 0
-451 -452 0
-451 -453 0
-451 -454 0
-451 -455 0
-451 -456 0
-451 -457 0
-452 -453 0
-452 -454 0
-452 -455 0
-452 -456 0
-452 -457 0
-453 -454 0
-453 -455 0
-453 -456 0
-453 -457 0
-454 -455 0
-454 -456 0
-454 -457 0
-455 -456 0
-455 -457 0
-456 -457 0
-157 448 0
-158 448 449 0
-159 448 449 450 0
-160 449 450 451 0
-161 450 451 452 0
-162 451 452 453 0
-163 452 453 454 0
-164 453 454 455 0
-165 454 455 456 0
-166 455 456 457 0
-167 456 457 0
-168 457 0
-169 448 0
-170 448 449 0
-171 448 449 450 0
-172 449 450 451 0
-173 450 451 452 0
-174 451 452 453 0
-175 452 453 454 0
-176 453 454 455 0
-177 454 455 456 0
-178 455 456 457 0
-179 456 457 0
-180 457 0
-181 448 0
-182 448 449 0
-183 448 449 450 0
-184 449 450 451 0
-185 450 451 452 0
-186 451 452 453 0
-187 452 453 454 0
-188 453 454 455 0
-189 454 455 456 0
-190 455 456 457 0
-191 456 457 0
-192 457 0
-448 -160 0
-448 -161 0
-448 -162 0
-448 -163 0
-448 -164 0
-448 -165 0
-448 -166 0
-448 -167 0
-448 -168 0
-448 -172 0
-448 -173 0
-448 -174 0
-448 -175 0
-448 -176 0
-448 -177 0
-448 -178 0
-448 -179 0
-448 -180 0
-448 -184 0
-448 -185 0
-448 -186 0
-448 -187 0
-448 -188 0
-448 -189 0
-448 -190 0
-448 -191 0
-448 -192 0
-449 -157 0
-449 -161 0
-449 -162 0
-449 -163 0
-449 -164 0
-449 -165 0
-449 -166 0
-449 -167 0
-449 -168 0
-449 -169 0
-449 -173 0
-449 -174 0
-449 -175 0
-449 -176 0
-449 -177 0
-449 -178 0
-449 -179 0
-449 -180 0
-449 -181 0
-449 -185 0
-449 -186 0
-449 -187 0
-449 -188 0
-449 -189 0
-449 -190 0
-449 -191 0
-449 -192 0
-450 -157 0
-450 -158 0
-450 -162 0
-450 -163 0
-450 -164 0
-450 -165 0
-450 -166 0
-450 -167 0
-450 -168 0
-450 -169 0
-450 -170 0
-450 -174 0
-450 -175 0
-450 -176 0
-450 -177 0
-450 -178 0
-450 -179 0
-450 -180 0
-450 -181 0
-450 -182 0
-450 -186 0
-450 -187 0
-450 -188 0
-450 -189 0
-450 -190 0
-450 -191 0
-450 -192 0
-451 -157 0
-451 -158 0
-451 -159 0
-451 -163 0
-451 -164 0
-451 -165 0
-451 -166 0
-451 -167 0
-451 -168 0
-451 -169 0
-451 -170 0
-451 -171 0
-451 -175 0
-451 -176 0
-451 -177 0
-451 -178 0
-451 -179 0
-451 -180 0
-451 -181 0
-451 -182 0
-451 -183 0
-451 -187 0
-451 -188 0
-451 -189 0
-451 -190 0
-451 -191 0
-451 -192 0
-452 -157 0
-452 -158 0
-452 -159 0
-452 -160 0
-452 -164 0
-452 -165 0
-452 -166 0
-452 -167 0
-452 -168 0
-452 -169 0
-452 -170 0
-452 -171 0
-452 -172 0
-452 -176 0
-452 -177 0
-452 -178 0
-452 -179 0
-452 -180 0
-452 -181 0
-452 -182 0
-452 -183 0
-452 -184 0
-452 -188 0
-452 -189 0
-452 -190 0
-452 -191 0
-452 -192 0
-453 -157 0
-453 -158 0
-453 -159 0
-453 -160 0
-453 -161 0
-453 -165 0
-453 -166 0
-453 -167 0
-453 -168 0
-453 -169 0
-453 -170 0
-453 -171 0
-453 -172 0
-453 -173 0
-453 -177 0
-453 -178 0
-453 -179 0
-453 -180 0
-453 -181 0
-453 -182 0
-453 -183 0
-453 -184 0
-453 -185 0
-453 -189 0
-453 -190 0
-453 -191 0
-453 -192 0
-454 -157 0
-454 -158 0
-454 -159 0
-454 -160 0
-454 -161 0
-454 -162 0
-454 -166 0
-454 -167 0
-454 -168 0
-454 -169 0
-454 -170 0
-454 -171 0
-454 -172 0
-454 -173 0
-454 -174 0
-454 -178 0
-454 -179 0
-454 -180 0
-454 -181 0
-454 -182 0
-454 -183 0
-454 -184 0
-454 -185 0
-454 -186 0
-454 -190 0
-454 -191 0
-454 -192 0
-455 -157 0
-455 -158 0
-455 -159 0
-455 -160 0
-455 -161 0
-455 -162 0
-455 -163 0
-455 -167 0
-455 -168 0
-455 -169 0
-455 -170 0
-455 -171 0
-455 -172 0
-455 -173 0
-455 -174 0
-455 -175 0
-455 -179 0
-455 -180 0
-455 -181 0
-455 -182 0
-455 -183 0
-455 -184 0
-455 -185 0
-455 -186 0
-455 -187 0
-455 -191 0
-455 -192 0
-456 -157 0
-456 -158 0
-456 -159 0
-456 -160 0
-456 -161 0
-456 -162 0
-456 -163 0
-456 -164 0
-456 -168 0
-456 -169 0
-456 -170 0
-456 -171 0
-456 -172 0
-456 -173 0
-456 -174 0
-456 -175 0
-456 -176 0
-456 -180 0
-456 -181 0
-456 -182 0
-456 -183 0
-456 -184 0
-456 -185 0
-456 -186 0
-456 -187 0
-456 -188 0
-456 -192 0
-457 -157 0
-457 -158 0
-457 -159 0
-457 -160 0
-457 -161 0
-457 -162 0
-457 -163 0
-457 -164 0
-457 -165 0
-457 -169 0
-457 -170 0
-457 -171 0
-457 -172 0
-457 -173 0
-457 -174 0
-457 -175 0
-457 -176 0
-457 -177 0
-457 -181 0
-457 -182 0
-457 -183 0
-457 -184 0
-457 -185 0
-457 -186 0
-457 -187 0
-457 -188 0
-457 -189 0
-193 -205 0
-193 -217 0
-205 -217 0
-194 -206 0
-194 -218 0
-206 -218 0
-195 -207 0
-195 -219 0
-207 -219 0
-196 -208 0
-196 -220 0
-208 -220 0
-197 -209 0
-197 -221 0
-209 -221 0
-198 -210 0
-198 -222 0
-210 -222 0
-199 -211 0
-199 -223 0
-211 -223 0
-200 -212 0
-200 -224 0
-212 -224 0
-201 -213 0
-201 -225 0
-213 -225 0
-202 -214 0
-202 -226 0
-214 -226 0
-203 -215 0
-203 -227 0
-215 -227 0
-204 -216 0
-204 -228 0
-216 -228 0
458 459 460 461 462 463 464 465 466 467 0
-458 -459 0
-458 -460 0
-458 -461 0
-458 -462 0
-458 -463 0
-458 -464 0
-458 -465 0
-458 -466 0
-458 -467 0
-459 -460 0
-459 -461 0
-459 -462 0
-459 -463 0
-459 -464 0
-459 -465 0
-459 -466 0
-459 -467 0
-460 -461 0
-460 -462 0
-460 -463 0
-460 -464 0
-460 -465 0
-460 -466 0
-460 -467 0
-461 -462 0
-461 -463 0
-461 -464 0
-461 -465 0
-461 -466 0
-461 -467 0
-462 -463 0
-462 -464 0
-462 -465 0
-462 -466 0
-462 -467 0
-463 -464 0
-463 -465 0
-463 -466 0
-463 -467 0
-464 -465 0
-464 -466 0
-464 -467 0
-465 -466 0
-465 -467 0
-466 -467 0
-193 458 0
-194 458 459 0
-195 458 459 460 0
-196 459 460 461 0
-197 460 461 462 0
-198 461 462 463 0
-199 462 463 464 0
-200 463 464 465 0
-201 464 465 466 0
-202 465 466 467 0
-203 466 467 0
-204 467 0
-205 458 0
-206 458 459 0
-207 458 459 460 0
-208 459 460 461 0
-209 460 461 462 0
-210 461 462 463 0
-211 462 463 464 0
-212 463 464 465 0
-213 464 465 466 0
-214 465 466 467 0
-215 466 467 0
-216 467 0
-217 458 0
-218 458 459 0
-219 458 459 460 0
-220 459 460 461 0
-221 460 461 462 0
-222 461 462 463 0
-223 462 463 464 0
-224 463 464 465 0
-225 464 465 466 0
-226 465 466 467 0
-227 466 467 0
-228 467 0
-458 -196 0
-458 -197 0
-458 -198 0
-458 -199 0
-458 -200 0
-458 -201 0
-458 -202 0
-458 -203 0
-458 -204 0
-458 -208 0
-458 -209 0
-458 -210 0
-458 -211 0
-458 -212 0
-458 -213 0
-458 -214 0
-458 -215 0
-458 -216 0
-458 -220 0
-458 -221 0
-458 -222 0
-458 -223 0
-458 -224 0
-458 -225 0
-458 -226 0
-458 -227 0
-458 -228 0
-459 -193 0
-459 -197 0
-459 -198 0
-459 -199 0
-459 -200 0
-459 -201 0
-459 -202 0
-459 -203 0
-459 -204 0
-459 -205 0
-459 -209 0
-459 -210 0
-459 -211 0
-459 -212 0
-459 -213 0
-459 -214 0
-459 -215 0
-459 -216 0
-459 -217 0
-459 -221 0
-459 -222 0
-459 -223 0
-459 -224 0
-459 -225 0
-459 -226 0
-459 -227 0
-459 -228 0
-460 -193 0
-460 -194 0
-460 -198 0
-460 -199 0
-460 -200 0
-460 -201 0
-460 -202 0
-460 -203 0
-460 -204 0
-460 -205 0
-460 -206 0
-460 -210 0
-460 -211 0
-460 -212 0
-460 -213 0
-460 -214 0
-460 -215 0
-460 -216 0
-460 -217 0
-460 -218 0
-460 -222 0
-460 -223 0
-460 -224 0
-460 -225 0
-460 -226 0
-460 -227 0
-460 -228 0
-461 -193 0
-461 -194 0
-461 -195 0
-461 -199 0
-461 -200 0
-461 -201 0
-461 -202 0
-461 -203 0
-461 -204 0
-461 -205 0
-461 -206 0
-461 -207 0
-461 -211 0
-461 -212 0
-461 -213 0
-461 -214 0
-461 -215 0
-461 -216 0
-461 -217 0
-461 -218 0
-461 -219 0
-461 -223 0
-461 -224 0
-461 -225 0
-461 -226 0
-461 -227 0
-461 -228 0
-462 -193 0
-462 -194 0
-462 -195 0
-462 -196 0
-462 -200 0
-462 -201 0
-462 -202 0
-462 -203 0
-462 -204 0
-462 -205 0
-462 -206 0
-462 -207 0
-462 -208 0
-462 -212 0
-462 -213 0
-462 -214 0
-462 -215 0
-462 -216 0
-462 -217 0
-462 -218 0
-462 -219 0
-462 -220 0
-462 -224 0
-462 -225 0
-462 -226 0
-462 -227 0
-462 -228 0
-463 -193 0
-463 -194 0
-463 -195 0
-463 -196 0
-463 -197 0
-463 -201 0
-463 -202 0
-463 -203 0
-463 -204 0
-463 -205 0
-463 -206 0
-463 -207 0
-463 -208 0
-463 -209 0
-463 -213 0
-463 -214 0
-463 -215 0
-463 -216 0
-463 -217 0
-463 -218 0
-463 -219 0
-463 -220 0
-463 -221 0
-463 -225 0
-463 -226 0
-463 -227 0
-463 -228 0
-464 -193 0
-464 -194 0
-464 -195 0
-464 -196 0
-464 -197 0
-464 -198 0
-464 -202 0
-464 -203 0
-464 -204 0
-464 -205 0
-464 -206 0
-464 -207 0
-464 -208 0
-464 -209 0
-464 -210 0
-464 -214 0
-464 -215 0
-464 -216 0
-464 -217 0
-464 -218 0
-464 -219 0
-464 -220 0
-464 -221 0
-464 -222 0
-464 -226 0
-464 -227 0
-464 -228 0
-465 -193 0
-465 -194 0
-465 -195 0
-465 -196 0
-465 -197 0
-465 -198 0
-465 -199 0
-465 -203 0
-465 -204 0
-465 -205 0
-465 -206 0
-465 -207 0
-465 -208 0
-465 -209 0
-465 -210 0
-465 -211 0
-465 -215 0
-465 -216 0
-465 -217 0
-465 -218 0
-465 -219 0
-465 -220 0
-465 -221 0
-465 -222 0
-465 -223 0
-465 -227 0
-465 -228 0
-466 -193 0
-466 -194 0
-466 -195 0
-466 -196 0
-466 -197 0
-466 -198 0
-466 -199 0
-466 -200 0
-466 -204 0
-466 -205 0
-466 -206 0
-466 -207 0
-466 -208 0
-466 -209 0
-466 -210 0
-466 -211 0
-466 -212 0
-466 -216 0
-466 -217 0
-466 -218 0
-466 -219 0
-466 -220 0
-466 -221 0
-466 -222 0
-466 -223 0
-466 -224 0
-466 -228 0
-467 -193 0
-467 -194 0
-467 -195 0
-467 -196 0
-467 -197 0
-467 -198 0
-467 -199 0
-467 -200 0
-467 -201 0
-467 -205 0
-467 -206 0
-467 -207 0
-467 -208 0
-467 -209 0
-467 -210 0
-467 -211 0
-467 -212 0
-467 -213 0
-467 -217 0
-467 -218 0
-467 -219 0
-467 -220 0
-467 -221 0
-467 -222 0
-467 -223 0
-467 -224 0
-467 -225 0
-229 -241 0
-229 -253 0
-241 -253 0
-230 -242 0
-230 -254 0
-242 -254 0
-231 -243 0
-231 -255 0
-243 -255 0
-232 -244 0
-232 -256 0
-244 -256 0
-233 -245 0
-233 -257 0
-245 -257 0
-234 -246 0
-234 -258 0
-246 -258 0
-235 -247 0
-235 -259 0
-247 -259 0
-236 -248 0
-236 -260 0
-248 -260 0
-237 -249 0
-237 -261 0
-249 -261 0
-238 -250 0
-238 -262 0
-250 -262 0
-239 -251 0
-239 -263 0
-251 -263 0
-240 -252 0
-240 -264 0
-252 -264 0
468 469 470 471 472 473 474 475 476 477 0
-468 -469 0
-468 -470 0
-468 -471 0
-468 -472 0
-468 -473 0
-468 -474 0
-468 -475 0
-468 -476 0
-468 -477 0
-469 -470 0
-469 -471 0
-469 -472 0
-469 -473 0
-469 -474 0
-469 -475 0
-469 -476 0
-469 -477 0
-470 -471 0
-470 -472 0
-470 -473 0
-470 -474 0
-470 -475 0
-470 -476 0
-470 -477 0
-471 -472 0
-471 -473 0
-471 -474 0
-471 -475 0
-471 -476 0
-471 -477 0
-472 -473 0
-472 -474 0
-472 -475 0
-472 -476 0
-472 -477 0
-473 -474 0
-473 -475 0
-473 -476 0
-473 -477 0
-474 -475 0
-474 -476 0
-474 -477 0
-475 -476 0
-475 -477 0
-476 -477 0
-229 468 0
-230 468 469 0
-231 468 469 470 0
-232 469 470 471 0
-233 470 471 472 0
-234 471 472 473 0
-235 472 473 474 0
-236 473 474 475 0
-237 474 475 476 0
-238 475 476 477 0
-239 476 477 0
-240 477 0
-241 468 0
-242 468 469 0
-243 468 469 470 0
-244 469 470 471 0
-245 470 471 472 0
-246 471 472 473 0
-247 472 473 474 0
-248 473 474 475 0
-249 474 475 476 0
-250 475 476 477 0
-251 476 477 0
-252 477 0
-253 468 0
-254 468 469 0
-255 468 469 470 0
-256 469 470 471 0
-257 470 471 472 0
-258 471 472 473 0
-259 472 473 474 0
-260 473 474 475 0
-261 474 475 476 0
-262 475 476 477 0
-263 476 477 0
-264 477 0
-468 -232 0
-468 -233 0
-468 -234 0
-468 -235 0
-468 -236 0
-468 -237 0
-468 -238 0
-468 -239 0
-468 -240 0
-468 -244 0
-468 -245 0
-468 -246 0
-468 -247 0
-468 -248 0
-468 -249 0
-468 -250 0
-468 -251 0
-468 -252 0
-468 -256 0
-468 -257 0
-468 -258 0
-468 -259 0
-468 -260 0
-468 -261 0
-468 -262 0
-468 -263 0
-468 -264 0
-469 -229 0
-469 -233 0
-469 -234 0
-469 -235 0
-469 -236 0
-469 -237 0
-469 -238 0
-469 -239 0
-469 -240 0
-469 -241 0
-469 -245 0
-469 -246 0
-469 -247 0
-469 -248 0
-469 -249 0
-469 -250 0
-469 -251 0
-469 -252 0
-469 -253 0
-469 -257 0
-469 -258 0
-469 -259 0
-469 -260 0
-469 -261 0
-469 -262 0
-469 -263 0
-469 -264 0
-470 -229 0
-470 -230 0
-470 -234 0
-470 -235 0
-470 -236 0
-470 -237 0
-470 -238 0
-470 -239 0
-470 -240 0
-470 -241 0
-470 -242 0
-470 -246 0
-470 -247 0
-470 -248 0
-470 -249 0
-470 -250 0
-470 -251 0
-470 -252 0
-470 -253 0
-470 -254 0
-470 -258 0
-470 -259 0
-470 -260 0
-470 -261 0
-470 -262 0
-470 -263 0
-470 -264 0
-471 -229 0
-471 -230 0
-471 -231 0
-471 -235 0
-471 -236 0
-471 -237 0
-471 -238 0
-471 -239 0
-471 -240 0
-471 -241 0
-471 -242 0
-471 -243 0
-471 -247 0
-471 -248 0
-471 -249 0
-471 -250 0
-471 -251 0
-471 -252 0
-471 -253 0
-471 -254 0
-471 -255 0
-471 -259 0
-471 -260 0
-471 -261 0
-471 -262 0
-471 -263 0
-471 -264 0
-472 -229 0
-472 -230 0
-472 -231 0
-472 -232 0
-472 -236 0
-472 -237 0
-472 -238 0
-472 -239 0
-472 -240 0
-472 -241 0
-472 -242 0
-472 -243 0
-472 -244 0
-472 -248 0
-472 -249 0
-472 -250 0
-472 -251 0
-472 -252 0
-472 -253 0
-472 -254 0
-472 -255 0
-472 -256 0
-472 -260 0
-472 -261 0
-472 -262 0
-472 -263 0
-472 -264 0
-473 -229 0
-473 -230 0
-473 -231 0
-473 -232 0
-473 -233 0
-473 -237 0
-473 -238 0
-473 -239 0
-473 -240 0
-473 -241 0
-473 -242 0
-473 -243 0
-473 -244 0
-473 -245 0
-473 -249 0
-473 -250 0
-473 -251 0
-473 -252 0
-473 -253 0
-473 -254 0
-473 -255 0
-473 -256 0
-473 -257 0
-473 -261 0
-473 -262 0
-473 -263 0
-473 -264 0
-474 -229 0
-474 -230 0
-474 -231 0
-474 -232 0
-474 -233 0
-474 -234 0
-474 -238 0
-474 -239 0
-474 -240 0
-474 -241 0
-474 -242 0
-474 -243 0
-474 -244 0
-474 -245 0
-474 -246 0
-474 -250 0
-474 -251 0
-474 -252 0
-474 -253 0
-474 -254 0
-474 -255 0
-474 -256 0
-474 -257 0
-474 -258 0
-474 -262 0
-474 -263 0
-474 -264 0
-475 -229 0
-475 -230 0
-475 -231 0
-475 -232 0
-475 -233 0
-475 -234 0
-475 -235 0
-475 -239 0
-475 -240 0
-475 -241 0
-475 -242 0
-475 -243 0
-475 -244 0
-475 -245 0
-475 -246 0
-475 -247 0
-475 -251 0
-475 -252 0
-475 -253 0
-475 -254 0
-475 -255 0
-475 -256 0
-475 -257 0
-475 -258 0
-475 -259 0
-475 -263 0
-475 -264 0
-476 -229 0
-476 -230 0
-476 -231 0
-476 -232 0
-476 -233 0
-476 -234 0
-476 -235 0
-476 -236 0
-476 -240 0
-476 -241 0
-476 -242 0
-476 -243 0
-476 -244 0
-476 -245 0
-476 -246 0
-476 -247 0
-476 -248 0
-476 -252 0
-476 -253 0
-476 -254 0
-476 -255 0
-476 -256 0
-476 -257 0
-476 -258 0
-476 -259 0
-476 -260 0
-476 -264 0
-477 -229 0
-477 -230 0
-477 -231 0
-477 -232 0
-477 -233 0
-477 -234 0
-477 -235 0
-477 -236 0
-477 -237 0
-477 -241 0
-477 -242 0
-477 -243 0
-477 -244 0
-477 -245 0
-477 -246 0
-477 -247 0
-477 -248 0
-477 -249 0
-477 -253 0
-477 -254 0
-477 -255 0
-477 -256 0
-477 -257 0
-477 -258 0
-477 -259 0
-477 -260 0
-477 -261 0
-265 -277 0
-265 -289 0
-277 -289 0
-266 -278 0
-266 -290 0
-278 -290 0
-267 -279 0
-267 -291 0
-279 -291 0
-268 -280 0
-268 -292 0
-280 -292 0
-269 -281 0
-269 -293 0
-281 -293 0
-270 -282 0
-270 -294 0
-282 -294 0
-271 -283 0
-271 -295 0
-283 -295 0
-272 -284 0
-272 -296 0
-284 -296 0
-273 -285 0
-273 -297 0
-285 -297 0
-274 -286 0
-274 -298 0
-286 -298 0
-275 -287 0
-275 -299 0
-287 -299 0
-276 -288 0
-276 -300 0
-288 -300 0
478 479 480 481 482 483 484 485 486 487 0
-478 -479 0
-478 -480 0
-478 -481 0
-478 -482 0
-478 -483 0
-478 -484 0
-478 -485 0
-478 -486 0
-478 -487 0
-479 -480 0
-479 -481 0
-479 -482 0
-479 -483 0
-479 -484 0
-479 -485 0
-479 -486 0
-479 -487 0
-480 -481 0
-480 -482 0
-480 -483 0
-480 -484 0
-480 -485 0
-480 -486 0
-480 -487 0
-481 -482 0
-481 -483 0
-481 -484 0
-481 -485 0
-481 -486 0
-481 -487 0
-482 -483 0
-482 -484 0
-482 -485 0
-482 -486 0
-482 -487 0
-483 -484 0
-483 -485 0
-483 -486 0
-483 -487 0
-484 -485 0
-484 -486 0
-484 -487 0
-485 -486 0
-485 -487 0
-486 -487 0
-265 478 0
-266 478 479 0
-267 478 479 480 0
-268 479 480 481 0
-269 480 481 482 0
-270 481 482 483 0
-271 482 483 484 0
-272 483 484 485 0
-273 484 485 486 0
-274 485 486 487 0
-275 486 487 0
-276 487 0
-277 478 0
-278 478 479 0
-279 478 479 480 0
-280 479 480 481 0
-281 480 481 482 0
-282 481 482 483 0
-283 482 483 484 0
-284 483 484 485 0
-285 484 485 486 0
-286 485 486 487 0
-287 486 487 0
-288 487 0
-289 478 0
-290 478 479 0
-291 478 479 480 0
-292 479 480 481 0
-293 480 481 482 0
-294 481 482 483 0
-295 482 483 484 0
-296 483 484 485 0
-297 484 485 486 0
-298 485 486 487 0
-299 486 487 0
-300 487 0
-478 -268 0
-478 -269 0
-478 -270 0
-478 -271 0
-478 -272 0
-478 -273 0
-478 -274 0
-478 -275 0
-478 -276 0
-478 -280 0
-478 -281 0
-478 -282 0
-478 -283 0
-478 -284 0
-478 -285 0
-478 -286 0
-478 -287 0
-478 -288 0
-478 -292 0
-478 -293 0
-478 -294 0
-478 -295 0
-478 -296 0
-478 -297 0
-478 -298 0
-478 -299 0
-478 -300 0
-479 -265 0
-479 -269 0
-479 -270 0
-479 -271 0
-479 -272 0
-479 -273 0
-479 -274 0
-479 -275 0
-479 -276 0
-479 -277 0
-479 -281 0
-479 -282 0
-479 -283 0
-479 -284 0
-479 -285 0
-479 -286 0
-479 -287 0
-479 -288 0
-479 -289 0
-479 -293 0
-479 -294 0
-479 -295 0
-479 -296 0
-479 -297 0
-479 -298 0
-479 -299 0
-479 -300 0
-480 -265 0
-480 -266 0
-480 -270 0
-480 -271 0
-480 -272 0
-480 -273 0
-480 -274 0
-480 -275 0
-480 -276 0
-480 -277 0
-480 -278 0
-480 -282 0
-480 -283 0
-480 -284 0
-480 -285 0
-480 -286 0
-480 -287 0
-480 -288 0
-480 -289 0
-480 -290 0
-480 -294 0
-480 -295 0
-480 -296 0
-480 -297 0
-480 -298 0
-480 -299 0
-480 -300 0
-481 -265 0
-481 -266 0
-481 -267 0
-481 -271 0
-481 -272 0
-481 -273 0
-481 -274 0
-481 -275 0
-481 -276 0
-481 -277 0
-481 -278 0
-481 -279 0
-481 -283 0
-481 -284 0
-481 -285 0
-481 -286 0
-481 -287 0
-481 -288 0
-481 -289 0
-481 -290 0
-481 -291 0
-481 -295 0
-481 -296 0
-481 -297 0
-481 -298 0
-481 -299 0
-481 -300 0
-482 -265 0
-482 -266 0
-482 -267 0
-482 -268 0
-482 -272 0
-482 -273 0
-482 -274 0
-482 -275 0
-482 -276 0
-482 -277 0
-482 -278 0
-482 -279 0
-482 -280 0
-482 -284 0
-482 -285 0
-482 -286 0
-482 -287 0
-482 -288 0
-482 -289 0
-482 -290 0
-482 -291 0
-482 -292 0
-482 -296 0
-482 -297 0
-482 -298 0
-482 -299 0
-482 -300 0
-483 -265 0
-483 -266 0
-483 -267 0
-483 -268 0
-483 -269 0
-483 -273 0
-483 -274 0
-483 -275 0
-483 -276 0
-483 -277 0
-483 -278 0
-483 -279 0
-483 -280 0
-483 -281 0
-483 -285 0
-483 -286 0
-483 -287 0
-483 -288 0
-483 -289 0
-483 -290 0
-483 -291 0
-483 -292 0
-483 -293 0
-483 -297 0
-483 -298 0
-483 -299 0
-483 -300 0
-484 -265 0
-484 -266 0
-484 -267 0
-484 -268 0
-484 -269 0
-484 -270 0
-484 -274 0
-484 -275 0
-484 -276 0
-484 -277 0
-484 -278 0
-484 -279 0
-484 -280 0
-484 -281 0
-484 -282 0
-484 -286 0
-484 -287 0
-484 -288 0
-484 -289 0
-484 -290 0
-484 -291 0
-484 -292 0
-484 -293 0
-484 -294 0
-484 -298 0
-484 -299 0
-484 -300 0
-485 -265 0
-485 -266 0
-485 -267 0
-485 -268 0
-485 -269 0
-485 -270 0
-485 -271 0
-485 -275 0
-485 -276 0
-485 -277 0
-485 -278 0
-485 -279 0
-485 -280 0
-485 -281 0
-485 -282 0
-485 -283 0
-485 -287 0
-485 -288 0
-485 -289 0
-485 -290 0
-485 -291 0
-485 -292 0
-485 -293 0
-485 -294 0
-485 -295 0
-485 -299 0
-485 -300 0
-486 -265 0
-486 -266 0
-486 -267 0
-486 -268 0
-486 -269 0
-486 -270 0
-486 -271 0
-486 -272 0
-486 -276 0
-486 -277 0
-486 -278 0
-486 -279 0
-486 -280 0
-486 -281 0
-486 -282 0
-486 -283 0
-486 -284 0
-486 -288 0
-486 -289 0
-486 -290 0
-486 -291 0
-486 -292 0
-486 -293 0
-486 -294 0
-486 -295 0
-486 -296 0
-486 -300 0
-487 -265 0
-487 -266 0
-487 -267 0
-487 -268 0
-487 -269 0
-487 -270 0
-487 -271 0
-487 -272 0
-487 -273 0
-487 -277 0
-487 -278 0
-487 -279 0
-487 -280 0
-487 -281 0
-487 -282 0
-487 -283 0
-487 -284 0
-487 -285 0
-487 -289 0
-487 -290 0
-487 -291 0
-487 -292 0
-487 -293 0
-487 -294 0
-487 -295 0
-487 -296 0
-487 -297 0
-301 -313 0
-301 -325 0
-313 -325 0
-302 -314 0
-302 -326 0
-314 -326 0
-303 -315 0
-303 -327 0
-315 -327 0
-304 -316 0
-304 -328 0
-316 -328 0
-305 -317 0
-305 -329 0
-317 -329 0
-306 -318 0
-306 -330 0
-318 -330 0
-307 -319 0
-307 -331 0
-319 -331 0
-308 -320 0
-308 -332 0
-320 -332 0
-309 -321 0
-309 -333 0
-321 -333 0
-310 -322 0
-310 -334 0
-322 -334 0
-311 -323 0
-311 -335 0
-323 -335 0
-312 -324 0
-312 -336 0
-324 -336 0
488 489 490 491 492 493 494 495 496 497 0
-488 -489 0
-488 -490 0
-488 -491 0
-488 -492 0
-488 -493 0
-488 -494 0
-488 -495 0
-488 -496 0
-488 -497 0
-489 -490 0
-489 -491 0
-489 -492 0
-489 -493 0
-489 -494 0
-489 -495 0
-489 -496 0
-489 -497 0
-490 -491 0
-490 -492 0
-490 -493 0
-490 -494 0
-490 -495 0
-490 -496 0
-490 -497 0
-491 -492 0
-491 -493 0
-491 -494 0
-491 -495 0
-491 -496 0
-491 -497 0
-492 -493 0
-492 -494 0
-492 -495 0
-492 -496 0
-492 -497 0
-493 -494 0
-493 -495 0
-493 -496 0
-493 -497 0
-494 -495 0
-494 -496 0
-494 -497 0
-495 -496 0
-495 -497 0
-496 -497 0
-301 488 0
-302 488 489 0
-303 488 489 490 0
-304 489 490 491 0
-305 490 491 492 0
-306 491 492 493 0
-307 492 493 494 0
-308 493 494 495 0
-309 494 495 496 0
-310 495 496 497 0
-311 496 497 0
-312 497 0
-313 488 0
-314 488 489 0
-315 488 489 490 0
-316 489 490 491 0
-317 490 491 492 0
-318 491 492 493 0
-319 492 493 494 0
-320 493 494 495 0
-321 494 495 496 0
-322 495 496 497 0
-323 496 497 0
-324 497 0
-325 488 0
-326 488 489 0
-327 488 489 490 0
-328 489 490 491 0
-329 490 491 492 0
-330 491 492 493 0
-331 492 493 494 0
-332 493 494 495 0
-333 494 495 496 0
-334 495 496 497 0
-335 496 497 0
-336 497 0
-488 -304 0
-488 -305 0
-488 -306 0
-488 -307 0
-488 -308 0
-488 -309 0
-488 -310 0
-488 -311 0
-488 -312 0
-488 -316 0
-488 -317 0
-488 -318 0
-488 -319 0
-488 -320 0
-488 -321 0
-488 -322 0
-488 -323 0
-488 -324 0
-488 -328 0
-488 -329 0
-488 -330 0
-488 -331 0
-488 -332 0
-488 -333 0
-488 -334 0
-488 -335 0
-488 -336 0
-489 -301 0
-489 -305 0
-489 -306 0
-489 -307 0
-489 -308 0
-489 -309 0
-489 -310 0
-489 -311 0
-489 -312 0
-489 -313 0
-489 -317 0
-489 -318 0
-489 -319 0
-489 -320 0
-489 -321 0
-489 -322 0
-489 -323 0
-489 -324 0
-489 -325 0
-489 -329 0
-489 -330 0
-489 -331 0
-489 -332 0
-489 -333 0
-489 -334 0
-489 -335 0
-489 -336 0
-490 -301 0
-490 -302 0
-490 -306 0
-490 -307 0
-490 -308 0
-490 -309 0
-490 -310 0
-490 -311 0
-490 -312 0
-490 -313 0
-490 -314 0
-490 -318 0
-490 -319 0
-490 -320 0
-490 -321 0
-490 -322 0
-490 -323 0
-490 -324 0
-490 -325 0
-490 -326 0
-490 -330 0
-490 -331 0
-490 -332 0
-490 -333 0
-490 -334 0
-490 -335 0
-490 -336 0
-491 -301 0
-491 -302 0
-491 -303 0
-491 -307 0
-491 -308 0
-491 -309 0
-491 -310 0
-491 -311 0
-491 -312 0
-491 -313 0
-491 -314 0
-491 -315 0
-491 -319 0
-491 -320 0
-491 -321 0
-491 -322 0
-491 -323 0
-491 -324 0
-491 -325 0
-491 -326 0
-491 -327 0
-491 -331 0
-491 -332 0
-491 -333 0
-491 -334 0
-491 -335 0
-491 -336 0
-492 -301 0
-492 -302 0
-492 -303 0
-492 -304 0
-492 -308 0
-492 -309 0
-492 -310 0
-492 -311 0
-492 -312 0
-492 -313 0
-492 -314 0
-492 -315 0
-492 -316 0
-492 -320 0
-492 -321 0
-492 -322 0
-492 -323 0
-492 -324 0
-492 -325 0
-492 -326 0
-492 -327 0
-492 -328 0
-492 -332 0
-492 -333 0
-492 -334 0
-492 -335 0
-492 -336 0
-493 -301 0
-493 -302 0
-493 -303 0
-493 -304 0
-493 -305 0
-493 -309 0
-493 -310 0
-493 -311 0
-493 -312 0
-493 -313 0
-493 -314 0
-493 -315 0
-493 -316 0
-493 -317 0
-493 -321 0
-493 -322 0
-493 -323 0
-493 -324 0
-493 -325 0
-493 -326 0
-493 -327 0
-493 -328 0
-493 -329 0
-493 -333 0
-493 -334 0
-493 -335 0
-493 -336 0
-494 -301 0
-494 -302 0
-494 -303 0
-494 -304 0
-494 -305 0
-494 -306 0
-494 -310 0
-494 -311 0
-494 -312 0
-494 -313 0
-494 -314 0
-494 -315 0
-494 -316 0
-494 -317 0
-494 -318 0
-494 -322 0
-494 -323 0
-494 -324 0
-494 -325 0
-494 -326 0
-494 -327 0
-494 -328 0
-494 -329 0
-494 -330 0
-494 -334 0
-494 -335 0
-494 -336 0
-495 -301 0
-495 -302 0
-495 -303 0
-495 -304 0
-495 -305 0
-495 -306 0
-495 -307 0
-495 -311 0
-495 -312 0
-495 -313 0
-495 -314 0
-495 -315 0
-495 -316 0
-495 -317 0
-495 -318 0
-495 -319 0
-495 -323 0
-495 -324 0
-495 -325 0
-495 -326 0
-495 -327 0
-495 -328 0
-495 -329 0
-495 -330 0
-495 -331 0
-495 -335 0
-495 -336 0
-496 -301 0
-496 -302 0
-496 -303 0
-496 -304 0
-496 -305 0
-496 -306 0
-496 -307 0
-496 -308 0
-496 -312 0
-496 -313 0
-496 -314 0
-496 -315 0
-496 -316 0
-496 -317 0
-496 -318 0
-496 -319 0
-496 -320 0
-496 -324 0
-496 -325 0
-496 -326 0
-496 -327 0
-496 -328 0
-496 -329 0
-496 -330 0
-496 -331 0
-496 -332 0
-496 -336 0
-497 -301 0
-497 -302 0
-497 -303 0
-497 -304 0
-497 -305 0
-497 -306 0
-497 -307 0
-497 -308 0
-497 -309 0
-497 -313 0
-497 -314 0
-497 -315 0
-497 -316 0
-497 -317 0
-497 -318 0
-497 -319 0
-497 -320 0
-497 -321 0
-497 -325 0
-497 -326 0
-497 -327 0
-497 -328 0
-497 -329 0
-497 -330 0
-497 -331 0
-497 -332 0
-497 -333 0
-337 -349 0
-337 -361 0
-349 -361 0
-338 -350 0
-338 -362 0
-350 -362 0
-339 -351 0
-339 -363 0
-351 -363 0
-340 -352 0
-340 -364 0
-352 -364 0
-341 -353 0
-341 -365 0
-353 -365 0
-342 -354 0
-342 -366 0
-354 -366 0
-343 -355 0
-343 -367 0
-355 -367 0
-344 -356 0
-344 -368 0
-356 -368 0
-345 -357 0
-345 -369 0
-357 -369 0
-346 -358 0
-346 -370 0
-358 -370 0
-347 -359 0
-347 -371 0
-359 -371 0
-348 -360 0
-348 -372 0
-360 -372 0
498 499 500 501 502 503 504 505 506 507 0
-498 -499 0
-498 -500 0
-498 -501 0
-498 -502 0
-498 -503 0
-498 -504 0
-498 -505 0
-498 -506 0
-498 -507 0
-499 -500 0
-499 -501 0
-499 -502 0
-499 -503 0
-499 -504 0
-499 -505 0
-499 -506 0
-499 -507 0
-500 -501 0
-500 -502 0
-500 -503 0
-500 -504 0
-500 -505 0
-500 -506 0
-500 -507 0
-501 -502 0
-501 -503 0
-501 -504 0
-501 -505 0
-501 -506 0
-501 -507 0
-502 -503 0
-502 -504 0
-502 -505 0
-502 -506 0
-502 -507 0
-503 -504 0
-503 -505 0
-503 -506 0
-503 -507 0
-504 -505 0
-504 -506 0
-504 -507 0
-505 -506 0
-505 -507 0
-506 -507 0
-337 498 0
-338 498 499 0
-339 498 499 500 0
-340 499 500 501 0
-341 500 501 502 0
-342 501 502 503 0
-343 502 503 504 0
-344 503 504 505 0
-345 504 505 506 0
-346 505 506 507 0
-347 506 507 0
-348 507 0
-349 498 0
-350 498 499 0
-351 498 499 500 0
-352 499 500 501 0
-353 500 501 502 0
-354 501 502 503 0
-355 502 503 504 0
-356 503 504 505 0
-357 504 505 506 0
-358 505 506 507 0
-359 506 507 0
-360 507 0
-361 498 0
-362 498 499 0
-363 498 499 500 0
-364 499 500 501 0
-365 500 501 502 0
-366 501 502 503 0
-367 502 503 504 0
-368 503 504 505 0
-369 504 505 506 0
-370 505 506 507 0
-371 506 507 0
-372 507 0
-498 -340 0
-498 -341 0
-498 -342 0
-498 -343 0
-498 -344 0
-498 -345 0
-498 -346 0
-498 -347 0
-498 -348 0
-498 -352 0
-498 -353 0
-498 -354 0
-498 -355 0
-498 -356 0
-498 -357 0
-498 -358 0
-498 -359 0
-498 -360 0
-498 -364 0
-498 -365 0
-498 -366 0
-498 -367 0
-498 -368 0
-498 -369 0
-498 -370 0
-498 -371 0
-498 -372 0
-499 -337 0
-499 -341 0
-499 -342 0
-499 -343 0
-499 -344 0
-499 -345 0
-499 -346 0
-499 -347 0
-499 -348 0
-499 -349 0
-499 -353 0
-499 -354 0
-499 -355 0
-499 -356 0
-499 -357 0
-499 -358 0
-499 -359 0
-499 -360 0
-499 -361 0
-499 -365 0
-499 -366 0
-499 -367 0
-499 -368 0
-499 -369 0
-499 -370 0
-499 -371 0
-499 -372 0
-500 -337 0
-500 -338 0
-500 -342 0
-500 -343 0
-500 -344 0
-500 -345 0
-500 -346 0
-500 -347 0
-500 -348 0
-500 -349 0
-500 -350 0
-500 -354 0
-500 -355 0
-500 -356 0
-500 -357 0
-500 -358 0
-500 -359 0
-500 -360 0
-500 -361 0
-500 -362 0
-500 -366 0
-500 -367 0
-500 -368 0
-500 -369 0
-500 -370 0
-500 -371 0
-500 -372 0
-501 -337 0
-501 -338 0
-501 -339 0
-501 -343 0
-501 -344 0
-501 -345 0
-501 -346 0
-501 -347 0
-501 -348 0
-501 -349 0
-501 -350 0
-501 -351 0
-501 -355 0
-501 -356 0
-501 -357 0
-501 -358 0
-501 -359 0
-501 -360 0
-501 -361 0
-501 -362 0
-501 -363 0
-501 -367 0
-501 -368 0
-501 -369 0
-501 -370 0
-501 -371 0
-501 -372 0
-502 -337 0
-502 -338 0
-502 -339 0
-502 -340 0
-502 -344 0
-502 -345 0
-502 -346 0
-502 -347 0
-502 -348 0
-502 -349 0
-502 -350 0
-502 -351 0
-502 -352 0
-502 -356 0
-502 -357 0
-502 -358 0
-502 -359 0
-502 -360 0
-502 -361 0
-502 -362 0
-502 -363 0
-502 -364 0
-502 -368 0
-502 -369 0
-502 -370 0
-502 -371 0
-502 -372 0
-503 -337 0
-503 -338 0
-503 -339 0
-503 -340 0
-503 -341 0
-503 -345 0
-503 -346 0
-503 -347 0
-503 -348 0
-503 -349 0
-503 -350 0
-503 -351 0
-503 -352 0
-503 -353 0
-503 -357 0
-503 -358 0
-503 -359 0
-503 -360 0
-503 -361 0
-503 -362 0
-503 -363 0
-503 -364 0
-503 -365 0
-503 -369 0
-503 -370 0
-503 -371 0
-503 -372 0
-504 -337 0
-504 -338 0
-504 -339 0
-504 -340 0
-504 -341 0
-504 -342 0
-504 -346 0
-504 -347 0
-504 -348 0
-504 -349 0
-504 -350 0
-504 -351 0
-504 -352 0
-504 -353 0
-504 -354 0
-504 -358 0
-504 -359 0
-504 -360 0
-504 -361 0
-504 -362 0
-504 -363 0
-504 -364 0
-504 -365 0
-504 -366 0
-504 -370 0
-504 -371 0
-504 -372 0
-505 -337 0
-505 -338 0
-505 -339 0
-505 -340 0
-505 -341 0
-505 -342 0
-505 -343 0
-505 -347 0
-505 -348 0
-505 -349 0
-505 -350 0
-505 -351 0
-505 -352 0
-505 -353 0
-505 -354 0
-505 -355 0
-505 -359 0
-505 -360 0
-505 -361 0
-505 -362 0
-505 -363 0
-505 -364 0
-505 -365 0
-505 -366 0
-505 -367 0
-505 -371 0
-505 -372 0
-506 -337 0
-506 -338 0
-506 -339 0
-506 -340 0
-506 -341 0
-506 -342 0
-506 -343 0
-506 -344 0
-506 -348 0
-506 -349 0
-506 -350 0
-506 -351 0
-506 -352 0
-506 -353 0
-506 -354 0
-506 -355 0
-506 -356 0
-506 -360 0
-506 -361 0
-506 -362 0
-506 -363 0
-506 -364 0
-506 -365 0
-506 -366 0
-506 -367 0
-506 -368 0
-506 -372 0
-507 -337 0
-507 -338 0
-507 -339 0
-507 -340 0
-507 -341 0
-507 -342 0
-507 -343 0
-507 -344 0
-507 -345 0
-507 -349 0
-507 -350 0
-507 -351 0
-507 -352 0
-507 -353 0
-507 -354 0
-507 -355 0
-507 -356 0
-507 -357 0
-507 -361 0
-507 -362 0
-507 -363 0
-507 -364 0
-507 -365 0
-507 -366 0
-507 -367 0
-507 -368 0
-507 -369 0
-373 -385 0
-373 -397 0
-385 -397 0
-374 -386 0
-374 -398 0
-386 -398 0
-375 -387 0
-375 -399 0
-387 -399 0
-376 -388 0
-376 -400 0
-388 -400 0
-377 -389 0
-377 -401 0
-389 -401 0
-378 -390 0
-378 -402 0
-390 -402 0
-379 -391 0
-379 -403 0
-391 -403 0
-380 -392 0
-380 -404 0
-392 -404 0
-381 -393 0
-381 -405 0
-393 -405 0
-382 -394 0
-382 -406 0
-394 -406 0
-383 -395 0
-383 -407 0
-395 -407 0
-384 -396 0
-384 -408 0
-396 -408 0
508 509 510 511 512 513 514 515 516 517 0
-508 -509 0
-508 -510 0
-508 -511 0
-508 -512 0
-508 -513 0
-508 -514 0
-508 -515 0
-508 -516 0
-508 -517 0
-509 -510 0
-509 -511 0
-509 -512 0
-509 -513 0
-509 -514 0
-509 -515 0
-509 -516 0
-509 -517 0
-510 -511 0
-510 -512 0
-510 -513 0
-510 -514 0
-510 -515 0
-510 -516 0
-510 -517 0
-511 -512 0
-511 -513 0
-511 -514 0
-511 -515 0
-511 -516 0
-511 -517 0
-512 -513 0
-512 -514 0
-512 -515 0
-512 -516 0
-512 -517 0
-513 -514 0
-513 -515 0
-513 -516 0
-513 -517 0
-514 -515 0
-514 -516 0
-514 -517 0
-515 -516 0
-515 -517 0
-516 -517 0
-373 508 0
-374 508 509 0
-375 508 509 510 0
-376 509 510 511 0
-377 510 511 512 0
-378 511 512 513 0
-379 512 513 514 0
-380 513 514 515 0
-381 514 515 516 0
-382 515 516 517 0
-383 516 517 0
-384 517 0
-385 508 0
-386 508 509 0
-387 508 509 510 0
-388 509 510 511 0
-389 510 511 512 0
-390 511 512 513 0
-391 512 513 514 0
-392 513 514 515 0
-393 514 515 516 0
-394 515 516 517 0
-395 516 517 0
-396 517 0
-397 508 0
-398 508 509 0
-399 508 509 510 0
-400 509 510 511 0
-401 510 511 512 0
-402 511 512 513 0
-403 512 513 514 0
-404 513 514 515 0
-405 514 515 516 0
-406 515 516 517 0
-407 516 517 0
-408 517 0
-508 -376 0
-508 -377 0
-508 -378 0
-508 -379 0
-508 -380 0
-508 -381 0
-508 -382 0
-508 -383 0
-508 -384 0
-508 -388 0
-508 -389 0
-508 -390 0
-508 -391 0
-508 -392 0
-508 -393 0
-508 -394 0
-508 -395 0
-508 -396 0
-508 -400 0
-508 -401 0
-508 -402 0
-508 -403 0
-508 -404 0
-508 -405 0
-508 -406 0
-508 -407 0
-508 -408 0
-509 -373 0
-509 -377 0
-509 -378 0
-509 -379 0
-509 -380 0
-509 -381 0
-509 -382 0
-509 -383 0
-509 -384 0
-509 -385 0
-509 -389 0
-509 -390 0
-509 -391 0
-509 -392 0
-509 -393 0
-509 -394 0
-509 -395 0
-509 -396 0
-509 -397 0
-509 -401 0
-509 -402 0
-509 -403 0
-509 -404 0
-509 -405 0
-509 -406 0
-509 -407 0
-509 -408 0
-510 -373 0
-510 -374 0
-510 -378 0
-510 -379 0
-510 -380 0
-510 -381 0
-510 -382 0
-510 -383 0
-510 -384 0
-510 -385 0
-510 -386 0
-510 -390 0
-510 -391 0
-510 -392 0
-510 -393 0
-510 -394 0
-510 -395 0
-510 -396 0
-510 -397 0
-510 -398 0
-510 -402 0
-510 -403 0
-510 -404 0
-510 -405 0
-510 -406 0
-510 -407 0
-510 -408 0
-511 -373 0
-511 -374 0
-511 -375 0
-511 -379 0
-511 -380 0
-511 -381 0
-511 -382 0
-511 -383 0
-511 -384 0
-511 -385 0
-511 -386 0
-511 -387 0
-511 -391 0
-511 -392 0
-511 -393 0
-511 -394 0
-511 -395 0
-511 -396 0
-511 -397 0
-511 -398 0
-511 -399 0
-511 -403 0
-511 -404 0
-511 -405 0
-511 -406 0
-511 -407 0
-511 -408 0
-512 -373 0
-512 -374 0
-512 -375 0
-512 -376 0
-512 -380 0
-512 -381 0
-512 -382 0
-512 -383 0
-512 -384 0
-512 -385 0
-512 -386 0
-512 -387 0
-512 -388 0
-512 -392 0
-512 -393 0
-512 -394 0
-512 -395 0
-512 -396 0
-512 -397 0
-512 -398 0
-512 -399 0
-512 -400 0
-512 -404 0
-512 -405 0
-512 -406 0
-512 -407 0
-512 -408 0
-513 -373 0
-513 -374 0
-513 -375 0
-513 -376 0
-513 -377 0
-513 -381 0
-513 -382 0
-513 -383 0
-513 -384 0
-513 -385 0
-513 -386 0
-513 -387 0
-513 -388 0
-513 -389 0
-513 -393 0
-513 -394 0
-513 -395 0
-513 -396 0
-513 -397 0
-513 -398 0
-513 -399 0
-513 -400 0
-513 -401 0
-513 -405 0
-513 -406 0
-513 -407 0
-513 -408 0
-514 -373 0
-514 -374 0
-514 -375 0
-514 -376 0
-514 -377 0
-514 -378 0
-514 -382 0
-514 -383 0
-514 -384 0
-514 -385 0
-514 -386 0
-514 -387 0
-514 -388 0
-514 -389 0
-514 -390 0
-514 -394 0
-514 -395 0
-514 -396 0
-514 -397 0
-514 -398 0
-514 -399 0
-514 -400 0
-514 -401 0
-514 -402 0
-514 -406 0
-514 -407 0
-514 -408 0
-515 -373 0
-515 -374 0
-515 -375 0
-515 -376 0
-515 -377 0
-515 -378 0
-515 -379 0
-515 -383 0
-515 -384 0
-515 -385 0
-515 -386 0
-515 -387 0
-515 -388 0
-515 -389 0
-515 -390 0
-515 -391 0
-515 -395 0
-515 -396 0
-515 -397 0
-515 -398 0
-515 -399 0
-515 -400 0
-515 -401 0
-515 -402 0
-515 -403 0
-515 -407 0
-515 -408 0
-516 -373 0
-516 -374 0
-516 -375 0
-516 -376 0
-516 -377 0
-516 -378 0
-516 -379 0
-516 -380 0
-516 -384 0
-516 -385 0
-516 -386 0
-516 -387 0
-516 -388 0
-516 -389 0
-516 -390 0
-516 -391 0
-516 -392 0
-516 -396 0
-516 -397 0
-516 -398 0
-516 -399 0
-516 -400 0
-516 -401 0
-516 -402 0
-516 -403 0
-516 -404 0
-516 -408 0
-517 -373 0
-517 -374 0
-517 -375 0
-517 -376 0
-517 -377 0
-517 -378 0
-517 -379 0
-517 -380 0
-517 -381 0
-517 -385 0
-517 -386 0
-517 -387 0
-517 -388 0
-517 -389 0
-517 -390 0
-517 -391 0
-517 -392 0
-517 -393 0
-517 -397 0
-517 -398 0
-517 -399 0
-517 -400 0
-517 -401 0
-517 -402 0
-517 -403 0
-517 -404 0
-517 -405 0
-37 -73 0
-37 -109 0
-37 -145 0
-37 -181 0
-37 -217 0
-37 -253 0
-37 -289 0
-37 -325 0
-37 -361 0
-37 -397 0
-73 -109 0
-73 -145 0
-73 -181 0
-73 -217 0
-73 -253 0
-73 -289 0
-73 -325 0
-73 -361 0
-73 -397 0
-109 -145 0
-109 -181 0
-109 -217 0
-109 -253 0
-109 -289 0
-109 -325 0
-109 -361 0
-109 -397 0
-145 -181 0
-145 -217 0
-145 -253 0
-145 -289 0
-145 -325 0
-145 -361 0
-145 -397 0
-181 -217 0
-181 -253 0
-181 -289 0
-181 -325 0
-181 -361 0
-181 -397 0
-217 -253 0
-217 -289 0
-217 -325 0
-217 -361 0
-217 -397 0
-253 -289 0
-253 -325 0
-253 -361 0
-253 -397 0
-289 -325 0
-289 -361 0
-289 -397 0
-325 -361 0
-325 -397 0
-361 -397 0
-38 -74 0
-38 -110 0
-38 -146 0
-38 -182 0
-38 -218 0
-38 -254 0
-38 -290 0
-38 -326 0
-38 -362 0
-38 -398 0
-74 -110 0
-74 -146 0
-74 -182 0
-74 -218 0
-74 -254 0
-74 -290 0
-74 -326 0
-74 -362 0
-74 -398 0
-110 -146 0
-110 -182 0
-110 -218 0
-110 -254 0
-110 -290 0
-110 -326 0
-110 -362 0
-110 -398 0
-146 -182 0
-146 -218 0
-146 -254 0
-146 -290 0
-146 -326 0
-146 -362 0
-146 -398 0
-182 -218 0
-182 -254 0
-182 -290 0
-182 -326 0
-182 -362 0
-182 -398 0
-218 -254 0
-218 -290 0
-218 -326 0
-218 -362 0
-218 -398 0
-254 -290 0
-254 -326 0
-254 -362 0
-254 -398 0
-290 -326 0
-290 -362 0
-290 -398 0
-326 -362 0
-326 -398 0
-362 -398 0
-39 -75 0
-39 -111 0
-39 -147 0
-39 -183 0
-39 -219 0
-39 -255 0
-39 -291 0
-39 -327 0
-39 -363 0
-39 -399 0
-75 -111 0
-75 -147 0
-75 -183 0
-75 -219 0
-75 -255 0
-75 -291 0
-75 -327 0
-75 -363 0
-75 -399 0
-111 -147 0
-111 -183 0
-111 -219 0
-111 -255 0
-111 -291 0
-111 -327 0
-111 -363 0
-111 -399 0
-147 -183 0
-147 -219 0
-147 -255 0
-147 -291 0
-147 -327 0
-147 -363 0
-147 -399 0
-183 -219 0
-183 -255 0
-183 -291 0
-183 -327 0
-183 -363 0
-183 -399 0
-219 -255 0
-219 -291 0
-219 -327 0
-219 -363 0
-219 -399 0
-255 -291 0
-255 -327 0
-255 -363 0
-255 -399 0
-291 -327 0
-291 -363 0
-291 -399 0
-327 -363 0
-327 -399 0
-363 -399 0
-40 -76 0
-40 -112 0
-40 -148 0
-40 -184 0
-40 -220 0
-40 -256 0
-40 -292 0
-40 -328 0
-40 -364 0
-40 -400 0
-76 -112 0
-76 -148 0
-76 -184 0
-76 -220 0
-76 -256 0
-76 -292 0
-76 -328 0
-76 -364 0
-76 -400 0
-112 -148 0
-112 -184 0
-112 -220 0
-112 -256 0
-112 -292 0
-112 -328 0
-112 -364 0
-112 -400 0
-148 -184 0
-148 -220 0
-148 -256 0
-148 -292 0
-148 -328 0
-148 -364 0
-148 -400 0
-184 -220 0
-184 -256 0
-184 -292 0
-184 -328 0
-184 -364 0
-184 -400 0
-220 -256 0
-220 -292 0
-220 -328 0
-220 -364 0
-220 -400 0
-256 -292 0
-256 -328 0
-256 -364 0
-256 -400 0
-292 -328 0
-292 -364 0
-292 -400 0
-328 -364 0
-328 -400 0
-364 -400 0
-41 -77 0
-41 -113 0
-41 -149 0
-41 -185 0
-41 -221 0
-41 -257 0
-41 -293 0
-41 -329 0
-41 -365 0
-41 -401 0
-77 -113 0
-77 -149 0
-77 -185 0
-77 -221 0
-77 -257 0
-77 -293 0
-77 -329 0
-77 -365 0
-77 -401 0
-113 -149 0
-113 -185 0
-113 -221 0
-113 -257 0
-113 -293 0
-113 -329 0
-113 -365 0
-113 -401 0
-149 -185 0
-149 -221 0
-149 -257 0
-149 -293 0
-149 -329 0
-149 -365 0
-149 -401 0
-185 -221 0
-185 -257 0
-185 -293 0
-185 -329 0
-185 -365 0
-185 -401 0
-221 -257 0
-221 -293 0
-221 -329 0
-221 -365 0
-221 -401 0
-257 -293 0
-257 -329 0
-257 -365 0
-257 -401 0
-293 -329 0
-293 -365 0
-293 -401 0
-329 -365 0
-329 -401 0
-365 -401 0
-42 -78 0
-42 -114 0
-42 -150 0
-42 -186 0
-42 -222 0
-42 -258 0
-42 -294 0
-42 -330 0
-42 -366 0
-42 -402 0
-78 -114 0
-78 -150 0
-78 -186 0
-78 -222 0
-78 -258 0
-78 -294 0
-78 -330 0
-78 -366 0
-78 -402 0
-114 -150 0
-114 -186 0
-114 -222 0
-114 -258 0
-114 -294 0
-114 -330 0
-114 -366 0
-114 -402 0
-150 -186 0
-150 -222 0
-150 -258 0
-150 -294 0
-150 -330 0
-150 -366 0
-150 -402 0
-186 -222 0
-186 -258 0
-186 -294 0
-186 -330 0
-186 -366 0
-186 -402 0
-222 -258 0
-222 -294 0
-222 -330 0
-222 -366 0
-222 -402 0
-258 -294 0
-258 -330 0
-258 -366 0
-258 -402 0
-294 -330 0
-294 -366 0
-294 -402 0
-330 -366 0
-330 -402 0
-366 -402 0
-43 -79 0
-43 -115 0
-43 -151 0
-43 -187 0
-43 -223 0
-43 -259 0
-43 -295 0
-43 -331 0
-43 -367 0
-43 -403 0
-79 -115 0
-79 -151 0
-79 -187 0
-79 -223 0
-79 -259 0
-79 -295 0
-79 -331 0
-79 -367 0
-79 -403 0
-115 -151 0
-115 -187 0
-115 -223 0
-115 -259 0
-115 -295 0
-115 -331 0
-115 -367 0
-115 -403 0
-151 -187 0
-151 -223 0
-151 -259 0
-151 -295 0
-151 -331 0
-151 -367 0
-151 -403 0
-187 -223 0
-187 -259 0
-187 -295 0
-187 -331 0
-187 -367 0
-187 -403 0
-223 -259 0
-223 -295 0
-223 -331 0
-223 -367 0
-223 -403 0
-259 -295 0
-259 -331 0
-259 -367 0
-259 -403 0
-295 -331 0
-295 -367 0
-295 -403 0
-331 -367 0
-331 -403 0
-367 -403 0
-44 -80 0
-44 -116 0
-44 -152 0
-44 -188 0
-44 -224 0
-44 -260 0
-44 -296 0
-44 -332 0
-44 -368 0
-44 -404 0
-80 -116 0
-80 -152 0
-80 -188 0
-80 -224 0
-80 -260 0
-80 -296 0
-80 -332 0
-80 -368 0
-80 -404 0
-116 -152 0
-116 -188 0
-116 -224 0
-116 -260 0
-116 -296 0
-116 -332 0
-116 -368 0
-116 -404 0
-152 -188 0
-152 -224 0
-152 -260 0
-152 -296 0
-152 -332 0
-152 -368 0
-152 -404 0
-188 -224 0
-188 -260 0
-188 -296 0
-188 -332 0
-188 -368 0
-188 -404 0
-224 -260 0
-224 -296 0
-224 -332 0
-224 -368 0
-224 -404 0
-260 -296 0
-260 -332 0
-260 -368 0
-260 -404 0
-296 -332 0
-296 -368 0
-296 -404 0
-332 -368 0
-332 -404 0
-368 -404 0
-45 -81 0
-45 -117 0
-45 -153 0
-45 -189 0
-45 -225 0
-45 -261 0
-45 -297 0
-45 -333 0
-45 -369 0
-45 -405 0
-81 -117 0
-81 -153 0
-81 -189 0
-81 -225 0
-81 -261 0
-81 -297 0
-81 -333 0
-81 -369 0
-81 -405 0
-117 -153 0
-117 -189 0
-117 -225 0
-117 -261 0
-117 -297 0
-117 -333 0
-117 -369 0
-117 -405 0
-153 -189 0
-153 -225 0
-153 -261 0
-153 -297 0
-153 -333 0
-153 -369 0
-153 -405 0
-189 -225 0
-189 -261 0
-189 -297 0
-189 -333 0
-189 -369 0
-189 -405 0
-225 -261 0
-225 -297 0
-225 -333 0
-225 -369 0
-225 -405 0
-261 -297 0
-261 -333 0
-261 -369 0
-261 -405 0
-297 -333 0
-297 -369 0
-297 -405 0
-333 -369 0
-333 -405 0
-369 -405 0
-46 -82 0
-46 -118 0
-46 -154 0
-46 -190 0
-46 -226 0
-46 -262 0
-46 -298 0
-46 -334 0
-46 -370 0
-46 -406 0
-82 -118 0
-82 -154 0
-82 -190 0
-82 -226 0
-82 -262 0
-82 -298 0
-82 -334 0
-82 -370 0
-82 -406 0
-118 -154 0
-118 -190 0
-118 -226 0
-118 -262 0
-118 -298 0
-118 -334 0
-118 -370 0
-118 -406 0
-154 -190 0
-154 -226 0
-154 -262 0
-154 -298 0
-154 -334 0
-154 -370 0
-154 -406 0
-190 -226 0
-190 -262 0
-190 -298 0
-190 -334 0
-190 -370 0
-190 -406 0
-226 -262 0
-226 -298 0
-226 -334 0
-226 -370 0
-226 -406 0
-262 -298 0
-262 -334 0
-262 -370 0
-262 -406 0
-298 -334 0
-298 -370 0
-298 -406 0
-334 -370 0
-334 -406 0
-370 -406 0
-47 -83 0
-47 -119 0
-47 -155 0
-47 -191 0
-47 -227 0
-47 -263 0
-47 -299 0
-47 -335 0
-47 -371 0
-47 -407 0
-83 -119 0
-83 -155 0
-83 -191 0
-83 -227 0
-83 -263 0
-83 -299 0
-83 -335 0
-83 -371 0
-83 -407 0
-119 -155 0
-119 -191 0
-119 -227 0
-119 -263 0
-119 -299 0
-119 -335 0
-119 -371 0
-119 -407 0
-155 -191 0
-155 -227 0
-155 -263 0
-155 -299 0
-155 -335 0
-155 -371 0
-155 -407 0
-191 -227 0
-191 -263 0
-191 -299 0
-191 -335 0
-191 -371 0
-191 -407 0
-227 -263 0
-227 -299 0
-227 -335 0
-227 -371 0
-227 -407 0
-263 -299 0
-263 -335 0
-263 -371 0
-263 -407 0
-299 -335 0
-299 -371 0
-299 -407 0
-335 -371 0
-335 -407 0
-371 -407 0
-48 -84 0
-48 -120 0
-48 -156 0
-48 -192 0
-48 -228 0
-48 -264 0
-48 -300 0
-48 -336 0
-48 -372 0
-48 -408 0
-84 -120 0
-84 -156 0
-84 -192 0
-84 -228 0
-84 -264 0
-84 -300 0
-84 -336 0
-84 -372 0
-84 -408 0
-120 -156 0
-120 -192 0
-120 -228 0
-120 -264 0
-120 -300 0
-120 -336 0
-120 -372 0
-120 -408 0
-156 -192 0
-156 -228 0
-156 -264 0
-156 -300 0
-156 -336 0
-156 -372 0
-156 -408 0
-192 -228 0
-192 -264 0
-192 -300 0
-192 -336 0
-192 -372 0
-192 -408 0
-228 -264 0
-228 -300 0
-228 -336 0
-228 -372 0
-228 -408 0
-264 -300 0
-264 -336 0
-264 -372 0
-264 -408 0
-300 -336 0
-300 -372 0
-300 -408 0
-336 -372 0
-336 -408 0
-372 -408 0
518 519 0
-518 -519 0
-37 518 0
-38 518 519 0
-39 518 519 0
-40 518 519 0
-41 518 519 0
-42 518 519 0
-43 518 519 0
-44 518 519 0
-45 518 519 0
-46 518 519 0
-47 518 519 0
-48 519 0
-73 518 0
-74 518 519 0
-75 518 519 0
-76 518 519 0
-77 518 519 0
-78 518 519 0
-79 518 519 0
-80 518 519 0
-81 518 519 0
-82 518 519 0
-83 518 519 0
-84 519 0
-109 518 0
-110 518 519 0
-111 518 519 0
-112 518 519 0
-113 518 519 0
-114 518 519 0
-115 518 519 0
-116 518 519 0
-117 518 519 0
-118 518 519 0
-119 518 519 0
-120 519 0
-145 518 0
-146 518 519 0
-147 518 519 0
-148 518 519 0
-149 518 519 0
-150 518 519 0
-151 518 519 0
-152 518 519 0
-153 518 519 0
-154 518 519 0
-155 518 519 0
-156 519 0
-181 518 0
-182 518 519 0
-183 518 519 0
-184 518 519 0
-185 518 519 0
-186 518 519 0
-187 518 519 0
-188 518 519 0
-189 518 519 0
-190 518 519 0
-191 518 519 0
-192 519 0
-217 518 0
-218 518 519 0
-219 518 519 0
-220 518 519 0
-221 518 519 0
-222 518 519 0
-223 518 519 0
-224 518 519 0
-225 518 519 0
-226 518 519 0
-227 518 519 0
-228 519 0
-253 518 0
-254 518 519 0
-255 518 519 0
-256 518 519 0
-257 518 519 0
-258 518 519 0
-259 518 519 0
-260 518 519 0
-261 518 519 0
-262 518 519 0
-263 518 519 0
-264 519 0
-289 518 0
-290 518 519 0
-291 518 519 0
-292 518 519 0
-293 518 519 0
-294 518 519 0
-295 518 519 0
-296 518 519 0
-297 518 519 0
-298 518 519 0
-299 518 519 0
-300 519 0
-325 518 0
-326 518 519 0
-327 518 519 0
-328 518 519 0
-329 518 519 0
-330 518 519 0
-331 518 519 0
-332 518 519 0
-333 518 519 0
-334 518 519 0
-335 518 519 0
-336 519 0
-361 518 0
-362 518 519 0
-363 518 519 0
-364 518 519 0
-365 518 519 0
-366 518 519 0
-367 518 519 0
-368 518 519 0
-369 518 519 0
-370 518 519 0
-371 518 519 0
-372 519 0
-397 518 0
-398 518 519 0
-399 518 519 0
-400 518 519 0
-401 518 519 0
-402 518 519 0
-403 518 519 0
-404 518 519 0
-405 518 519 0
-406 518 519 0
-407 518 519 0
-408 519 0
-518 -48 0
-518 -84 0
-518 -120 0
-518 -156 0
-518 -192 0
-518 -228 0
-518 -264 0
-518 -300 0
-518 -336 0
-518 -372 0
-518 -408 0
-519 -37 0
-519 -73 0
-519 -109 0
-519 -145 0
-519 -181 0
-519 -217 0
-519 -253 0
-519 -289 0
-519 -325 0
-519 -361 0
-519 -397 0
-1 -49 0
-1 -157 0
-1 -193 0
-49 -157 0
-49 -193 0
-157 -193 0
-2 -50 0
-2 -158 0
-2 -194 0
-50 -158 0
-50 -194 0
-158 -194 0
-3 -51 0
-3 -159 0
-3 -195 0
-51 -159 0
-51 -195 0
-159 -195 0
-4 -52 0
-4 -160 0
-4 -196 0
-52 -160 0
-52 -196 0
-160 -196 0
-5 -53 0
-5 -161 0
-5 -197 0
-53 -161 0
-53 -197 0
-161 -197 0
-6 -54 0
-6 -162 0
-6 -198 0
-54 -162 0
-54 -198 0
-162 -198 0
-7 -55 0
-7 -163 0
-7 -199 0
-55 -163 0
-55 -199 0
-163 -199 0
-8 -56 0
-8 -164 0
-8 -200 0
-56 -164 0
-56 -200 0
-164 -200 0
-9 -57 0
-9 -165 0
-9 -201 0
-57 -165 0
-57 -201 0
-165 -201 0
-10 -58 0
-10 -166 0
-10 -202 0
-58 -166 0
-58 -202 0
-166 -202 0
-11 -59 0
-11 -167 0
-11 -203 0
-59 -167 0
-59 -203 0
-167 -203 0
-12 -60 0
-12 -168 0
-12 -204 0
-60 -168 0
-60 -204 0
-168 -204 0
520 521 522 523 524 525 526 527 528 0
-520 -521 0
-520 -522 0
-520 -523 0
-520 -524 0
-520 -525 0
-520 -526 0
-520 -527 0
-520 -528 0
-521 -522 0
-521 -523 0
-521 -524 0
-521 -525 0
-521 -526 0
-521 -527 0
-521 -528 0
-522 -523 0
-522 -524 0
-522 -525 0
-522 -526 0
-522 -527 0
-522 -528 0
-523 -524 0
-523 -525 0
-523 -526 0
-523 -527 0
-523 -528 0
-524 -525 0
-524 -526 0
-524 -527 0
-524 -528 0
-525 -526 0
-525 -527 0
-525 -528 0
-526 -527 0
-526 -528 0
-527 -528 0
-1 520 0
-2 520 521 0
-3 520 521 522 0
-4 520 521 522 523 0
-5 521 522 523 524 0
-6 522 523 524 525 0
-7 523 524 525 526 0
-8 524 525 526 527 0
-9 525 526 527 528 0
-10 526 527 528 0
-11 527 528 0
-12 528 0
-49 520 0
-50 520 521 0
-51 520 521 522 0
-52 520 521 522 523 0
-53 521 522 523 524 0
-54 522 523 524 525 0
-55 523 524 525 526 0
-56 524 525 526 527 0
-57 525 526 527 528 0
-58 526 527 528 0
-59 527 528 0
-60 528 0
-157 520 0
-158 520 521 0
-159 520 521 522 0
-160 520 521 522 523 0
-161 521 522 523 524 0
-162 522 523 524 525 0
-163 523 524 525 526 0
-164 524 525 526 527 0
-165 525 526 527 528 0
-166 526 527 528 0
-167 527 528 0
-168 528 0
-193 520 0
-194 520 521 0
-195 520 521 522 0
-196 520 521 522 523 0
-197 521 522 523 524 0
-198 522 523 524 525 0
-199 523 524 525 526 0
-200 524 525 526 527 0
-201 525 526 527 528 0
-202 526 527 528 0
-203 527 528 0
-204 528 0
-520 -5 0
-520 -6 0
-520 -7 0
-520 -8 0
-520 -9 0
-520 -10 0
-520 -11 0
-520 -12 0
-520 -53 0
-520 -54 0
-520 -55 0
-520 -56 0
-520 -57 0
-520 -58 0
-520 -59 0
-520 -60 0
-520 -161 0
-520 -162 0
-520 -163 0
-520 -164 0
-520 -165 0
-520 -166 0
-520 -167 0
-520 -168 0
-520 -197 0
-520 -198 0
-520 -199 0
-520 -200 0
-520 -201 0
-520 -202 0
-520 -203 0
-520 -204 0
-521 -1 0
-521 -6 0
-521 -7 0
-521 -8 0
-521 -9 0
-521 -10 0
-521 -11 0
-521 -12 0
-521 -49 0
-521 -54 0
-521 -55 0
-521 -56 0
-521 -57 0
-521 -58 0
-521 -59 0
-521 -60 0
-521 -157 0
-521 -162 0
-521 -163 0
-521 -164 0
-521 -165 0
-521 -166 0
-521 -167 0
-521 -168 0
-521 -193 0
-521 -198 0
-521 -199 0
-521 -200 0
-521 -201 0
-521 -202 0
-521 -203 0
-521 -204 0
-522 -1 0
-522 -2 0
-522 -7 0
-522 -8 0
-522 -9 0
-522 -10 0
-522 -11 0
-522 -12 0
-522 -49 0
-522 -50 0
-522 -55 0
-522 -56 0
-522 -57 0
-522 -58 0
-522 -59 0
-522 -60 0
-522 -157 0
-522 -158 0
-522 -163 0
-522 -164 0
-522 -165 0
-522 -166 0
-522 -167 0
-522 -168 0
-522 -193 0
-522 -194 0
-522 -199 0
-522 -200 0
-522 -201 0
-522 -202 0
-522 -203 0
-522 -204 0
-523 -1 0
-523 -2 0
-523 -3 0
-523 -8 0
-523 -9 0
-523 -10 0
-523 -11 0
-523 -12 0
-523 -49 0
-523 -50 0
-523 -51 0
-523 -56 0
-523 -57 0
-523 -58 0
-523 -59 0
-523 -60 0
-523 -157 0
-523 -158 0
-523 -159 0
-523 -164 0
-523 -165 0
-523 -166 0
-523 -167 0
-523 -168 0
-523 -193 0
-523 -194 0
-523 -195 0
-523 -200 0
-523 -201 0
-523 -202 0
-523 -203 0
-523 -204 0
-524 -1 0
-524 -2 0
-524 -3 0
-524 -4 0
-524 -9 0
-524 -10 0
-524 -11 0
-524 -12 0
-524 -49 0
-524 -50 0
-524 -51 0
-524 -52 0
-524 -57 0
-524 -58 0
-524 -59 0
-524 -60 0
-524 -157 0
-524 -158 0
-524 -159 0
-524 -160 0
-524 -165 0
-524 -166 0
-524 -167 0
-524 -168 0
-524 -193 0
-524 -194 0
-524 -195 0
-524 -196 0
-524 -201 0
-524 -202 0
-524 -203 0
-524 -204 0
-525 -1 0
-525 -2 0
-525 -3 0
-525 -4 0
-525 -5 0
-525 -10 0
-525 -11 0
-525 -12 0
-525 -49 0
-525 -50 0
-525 -51 0
-525 -52 0
-525 -53 0
-525 -58 0
-525 -59 0
-525 -60 0
-525 -157 0
-525 -158 0
-525 -159 0
-525 -160 0
-525 -161 0
-525 -166 0
-525 -167 0
-525 -168 0
-525 -193 0
-525 -194 0
-525 -195 0
-525 -196 0
-525 -197 0
-525 -202 0
-525 -203 0
-525 -204 0
-526 -1 0
-526 -2 0
-526 -3 0
-526 -4 0
-526 -5 0
-526 -6 0
-526 -11 0
-526 -12 0
-526 -49 0
-526 -50 0
-526 -51 0
-526 -52 0
-526 -53 0
-526 -54 0
-526 -59 0
-526 -60 0
-526 -157 0
-526 -158 0
-526 -159 0
-526 -160 0
-526 -161 0
-526 -162 0
-526 -167 0
-526 -168 0
-526 -193 0
-526 -194 0
-526 -195 0
-526 -196 0
-526 -197 0
-526 -198 0
-526 -203 0
-526 -204 0
-527 -1 0
-527 -2 0
-527 -3 0
-527 -4 0
-527 -5 0
-527 -6 0
-527 -7 0
-527 -12 0
-527 -49 0
-527 -50 0
-527 -51 0
-527 -52 0
-527 -53 0
-527 -54 0
-527 -55 0
-527 -60 0
-527 -157 0
-527 -158 0
-527 -159 0
-527 -160 0
-527 -161 0
-527 -162 0
-527 -163 0
-527 -168 0
-527 -193 0
-527 -194 0
-527 -195 0
-527 -196 0
-527 -197 0
-527 -198 0
-527 -199 0
-527 -204 0
-528 -1 0
-528 -2 0
-528 -3 0
-528 -4 0
-528 -5 0
-528 -6 0
-528 -7 0
-528 -8 0
-528 -49 0
-528 -50 0
-528 -51 0
-528 -52 0
-528 -53 0
-528 -54 0
-528 -55 0
-528 -56 0
-528 -157 0
-528 -158 0
-528 -159 0
-528 -160 0
-528 -161 0
-528 -162 0
-528 -163 0
-528 -164 0
-528 -193 0
-528 -194 0
-528 -195 0
-528 -196 0
-528 -197 0
-528 -198 0
-528 -199 0
-528 -200 0
-13 -229 0
-13 -265 0
-13 -301 0
-229 -265 0
-229 -301 0
-265 -301 0
-14 -230 0
-14 -266 0
-14 -302 0
-230 -266 0
-230 -302 0
-266 -302 0
-15 -231 0
-15 -267 0
-15 -303 0
-231 -267 0
-231 -303 0
-267 -303 0
-16 -232 0
-16 -268 0
-16 -304 0
-232 -268 0
-232 -304 0
-268 -304 0
-17 -233 0
-17 -269 0
-17 -305 0
-233 -269 0
-233 -305 0
-269 -305 0
-18 -234 0
-18 -270 0
-18 -306 0
-234 -270 0
-234 -306 0
-270 -306 0
-19 -235 0
-19 -271 0
-19 -307 0
-235 -271 0
-235 -307 0
-271 -307 0
-20 -236 0
-20 -272 0
-20 -308 0
-236 -272 0
-236 -308 0
-272 -308 0
-21 -237 0
-21 -273 0
-21 -309 0
-237 -273 0
-237 -309 0
-273 -309 0
-22 -238 0
-22 -274 0
-22 -310 0
-238 -274 0
-238 -310 0
-274 -310 0
-23 -239 0
-23 -275 0
-23 -311 0
-239 -275 0
-239 -311 0
-275 -311 0
-24 -240 0
-24 -276 0
-24 -312 0
-240 -276 0
-240 -312 0
-276 -312 0
529 530 531 532 533 534 535 536 537 0
-529 -530 0
-529 -531 0
-529 -532 0
-529 -533 0
-529 -534 0
-529 -535 0
-529 -536 0
-529 -537 0
-530 -531 0
-530 -532 0
-530 -533 0
-530 -534 0
-530 -535 0
-530 -536 0
-530 -537 0
-531 -532 0
-531 -533 0
-531 -534 0
-531 -535 0
-531 -536 0
-531 -537 0
-532 -533 0
-532 -534 0
-532 -535 0
-532 -536 0
-532 -537 0
-533 -534 0
-533 -535 0
-533 -536 0
-533 -537 0
-534 -535 0
-534 -536 0
-534 -537 0
-535 -536 0
-535 -537 0
-536 -537 0
-13 529 0
-14 529 530 0
-15 529 530 531 0
-16 529 530 531 532 0
-17 530 531 532 533 0
-18 531 532 533 534 0
-19 532 533 534 535 0
-20 533 534 535 536 0
-21 534 535 536 537 0
-22 535 536 537 0
-23 536 537 0
-24 537 0
-229 529 0
-230 529 530 0
-231 529 530 531 0
-232 529 530 531 532 0
-233 530 531 532 533 0
-234 531 532 533 534 0
-235 532 533 534 535 0
-236 533 534 535 536 0
-237 534 535 536 537 0
-238 535 536 537 0
-239 536 537 0
-240 537 0
-265 529 0
-266 529 530 0
-267 529 530 531 0
-268 529 530 531 532 0
-269 530 531 532 533 0
-270 531 532 533 534 0
-271 532 533 534 535 0
-272 533 534 535 536 0
-273 534 535 536 537 0
-274 535 536 537 0
-275 536 537 0
-276 537 0
-301 529 0
-302 529 530 0
-303 529 530 531 0
-304 529 530 531 532 0
-305 530 531 532 533 0
-306 531 532 533 534 0
-307 532 533 534 535 0
-308 533 534 535 536 0
-309 534 535 536 537 0
-310 535 536 537 0
-311 536 537 0
-312 537 0
-529 -17 0
-529 -18 0
-529 -19 0
-529 -20 0
-529 -21 0
-529 -22 0
-529 -23 0
-529 -24 0
-529 -233 0
-529 -234 0
-529 -235 0
-529 -236 0
-529 -237 0
-529 -238 0
-529 -239 0
-529 -240 0
-529 -269 0
-529 -270 0
-529 -271 0
-529 -272 0
-529 -273 0
-529 -274 0
-529 -275 0
-529 -276 0
-529 -305 0
-529 -306 0
-529 -307 0
-529 -308 0
-529 -309 0
-529 -310 0
-529 -311 0
-529 -312 0
-530 -13 0
-530 -18 0
-530 -19 0
-530 -20 0
-530 -21 0
-530 -22 0
-530 -23 0
-530 -24 0
-530 -229 0
-530 -234 0
-530 -235 0
-530 -236 0
-530 -237 0
-530 -238 0
-530 -239 0
-530 -240 0
-530 -265 0
-530 -270 0
-530 -271 0
-530 -272 0
-530 -273 0
-530 -274 0
-530 -275 0
-530 -276 0
-530 -301 0
-530 -306 0
-530 -307 0
-530 -308 0
-530 -309 0
-530 -310 0
-530 -311 0
-530 -312 0
-531 -13 0
-531 -14 0
-531 -19 0
-531 -20 0
-531 -21 0
-531 -22 0
-531 -23 0
-531 -24 0
-531 -229 0
-531 -230 0
-531 -235 0
-531 -236 0
-531 -237 0
-531 -238 0
-531 -239 0
-531 -240 0
-531 -265 0
-531 -266 0
-531 -271 0
-531 -272 0
-531 -273 0
-531 -274 0
-531 -275 0
-531 -276 0
-531 -301 0
-531 -302 0
-531 -307 0
-531 -308 0
-531 -309 0
-531 -310 0
-531 -311 0
-531 -312 0
-532 -13 0
-532 -14 0
-532 -15 0
-532 -20 0
-532 -21 0
-532 -22 0
-532 -23 0
-532 -24 0
-532 -229 0
-532 -230 0
-532 -231 0
-532 -236 0
-532 -237 0
-532 -238 0
-532 -239 0
-532 -240 0
-532 -265 0
-532 -266 0
-532 -267 0
-532 -272 0
-532 -273 0
-532 -274 0
-532 -275 0
-532 -276 0
-532 -301 0
-532 -302 0
-532 -303 0
-532 -308 0
-532 -309 0
-532 -310 0
-532 -311 0
-532 -312 0
-533 -13 0
-533 -14 0
-533 -15 0
-533 -16 0
-533 -21 0
-533 -22 0
-533 -23 0
-533 -24 0
-533 -229 0
-533 -230 0
-533 -231 0
-533 -232 0
-533 -237 0
-533 -238 0
-533 -239 0
-533 -240 0
-533 -265 0
-533 -266 0
-533 -267 0
-533 -268 0
-533 -273 0
-533 -274 0
-533 -275 0
-533 -276 0
-533 -301 0
-533 -302 0
-533 -303 0
-533 -304 0
-533 -309 0
-533 -310 0
-533 -311 0
-533 -312 0
-534 -13 0
-534 -14 0
-534 -15 0
-534 -16 0
-534 -17 0
-534 -22 0
-534 -23 0
-534 -24 0
-534 -229 0
-534 -230 0
-534 -231 0
-534 -232 0
-534 -233 0
-534 -238 0
-534 -239 0
-534 -240 0
-534 -265 0
-534 -266 0
-534 -267 0
-534 -268 0
-534 -269 0
-534 -274 0
-534 -275 0
-534 -276 0
-534 -301 0
-534 -302 0
-534 -303 0
-534 -304 0
-534 -305 0
-534 -310 0
-534 -311 0
-534 -312 0
-535 -13 0
-535 -14 0
-535 -15 0
-535 -16 0
-535 -17 0
-535 -18 0
-535 -23 0
-535 -24 0
-535 -229 0
-535 -230 0
-535 -231 0
-535 -232 0
-535 -233 0
-535 -234 0
-535 -239 0
-535 -240 0
-535 -265 0
-535 -266 0
-535 -267 0
-535 -268 0
-535 -269 0
-535 -270 0
-535 -275 0
-535 -276 0
-535 -301 0
-535 -302 0
-535 -303 0
-535 -304 0
-535 -305 0
-535 -306 0
-535 -311 0
-535 -312 0
-536 -13 0
-536 -14 0
-536 -15 0
-536 -16 0
-536 -17 0
-536 -18 0
-536 -19 0
-536 -24 0
-536 -229 0
-536 -230 0
-536 -231 0
-536 -232 0
-536 -233 0
-536 -234 0
-536 -235 0
-536 -240 0
-536 -265 0
-536 -266 0
-536 -267 0
-536 -268 0
-536 -269 0
-536 -270 0
-536 -271 0
-536 -276 0
-536 -301 0
-536 -302 0
-536 -303 0
-536 -304 0
-536 -305 0
-536 -306 0
-536 -307 0
-536 -312 0
-537 -13 0
-537 -14 0
-537 -15 0
-537 -16 0
-537 -17 0
-537 -18 0
-537 -19 0
-537 -20 0
-537 -229 0
-537 -230 0
-537 -231 0
-537 -232 0
-537 -233 0
-537 -234 0
-537 -235 0
-537 -236 0
-537 -265 0
-537 -266 0
-537 -267 0
-537 -268 0
-537 -269 0
-537 -270 0
-537 -271 0
-537 -272 0
-537 -301 0
-537 -302 0
-537 -303 0
-537 -304 0
-537 -305 0
-537 -306 0
-537 -307 0
-537 -308 0
-85 -121 0
-85 -337 0
-85 -373 0
-121 -337 0
-121 -373 0
-337 -373 0
-86 -122 0
-86 -338 0
-86 -374 0
-122 -338 0
-122 -374 0
-338 -374 0
-87 -123 0
-87 -339 0
-87 -375 0
-123 -339 0
-123 -375 0
-339 -375 0
-88 -124 0
-88 -340 0
-88 -376 0
-124 -340 0
-124 -376 0
-340 -376 0
-89 -125 0
-89 -341 0
-89 -377 0
-125 -341 0
-125 -377 0
-341 -377 0
-90 -126 0
-90 -342 0
-90 -378 0
-126 -342 0
-126 -378 0
-342 -378 0
-91 -127 0
-91 -343 0
-91 -379 0
-127 -343 0
-127 -379 0
-343 -379 0
-92 -128 0
-92 -344 0
-92 -380 0
-128 -344 0
-128 -380 0
-344 -380 0
-93 -129 0
-93 -345 0
-93 -381 0
-129 -345 0
-129 -381 0
-345 -381 0
-94 -130 0
-94 -346 0
-94 -382 0
-130 -346 0
-130 -382 0
-346 -382 0
-95 -131 0
-95 -347 0
-95 -383 0
-131 -347 0
-131 -383 0
-347 -383 0
-96 -132 0
-96 -348 0
-96 -384 0
-132 -348 0
-132 -384 0
-348 -384 0
538 539 540 541 542 543 544 545 546 0
-538 -539 0
-538 -540 0
-538 -541 0
-538 -542 0
-538 -543 0
-538 -544 0
-538 -545 0
-538 -546 0
-539 -540 0
-539 -541 0
-539 -542 0
-539 -543 0
-539 -544 0
-539 -545 0
-539 -546 0
-540 -541 0
-540 -542 0
-540 -543 0
-540 -544 0
-540 -545 0
-540 -546 0
-541 -542 0
-541 -543 0
-541 -544 0
-541 -545 0
-541 -546 0
-542 -543 0
-542 -544 0
-542 -545 0
-542 -546 0
-543 -544 0
-543 -545 0
-543 -546 0
-544 -545 0
-544 -546 0
-545 -546 0
-85 538 0
-86 538 539 0
-87 538 539 540 0
-88 538 539 540 541 0
-89 539 540 541 542 0
-90 540 541 542 543 0
-91 541 542 543 544 0
-92 542 543 544 545 0
-93 543 544 545 546 0
-94 544 545 546 0
-95 545 546 0
-96 546 0
-121 538 0
-122 538 539 0
-123 538 539 540 0
-124 538 539 540 541 0
-125 539 540 541 542 0
-126 540 541 542 543 0
-127 541 542 543 544 0
-128 542 543 544 545 0
-129 543 544 545 546 0
-130 544 545 546 0
-131 545 546 0
-132 546 0
-337 538 0
-338 538 539 0
-339 538 539 540 0
-340 538 539 540 541 0
-341 539 540 541 542 0
-342 540 541 542 543 0
-343 541 542 543 544 0
-344 542 543 544 545 0
-345 543 544 545 546 0
-346 544 545 546 0
-347 545 546 0
-348 546 0
-373 538 0
-374 538 539 0
-375 538 539 540 0
-376 538 539 540 541 0
-377 539 540 541 542 0
-378 540 541 542 543 0
-379 541 542 543 544 0
-380 542 543 544 545 0
-381 543 544 545 546 0
-382 544 545 546 0
-383 545 546 0
-384 546 0
-538 -89 0
-538 -90 0
-538 -91 0
-538 -92 0
-538 -93 0
-538 -94 0
-538 -95 0
-538 -96 0
-538 -125 0
-538 -126 0
-538 -127 0
-538 -128 0
-538 -129 0
-538 -130 0
-538 -131 0
-538 -132 0
-538 -341 0
-538 -342 0
-538 -343 0
-538 -344 0
-538 -345 0
-538 -346 0
-538 -347 0
-538 -348 0
-538 -377 0
-538 -378 0
-538 -379 0
-538 -380 0
-538 -381 0
-538 -382 0
-538 -383 0
-538 -384 0
-539 -85 0
-539 -90 0
-539 -91 0
-539 -92 0
-539 -93 0
-539 -94 0
-539 -95 0
-539 -96 0
-539 -121 0
-539 -126 0
-539 -127 0
-539 -128 0
-539 -129 0
-539 -130 0
-539 -131 0
-539 -132 0
-539 -337 0
-539 -342 0
-539 -343 0
-539 -344 0
-539 -345 0
-539 -346 0
-539 -347 0
-539 -348 0
-539 -373 0
-539 -378 0
-539 -379 0
-539 -380 0
-539 -381 0
-539 -382 0
-539 -383 0
-539 -384 0
-540 -85 0
-540 -86 0
-540 -91 0
-540 -92 0
-540 -93 0
-540 -94 0
-540 -95 0
-540 -96 0
-540 -121 0
-540 -122 0
-540 -127 0
-540 -128 0
-540 -129 0
-540 -130 0
-540 -131 0
-540 -132 0
-540 -337 0
-540 -338 0
-540 -343 0
-540 -344 0
-540 -345 0
-540 -346 0
-540 -347 0
-540 -348 0
-540 -373 0
-540 -374 0
-540 -379 0
-540 -380 0
-540 -381 0
-540 -382 0
-540 -383 0
-540 -384 0
-541 -85 0
-541 -86 0
-541 -87 0
-541 -92 0
-541 -93 0
-541 -94 0
-541 -95 0
-541 -96 0
-541 -121 0
-541 -122 0
-541 -123 0
-541 -128 0
-541 -129 0
-541 -130 0
-541 -131 0
-541 -132 0
-541 -337 0
-541 -338 0
-541 -339 0
-541 -344 0
-541 -345 0
-541 -346 0
-541 -347 0
-541 -348 0
-541 -373 0
-541 -374 0
-541 -375 0
-541 -380 0
-541 -381 0
-541 -382 0
-541 -383 0
-541 -384 0
-542 -85 0
-542 -86 0
-542 -87 0
-542 -88 0
-542 -93 0
-542 -94 0
-542 -95 0
-542 -96 0
-542 -121 0
-542 -122 0
-542 -123 0
-542 -124 0
-542 -129 0
-542 -130 0
-542 -131 0
-542 -132 0
-542 -337 0
-542 -338 0
-542 -339 0
-542 -340 0
-542 -345 0
-542 -346 0
-542 -347 0
-542 -348 0
-542 -373 0
-542 -374 0
-542 -375 0
-542 -376 0
-542 -381 0
-542 -382 0
-542 -383 0
-542 -384 0
-543 -85 0
-543 -86 0
-543 -87 0
-543 -88 0
-543 -89 0
-543 -94 0
-543 -95 0
-543 -96 0
-543 -121 0
-543 -122 0
-543 -123 0
-543 -124 0
-543 -125 0
-543 -130 0
-543 -131 0
-543 -132 0
-543 -337 0
-543 -338 0
-543 -339 0
-543 -340 0
-543 -341 0
-543 -346 0
-543 -347 0
-543 -348 0
-543 -373 0
-543 -374 0
-543 -375 0
-543 -376 0
-543 -377 0
-543 -382 0
-543 -383 0
-543 -384 0
-544 -85 0
-544 -86 0
-544 -87 0
-544 -88 0
-544 -89 0
-544 -90 0
-544 -95 0
-544 -96 0
-544 -121 0
-544 -122 0
-544 -123 0
-544 -124 0
-544 -125 0
-544 -126 0
-544 -131 0
-544 -132 0
-544 -337 0
-544 -338 0
-544 -339 0
-544 -340 0
-544 -341 0
-544 -342 0
-544 -347 0
-544 -348 0
-544 -373 0
-544 -374 0
-544 -375 0
-544 -376 0
-544 -377 0
-544 -378 0
-544 -383 0
-544 -384 0
-545 -85 0
-545 -86 0
-545 -87 0
-545 -88 0
-545 -89 0
-545 -90 0
-545 -91 0
-545 -96 0
-545 -121 0
-545 -122 0
-545 -123 0
-545 -124 0
-545 -125 0
-545 -126 0
-545 -127 0
-545 -132 0
-545 -337 0
-545 -338 0
-545 -339 0
-545 -340 0
-545 -341 0
-545 -342 0
-545 -343 0
-545 -348 0
-545 -373 0
-545 -374 0
-545 -375 0
-545 -376 0
-545 -377 0
-545 -378 0
-545 -379 0
-545 -384 0
-546 -85 0
-546 -86 0
-546 -87 0
-546 -88 0
-546 -89 0
-546 -90 0
-546 -91 0
-546 -92 0
-546 -121 0
-546 -122 0
-546 -123 0
-546 -124 0
-546 -125 0
-546 -126 0
-546 -127 0
-546 -128 0
-546 -337 0
-546 -338 0
-546 -339 0
-546 -340 0
-546 -341 0
-546 -342 0
-546 -343 0
-546 -344 0
-546 -373 0
-546 -374 0
-546 -375 0
-546 -376 0
-546 -377 0
-546 -378 0
-546 -379 0
-546 -380 0
-25 -349 0
-26 -350 0
-27 -351 0
-28 -352 0
-29 -353 0
-30 -354 0
-31 -355 0
-32 -356 0
-33 -357 0
-34 -358 0
-35 -359 0
-36 -360 0
547 548 549 550 551 552 553 554 555 556 557 0
-547 -548 0
-547 -549 0
-547 -550 0
-547 -551 0
-547 -552 0
-547 -553 0
-547 -554 0
-547 -555 0
-547 -556 0
-547 -557 0
-548 -549 0
-548 -550 0
-548 -551 0
-548 -552 0
-548 -553 0
-548 -554 0
-548 -555 0
-548 -556 0
-548 -557 0
-549 -550 0
-549 -551 0
-549 -552 0
-549 -553 0
-549 -554 0
-549 -555 0
-549 -556 0
-549 -557 0
-550 -551 0
-550 -552 0
-550 -553 0
-550 -554 0
-550 -555 0
-550 -556 0
-550 -557 0
-551 -552 0
-551 -553 0
-551 -554 0
-551 -555 0
-551 -556 0
-551 -557 0
-552 -553 0
-552 -554 0
-552 -555 0
-552 -556 0
-552 -557 0
-553 -554 0
-553 -555 0
-553 -556 0
-553 -557 0
-554 -555 0
-554 -556 0
-554 -557 0
-555 -556 0
-555 -557 0
-556 -557 0
-25 547 0
-26 547 548 0
-27 548 549 0
-28 549 550 0
-29 550 551 0
-30 551 552 0
-31 552 553 0
-32 553 554 0
-33 554 555 0
-34 555 556 0
-35 556 557 0
-36 557 0
-349 547 0
-350 547 548 0
-351 548 549 0
-352 549 550 0
-353 550 551 0
-354 551 552 0
-355 552 553 0
-356 553 554 0
-357 554 555 0
-358 555 556 0
-359 556 557 0
-360 557 0
-547 -27 0
-547 -28 0
-547 -29 0
-547 -30 0
-547 -31 0
-547 -32 0
-547 -33 0
-547 -34 0
-547 -35 0
-547 -36 0
-547 -351 0
-547 -352 0
-547 -353 0
-547 -354 0
-547 -355 0
-547 -356 0
-547 -357 0
-547 -358 0
-547 -359 0
-547 -360 0
-548 -25 0
-548 -28 0
-548 -29 0
-548 -30 0
-548 -31 0
-548 -32 0
-548 -33 0
-548 -34 0
-548 -35 0
-548 -36 0
-548 -349 0
-548 -352 0
-548 -353 0
-548 -354 0
-548 -355 0
-548 -356 0
-548 -357 0
-548 -358 0
-548 -359 0
-548 -360 0
-549 -25 0
-549 -26 0
-549 -29 0
-549 -30 0
-549 -31 0
-549 -32 0
-549 -33 0
-549 -34 0
-549 -35 0
-549 -36 0
-549 -349 0
-549 -350 0
-549 -353 0
-549 -354 0
-549 -355 0
-549 -356 0
-549 -357 0
-549 -358 0
-549 -359 0
-549 -360 0
-550 -25 0
-550 -26 0
-550 -27 0
-550 -30 0
-550 -31 0
-550 -32 0
-550 -33 0
-550 -34 0
-550 -35 0
-550 -36 0
-550 -349 0
-550 -350 0
-550 -351 0
-550 -354 0
-550 -355 0
-550 -356 0
-550 -357 0
-550 -358 0
-550 -359 0
-550 -360 0
-551 -25 0
-551 -26 0
-551 -27 0
-551 -28 0
-551 -31 0
-551 -32 0
-551 -33 0
-551 -34 0
-551 -35 0
-551 -36 0
-551 -349 0
-551 -350 0
-551 -351 0
-551 -352 0
-551 -355 0
-551 -356 0
-551 -357 0
-551 -358 0
-551 -359 0
-551 -360 0
-552 -25 0
-552 -26 0
-552 -27 0
-552 -28 0
-552 -29 0
-552 -32 0
-552 -33 0
-552 -34 0
-552 -35 0
-552 -36 0
-552 -349 0
-552 -350 0
-552 -351 0
-552 -352 0
-552 -353 0
-552 -356 0
-552 -357 0
-552 -358 0
-552 -359 0
-552 -360 0
-553 -25 0
-553 -26 0
-553 -27 0
-553 -28 0
-553 -29 0
-553 -30 0
-553 -33 0
-553 -34 0
-553 -35 0
-553 -36 0
-553 -349 0
-553 -350 0
-553 -351 0
-553 -352 0
-553 -353 0
-553 -354 0
-553 -357 0
-553 -358 0
-553 -359 0
-553 -360 0
-554 -25 0
-554 -26 0
-554 -27 0
-554 -28 0
-554 -29 0
-554 -30 0
-554 -31 0
-554 -34 0
-554 -35 0
-554 -36 0
-554 -349 0
-554 -350 0
-554 -351 0
-554 -352 0
-554 -353 0
-554 -354 0
-554 -355 0
-554 -358 0
-554 -359 0
-554 -360 0
-555 -25 0
-555 -26 0
-555 -27 0
-555 -28 0
-555 -29 0
-555 -30 0
-555 -31 0
-555 -32 0
-555 -35 0
-555 -36 0
-555 -349 0
-555 -350 0
-555 -351 0
-555 -352 0
-555 -353 0
-555 -354 0
-555 -355 0
-555 -356 0
-555 -359 0
-555 -360 0
-556 -25 0
-556 -26 0
-556 -27 0
-556 -28 0
-556 -29 0
-556 -30 0
-556 -31 0
-556 -32 0
-556 -33 0
-556 -36 0
-556 -349 0
-556 -350 0
-556 -351 0
-556 -352 0
-556 -353 0
-556 -354 0
-556 -355 0
-556 -356 0
-556 -357 0
-556 -360 0
-557 -25 0
-557 -26 0
-557 -27 0
-557 -28 0
-557 -29 0
-557 -30 0
-557 -31 0
-557 -32 0
-557 -33 0
-557 -34 0
-557 -349 0
-557 -350 0
-557 -351 0
-557 -352 0
-557 -353 0
-557 -354 0
-557 -355 0
-557 -356 0
-557 -357 0
-557 -358 0
-61 -241 0
-61 -385 0
-241 -385 0
-62 -242 0
-62 -386 0
-242 -386 0
-63 -243 0
-63 -387 0
-243 -387 0
-64 -244 0
-64 -388 0
-244 -388 0
-65 -245 0
-65 -389 0
-245 -389 0
-66 -246 0
-66 -390 0
-246 -390 0
-67 -247 0
-67 -391 0
-247 -391 0
-68 -248 0
-68 -392 0
-248 -392 0
-69 -249 0
-69 -393 0
-249 -393 0
-70 -250 0
-70 -394 0
-250 -394 0
-71 -251 0
-71 -395 0
-251 -395 0
-72 -252 0
-72 -396 0
-252 -396 0
558 559 560 561 562 563 564 565 566 567 0
-558 -559 0
-558 -560 0
-558 -561 0
-558 -562 0
-558 -563 0
-558 -564 0
-558 -565 0
-558 -566 0
-558 -567 0
-559 -560 0
-559 -561 0
-559 -562 0
-559 -563 0
-559 -564 0
-559 -565 0
-559 -566 0
-559 -567 0
-560 -561 0
-560 -562 0
-560 -563 0
-560 -564 0
-560 -565 0
-560 -566 0
-560 -567 0
-561 -562 0
-561 -563 0
-561 -564 0
-561 -565 0
-561 -566 0
-561 -567 0
-562 -563 0
-562 -564 0
-562 -565 0
-562 -566 0
-562 -567 0
-563 -564 0
-563 -565 0
-563 -566 0
-563 -567 0
-564 -565 0
-564 -566 0
-564 -567 0
-565 -566 0
-565 -567 0
-566 -567 0
-61 558 0
-62 558 559 0
-63 558 559 560 0
-64 559 560 561 0
-65 560 561 562 0
-66 561 562 563 0
-67 562 563 564 0
-68 563 564 565 0
-69 564 565 566 0
-70 565 566 567 0
-71 566 567 0
-72 567 0
-241 558 0
-242 558 559 0
-243 558 559 560 0
-244 559 560 561 0
-245 560 561 562 0
-246 561 562 563 0
-247 562 563 564 0
-248 563 564 565 0
-249 564 565 566 0
-250 565 566 567 0
-251 566 567 0
-252 567 0
-385 558 0
-386 558 559 0
-387 558 559 560 0
-388 559 560 561 0
-389 560 561 562 0
-390 561 562 563 0
-391 562 563 564 0
-392 563 564 565 0
-393 564 565 566 0
-394 565 566 567 0
-395 566 567 0
-396 567 0
-558 -64 0
-558 -65 0
-558 -66 0
-558 -67 0
-558 -68 0
-558 -69 0
-558 -70 0
-558 -71 0
-558 -72 0
-558 -244 0
-558 -245 0
-558 -246 0
-558 -247 0
-558 -248 0
-558 -249 0
-558 -250 0
-558 -251 0
-558 -252 0
-558 -388 0
-558 -389 0
-558 -390 0
-558 -391 0
-558 -392 0
-558 -393 0
-558 -394 0
-558 -395 0
-558 -396 0
-559 -61 0
-559 -65 0
-559 -66 0
-559 -67 0
-559 -68 0
-559 -69 0
-559 -70 0
-559 -71 0
-559 -72 0
-559 -241 0
-559 -245 0
-559 -246 0
-559 -247 0
-559 -248 0
-559 -249 0
-559 -250 0
-559 -251 0
-559 -252 0
-559 -385 0
-559 -389 0
-559 -390 0
-559 -391 0
-559 -392 0
-559 -393 0
-559 -394 0
-559 -395 0
-559 -396 0
-560 -61 0
-560 -62 0
-560 -66 0
-560 -67 0
-560 -68 0
-560 -69 0
-560 -70 0
-560 -71 0
-560 -72 0
-560 -241 0
-560 -242 0
-560 -246 0
-560 -247 0
-560 -248 0
-560 -249 0
-560 -250 0
-560 -251 0
-560 -252 0
-560 -385 0
-560 -386 0
-560 -390 0
-560 -391 0
-560 -392 0
-560 -393 0
-560 -394 0
-560 -395 0
-560 -396 0
-561 -61 0
-561 -62 0
-561 -63 0
-561 -67 0
-561 -68 0
-561 -69 0
-561 -70 0
-561 -71 0
-561 -72 0
-561 -241 0
-561 -242 0
-561 -243 0
-561 -247 0
-561 -248 0
-561 -249 0
-561 -250 0
-561 -251 0
-561 -252 0
-561 -385 0
-561 -386 0
-561 -387 0
-561 -391 0
-561 -392 0
-561 -393 0
-561 -394 0
-561 -395 0
-561 -396 0
-562 -61 0
-562 -62 0
-562 -63 0
-562 -64 0
-562 -68 0
-562 -69 0
-562 -70 0
-562 -71 0
-562 -72 0
-562 -241 0
-562 -242 0
-562 -243 0
-562 -244 0
-562 -248 0
-562 -249 0
-562 -250 0
-562 -251 0
-562 -252 0
-562 -385 0
-562 -386 0
-562 -387 0
-562 -388 0
-562 -392 0
-562 -393 0
-562 -394 0
-562 -395 0
-562 -396 0
-563 -61 0
-563 -62 0
-563 -63 0
-563 -64 0
-563 -65 0
-563 -69 0
-563 -70 0
-563 -71 0
-563 -72 0
-563 -241 0
-563 -242 0
-563 -243 0
-563 -244 0
-563 -245 0
-563 -249 0
-563 -250 0
-563 -251 0
-563 -252 0
-563 -385 0
-563 -386 0
-563 -387 0
-563 -388 0
-563 -389 0
-563 -393 0
-563 -394 0
-563 -395 0
-563 -396 0
-564 -61 0
-564 -62 0
-564 -63 0
-564 -64 0
-564 -65 0
-564 -66 0
-564 -70 0
-564 -71 0
-564 -72 0
-564 -241 0
-564 -242 0
-564 -243 0
-564 -244 0
-564 -245 0
-564 -246 0
-564 -250 0
-564 -251 0
-564 -252 0
-564 -385 0
-564 -386 0
-564 -387 0
-564 -388 0
-564 -389 0
-564 -390 0
-564 -394 0
-564 -395 0
-564 -396 0
-565 -61 0
-565 -62 0
-565 -63 0
-565 -64 0
-565 -65 0
-565 -66 0
-565 -67 0
-565 -71 0
-565 -72 0
-565 -241 0
-565 -242 0
-565 -243 0
-565 -244 0
-565 -245 0
-565 -246 0
-565 -247 0
-565 -251 0
-565 -252 0
-565 -385 0
-565 -386 0
-565 -387 0
-565 -388 0
-565 -389 0
-565 -390 0
-565 -391 0
-565 -395 0
-565 -396 0
-566 -61 0
-566 -62 0
-566 -63 0
-566 -64 0
-566 -65 0
-566 -66 0
-566 -67 0
-566 -68 0
-566 -72 0
-566 -241 0
-566 -242 0
-566 -243 0
-566 -244 0
-566 -245 0
-566 -246 0
-566 -247 0
-566 -248 0
-566 -252 0
-566 -385 0
-566 -386 0
-566 -387 0
-566 -388 0
-566 -389 0
-566 -390 0
-566 -391 0
-566 -392 0
-566 -396 0
-567 -61 0
-567 -62 0
-567 -63 0
-567 -64 0
-567 -65 0
-567 -66 0
-567 -67 0
-567 -68 0
-567 -69 0
-567 -241 0
-567 -242 0
-567 -243 0
-567 -244 0
-567 -245 0
-567 -246 0
-567 -247 0
-567 -248 0
-567 -249 0
-567 -385 0
-567 -386 0
-567 -387 0
-567 -388 0
-567 -389 0
-567 -390 0
-567 -391 0
-567 -392 0
-567 -393 0
-97 -169 0
-97 -277 0
-169 -277 0
-98 -170 0
-98 -278 0
-170 -278 0
-99 -171 0
-99 -279 0
-171 -279 0
-100 -172 0
-100 -280 0
-172 -280 0
-101 -173 0
-101 -281 0
-173 -281 0
-102 -174 0
-102 -282 0
-174 -282 0
-103 -175 0
-103 -283 0
-175 -283 0
-104 -176 0
-104 -284 0
-176 -284 0
-105 -177 0
-105 -285 0
-177 -285 0
-106 -178 0
-106 -286 0
-178 -286 0
-107 -179 0
-107 -287 0
-179 -287 0
-108 -180 0
-108 -288 0
-180 -288 0
568 569 570 571 572 573 574 575 576 577 0
-568 -569 0
-568 -570 0
-568 -571 0
-568 -572 0
-568 -573 0
-568 -574 0
-568 -575 0
-568 -576 0
-568 -577 0
-569 -570 0
-569 -571 0
-569 -572 0
-569 -573 0
-569 -574 0
-569 -575 0
-569 -576 0
-569 -577 0
-570 -571 0
-570 -572 0
-570 -573 0
-570 -574 0
-570 -575 0
-570 -576 0
-570 -577 0
-571 -572 0
-571 -573 0
-571 -574 0
-571 -575 0
-571 -576 0
-571 -577 0
-572 -573 0
-572 -574 0
-572 -575 0
-572 -576 0
-572 -577 0
-573 -574 0
-573 -575 0
-573 -576 0
-573 -577 0
-574 -575 0
-574 -576 0
-574 -577 0
-575 -576 0
-575 -577 0
-576 -577 0
-97 568 0
-98 568 569 0
-99 568 569 570 0
-100 569 570 571 0
-101 570 571 572 0
-102 571 572 573 0
-103 572 573 574 0
-104 573 574 575 0
-105 574 575 576 0
-106 575 576 577 0
-107 576 577 0
-108 577 0
-169 568 0
-170 568 569 0
-171 568 569 570 0
-172 569 570 571 0
-173 570 571 572 0
-174 571 572 573 0
-175 572 573 574 0
-176 573 574 575 0
-177 574 575 576 0
-178 575 576 577 0
-179 576 577 0
-180 577 0
-277 568 0
-278 568 569 0
-279 568 569 570 0
-280 569 570 571 0
-281 570 571 572 0
-282 571 572 573 0
-283 572 573 574 0
-284 573 574 575 0
-285 574 575 576 0
-286 575 576 577 0
-287 576 577 0
-288 577 0
-568 -100 0
-568 -101 0
-568 -102 0
-568 -103 0
-568 -104 0
-568 -105 0
-568 -106 0
-568 -107 0
-568 -108 0
-568 -172 0
-568 -173 0
-568 -174 0
-568 -175 0
-568 -176 0
-568 -177 0
-568 -178 0
-568 -179 0
-568 -180 0
-568 -280 0
-568 -281 0
-568 -282 0
-568 -283 0
-568 -284 0
-568 -285 0
-568 -286 0
-568 -287 0
-568 -288 0
-569 -97 0
-569 -101 0
-569 -102 0
-569 -103 0
-569 -104 0
-569 -105 0
-569 -106 0
-569 -107 0
-569 -108 0
-569 -169 0
-569 -173 0
-569 -174 0
-569 -175 0
-569 -176 0
-569 -177 0
-569 -178 0
-569 -179 0
-569 -180 0
-569 -277 0
-569 -281 0
-569 -282 0
-569 -283 0
-569 -284 0
-569 -285 0
-569 -286 0
-569 -287 0
-569 -288 0
-570 -97 0
-570 -98 0
-570 -102 0
-570 -103 0
-570 -104 0
-570 -105 0
-570 -106 0
-570 -107 0
-570 -108 0
-570 -169 0
-570 -170 0
-570 -174 0
-570 -175 0
-570 -176 0
-570 -177 0
-570 -178 0
-570 -179 0
-570 -180 0
-570 -277 0
-570 -278 0
-570 -282 0
-570 -283 0
-570 -284 0
-570 -285 0
-570 -286 0
-570 -287 0
-570 -288 0
-571 -97 0
-571 -98 0
-571 -99 0
-571 -103 0
-571 -104 0
-571 -105 0
-571 -106 0
-571 -107 0
-571 -108 0
-571 -169 0
-571 -170 0
-571 -171 0
-571 -175 0
-571 -176 0
-571 -177 0
-571 -178 0
-571 -179 0
-571 -180 0
-571 -277 0
-571 -278 0
-571 -279 0
-571 -283 0
-571 -284 0
-571 -285 0
-571 -286 0
-571 -287 0
-571 -288 0
-572 -97 0
-572 -98 0
-572 -99 0
-572 -100 0
-572 -104 0
-572 -105 0
-572 -106 0
-572 -107 0
-572 -108 0
-572 -169 0
-572 -170 0
-572 -171 0
-572 -172 0
-572 -176 0
-572 -177 0
-572 -178 0
-572 -179 0
-572 -180 0
-572 -277 0
-572 -278 0
-572 -279 0
-572 -280 0
-572 -284 0
-572 -285 0
-572 -286 0
-572 -287 0
-572 -288 0
-573 -97 0
-573 -98 0
-573 -99 0
-573 -100 0
-573 -101 0
-573 -105 0
-573 -106 0
-573 -107 0
-573 -108 0
-573 -169 0
-573 -170 0
-573 -171 0
-573 -172 0
-573 -173 0
-573 -177 0
-573 -178 0
-573 -179 0
-573 -180 0
-573 -277 0
-573 -278 0
-573 -279 0
-573 -280 0
-573 -281 0
-573 -285 0
-573 -286 0
-573 -287 0
-573 -288 0
-574 -97 0
-574 -98 0
-574 -99 0
-574 -100 0
-574 -101 0
-574 -102 0
-574 -106 0
-574 -107 0
-574 -108 0
-574 -169 0
-574 -170 0
-574 -171 0
-574 -172 0
-574 -173 0
-574 -174 0
-574 -178 0
-574 -179 0
-574 -180 0
-574 -277 0
-574 -278 0
-574 -279 0
-574 -280 0
-574 -281 0
-574 -282 0
-574 -286 0
-574 -287 0
-574 -288 0
-575 -97 0
-575 -98 0
-575 -99 0
-575 -100 0
-575 -101 0
-575 -102 0
-575 -103 0
-575 -107 0
-575 -108 0
-575 -169 0
-575 -170 0
-575 -171 0
-575 -172 0
-575 -173 0
-575 -174 0
-575 -175 0
-575 -179 0
-575 -180 0
-575 -277 0
-575 -278 0
-575 -279 0
-575 -280 0
-575 -281 0
-575 -282 0
-575 -283 0
-575 -287 0
-575 -288 0
-576 -97 0
-576 -98 0
-576 -99 0
-576 -100 0
-576 -101 0
-576 -102 0
-576 -103 0
-576 -104 0
-576 -108 0
-576 -169 0
-576 -170 0
-576 -171 0
-576 -172 0
-576 -173 0
-576 -174 0
-576 -175 0
-576 -176 0
-576 -180 0
-576 -277 0
-576 -278 0
-576 -279 0
-576 -280 0
-576 -281 0
-576 -282 0
-576 -283 0
-576 -284 0
-576 -288 0
-577 -97 0
-577 -98 0
-577 -99 0
-577 -100 0
-577 -101 0
-577 -102 0
-577 -103 0
-577 -104 0
-577 -105 0
-577 -169 0
-577 -170 0
-577 -171 0
-577 -172 0
-577 -173 0
-577 -174 0
-577 -175 0
-577 -176 0
-577 -177 0
-577 -277 0
-577 -278 0
-577 -279 0
-577 -280 0
-577 -281 0
-577 -282 0
-577 -283 0
-577 -284 0
-577 -285 0
-133 -205 0
-133 -313 0
-205 -313 0
-134 -206 0
-134 -314 0
-206 -314 0
-135 -207 0
-135 -315 0
-207 -315 0
-136 -208 0
-136 -316 0
-208 -316 0
-137 -209 0
-137 -317 0
-209 -317 0
-138 -210 0
-138 -318 0
-210 -318 0
-139 -211 0
-139 -319 0
-211 -319 0
-140 -212 0
-140 -320 0
-212 -320 0
-141 -213 0
-141 -321 0
-213 -321 0
-142 -214 0
-142 -322 0
-214 -322 0
-143 -215 0
-143 -323 0
-215 -323 0
-144 -216 0
-144 -324 0
-216 -324 0
578 579 580 581 582 583 584 585 586 587 0
-578 -579 0
-578 -580 0
-578 -581 0
-578 -582 0
-578 -583 0
-578 -584 0
-578 -585 0
-578 -586 0
-578 -587 0
-579 -580 0
-579 -581 0
-579 -582 0
-579 -583 0
-579 -584 0
-579 -585 0
-579 -586 0
-579 -587 0
-580 -581 0
-580 -582 0
-580 -583 0
-580 -584 0
-580 -585 0
-580 -586 0
-580 -587 0
-581 -582 0
-581 -583 0
-581 -584 0
-581 -585 0
-581 -586 0
-581 -587 0
-582 -583 0
-582 -584 0
-582 -585 0
-582 -586 0
-582 -587 0
-583 -584 0
-583 -585 0
-583 -586 0
-583 -587 0
-584 -585 0
-584 -586 0
-584 -587 0
-585 -586 0
-585 -587 0
-586 -587 0
-133 578 0
-134 578 579 0
-135 578 579 580 0
-136 579 580 581 0
-137 580 581 582 0
-138 581 582 583 0
-139 582 583 584 0
-140 583 584 585 0
-141 584 585 586 0
-142 585 586 587 0
-143 586 587 0
-144 587 0
-205 578 0
-206 578 579 0
-207 578 579 580 0
-208 579 580 581 0
-209 580 581 582 0
-210 581 582 583 0
-211 582 583 584 0
-212 583 584 585 0
-213 584 585 586 0
-214 585 586 587 0
-215 586 587 0
-216 587 0
-313 578 0
-314 578 579 0
-315 578 579 580 0
-316 579 580 581 0
-317 580 581 582 0
-318 581 582 583 0
-319 582 583 584 0
-320 583 584 585 0
-321 584 585 586 0
-322 585 586 587 0
-323 586 587 0
-324 587 0
-578 -136 0
-578 -137 0
-578 -138 0
-578 -139 0
-578 -140 0
-578 -141 0
-578 -142 0
-578 -143 0
-578 -144 0
-578 -208 0
-578 -209 0
-578 -210 0
-578 -211 0
-578 -212 0
-578 -213 0
-578 -214 0
-578 -215 0
-578 -216 0
-578 -316 0
-578 -317 0
-578 -318 0
-578 -319 0
-578 -320 0
-578 -321 0
-578 -322 0
-578 -323 0
-578 -324 0
-579 -133 0
-579 -137 0
-579 -138 0
-579 -139 0
-579 -140 0
-579 -141 0
-579 -142 0
-579 -143 0
-579 -144 0
-579 -205 0
-579 -209 0
-579 -210 0
-579 -211 0
-579 -212 0
-579 -213 0
-579 -214 0
-579 -215 0
-579 -216 0
-579 -313 0
-579 -317 0
-579 -318 0
-579 -319 0
-579 -320 0
-579 -321 0
-579 -322 0
-579 -323 0
-579 -324 0
-580 -133 0
-580 -134 0
-580 -138 0
-580 -139 0
-580 -140 0
-580 -141 0
-580 -142 0
-580 -143 0
-580 -144 0
-580 -205 0
-580 -206 0
-580 -210 0
-580 -211 0
-580 -212 0
-580 -213 0
-580 -214 0
-580 -215 0
-580 -216 0
-580 -313 0
-580 -314 0
-580 -318 0
-580 -319 0
-580 -320 0
-580 -321 0
-580 -322 0
-580 -323 0
-580 -324 0
-581 -133 0
-581 -134 0
-581 -135 0
-581 -139 0
-581 -140 0
-581 -141 0
-581 -142 0
-581 -143 0
-581 -144 0
-581 -205 0
-581 -206 0
-581 -207 0
-581 -211 0
-581 -212 0
-581 -213 0
-581 -214 0
-581 -215 0
-581 -216 0
-581 -313 0
-581 -314 0
-581 -315 0
-581 -319 0
-581 -320 0
-581 -321 0
-581 -322 0
-581 -323 0
-581 -324 0
-582 -133 0
-582 -134 0
-582 -135 0
-582 -136 0
-582 -140 0
-582 -141 0
-582 -142 0
-582 -143 0
-582 -144 0
-582 -205 0
-582 -206 0
-582 -207 0
-582 -208 0
-582 -212 0
-582 -213 0
-582 -214 0
-582 -215 0
-582 -216 0
-582 -313 0
-582 -314 0
-582 -315 0
-582 -316 0
-582 -320 0
-582 -321 0
-582 -322 0
-582 -323 0
-582 -324 0
-583 -133 0
-583 -134 0
-583 -135 0
-583 -136 0
-583 -137 0
-583 -141 0
-583 -142 0
-583 -143 0
-583 -144 0
-583 -205 0
-583 -206 0
-583 -207 0
-583 -208 0
-583 -209 0
-583 -213 0
-583 -214 0
-583 -215 0
-583 -216 0
-583 -313 0
-583 -314 0
-583 -315 0
-583 -316 0
-583 -317 0
-583 -321 0
-583 -322 0
-583 -323 0
-583 -324 0
-584 -133 0
-584 -134 0
-584 -135 0
-584 -136 0
-584 -137 0
-584 -138 0
-584 -142 0
-584 -143 0
-584 -144 0
-584 -205 0
-584 -206 0
-584 -207 0
-584 -208 0
-584 -209 0
-584 -210 0
-584 -214 0
-584 -215 0
-584 -216 0
-584 -313 0
-584 -314 0
-584 -315 0
-584 -316 0
-584 -317 0
-584 -318 0
-584 -322 0
-584 -323 0
-584 -324 0
-585 -133 0
-585 -134 0
-585 -135 0
-585 -136 0
-585 -137 0
-585 -138 0
-585 -139 0
-585 -143 0
-585 -144 0
-585 -205 0
-585 -206 0
-585 -207 0
-585 -208 0
-585 -209 0
-585 -210 0
-585 -211 0
-585 -215 0
-585 -216 0
-585 -313 0
-585 -314 0
-585 -315 0
-585 -316 0
-585 -317 0
-585 -318 0
-585 -319 0
-585 -323 0
-585 -324 0
-586 -133 0
-586 -134 0
-586 -135 0
-586 -136 0
-586 -137 0
-586 -138 0
-586 -139 0
-586 -140 0
-586 -144 0
-586 -205 0
-586 -206 0
-586 -207 0
-586 -208 0
-586 -209 0
-586 -210 0
-586 -211 0
-586 -212 0
-586 -216 0
-586 -313 0
-586 -314 0
-586 -315 0
-586 -316 0
-586 -317 0
-586 -318 0
-586 -319 0
-586 -320 0
-586 -324 0
-587 -133 0
-587 -134 0
-587 -135 0
-587 -136 0
-587 -137 0
-587 -138 0
-587 -139 0
-587 -140 0
-587 -141 0
-587 -205 0
-587 -206 0
-587 -207 0
-587 -208 0
-587 -209 0
-587 -210 0
-587 -211 0
-587 -212 0
-587 -213 0
-587 -313 0
-587 -314 0
-587 -315 0
-587 -316 0
-587 -317 0
-587 -318 0
-587 -319 0
-587 -320 0
-587 -321 0
1 13 25 37 49 61 73 85 97 109 121 133 145 157 169 181 193 205 217 229 241 253 265 277 289 301 313 325 337 349 361 373 385 397 0
2 14 26 38 50 62 74 86 98 110 122 134 146 158 170 182 194 206 218 230 242 254 266 278 290 302 314 326 338 350 362 374 386 398 0
3 15 27 39 51 63 75 87 99 111 123 135 147 159 171 183 195 207 219 231 243 255 267 279 291 303 315 327 339 351 363 375 387 399 0
4 16 28 40 52 64 76 88 100 112 124 136 148 160 172 184 196 208 220 232 244 256 268 280 292 304 316 328 340 352 364 376 388 400 0
5 17 29 41 53 65 77 89 101 113 125 137 149 161 173 185 197 209 221 233 245 257 269 281 293 305 317 329 341 353 365 377 389 401 0
6 18 30 42 54 66 78 90 102 114 126 138 150 162 174 186 198 210 222 234 246 258 270 282 294 306 318 330 342 354 366 378 390 402 0
7 19 31 43 55 67 79 91 103 115 127 139 151 163 175 187 199 211 223 235 247 259 271 283 295 307 319 331 343 355 367 379 391 403 0
8 20 32 44 56 68 80 92 104 116 128 140 152 164 176 188 200 212 224 236 248 260 272 284 296 308 320 332 344 356 368 380 392 404 0
9 21 33 45 57 69 81 93 105 117 129 141 153 165 177 189 201 213 225 237 249 261 273 285 297 309 321 333 345 357 369 381 393 405 0
10 22 34 46 58 70 82 94 106 118 130 142 154 166 178 190 202 214 226 238 250 262 274 286 298 310 322 334 346 358 370 382 394 406 0
11 23 35 47 59 71 83 95 107 119 131 143 155 167 179 191 203 215 227 239 251 263 275 287 299 311 323 335 347 359 371 383 395 407 0
12 24 36 48 60 72 84 96 108 120 132 144 156 168 180 192 204 216 228 240 252 264 276 288 300 312 324 336 348 360 372 384 396 408 0
