p cnf 116 947
1 2 3 4 5 6 0
-1 -2 0
-1 -3 0
-1 -4 0
-1 -5 0
-1 -6 0
-2 -3 0
-2 -4 0
-2 -5 0
-2 -6 0
-3 -4 0
-3 -5 0
-3 -6 0
-4 -5 0
-4 -6 0
-5 -6 0
7 8 9 10 11 12 0
-7 -8 0
-7 -9 0
-7 -10 0
-7 -11 0
-7 -12 0
-8 -9 0
-8 -10 0
-8 -11 0
-8 -12 0
-9 -10 0
-9 -11 0
-9 -12 0
-10 -11 0
-10 -12 0
-11 -12 0
13 14 15 16 17 18 0
-13 -14 0
-13 -15 0
-13 -16 0
-13 -17 0
-13 -18 0
-14 -15 0
-14 -16 0
-14 -17 0
-14 -18 0
-15 -16 0
-15 -17 0
-15 -18 0
-16 -17 0
-16 -18 0
-17 -18 0
19 20 21 22 23 24 0
-19 -20 0
-19 -21 0
-19 -22 0
-19 -23 0
-19 -24 0
-20 -21 0
-20 -22 0
-20 -23 0
-20 -24 0
-21 -22 0
-21 -23 0
-21 -24 0
-22 -23 0
-22 -24 0
-23 -24 0
25 26 27 28 29 30 0
-25 -26 0
-25 -27 0
-25 -28 0
-25 -29 0
-25 -30 0
-26 -27 0
-26 -28 0
-26 -29 0
-26 -30 0
-27 -28 0
-27 -29 0
-27 -30 0
-28 -29 0
-28 -30 0
-29 -30 0
31 32 33 34 35 36 0
-31 -32 0
-31 -33 0
-31 -34 0
-31 -35 0
-31 -36 0
-32 -33 0
-32 -34 0
-32 -35 0
-32 -36 0
-33 -34 0
-33 -35 0
-33 -36 0
-34 -35 0
-34 -36 0
-35 -36 0
37 38 39 40 41 42 0
-37 -38 0
-37 -39 0
-37 -40 0
-37 -41 0
-37 -42 0
-38 -39 0
-38 -40 0
-38 -41 0
-38 -42 0
-39 -40 0
-39 -41 0
-39 -42 0
-40 -41 0
-40 -42 0
-41 -42 0
43 44 45 46 47 48 0
-43 -44 0
-43 -45 0
-43 -46 0
-43 -47 0
-43 -48 0
-44 -45 0
-44 -46 0
-44 -47 0
-44 -48 0
-45 -46 0
-45 -47 0
-45 -48 0
-46 -47 0
-46 -48 0
-47 -48 0
49 50 51 52 53 54 0
-49 -50 0
-49 -51 0
-49 -52 0
-49 -53 0
-49 -54 0
-50 -51 0
-50 -52 0
-50 -53 0
-50 -54 0
-51 -52 0
-51 -53 0
-51 -54 0
-52 -53 0
-52 -54 0
-53 -54 0
55 56 57 58 59 60 0
-55 -56 0
-55 -57 0
-55 -58 0
-55 -59 0
-55 -60 0
-56 -57 0
-56 -58 0
-56 -59 0
-56 -60 0
-57 -58 0
-57 -59 0
-57 -60 0
-58 -59 0
-58 -60 0
-59 -60 0
61 62 63 64 65 66 0
-61 -62 0
-61 -63 0
-61 -64 0
-61 -65 0
-61 -66 0
-62 -63 0
-62 -64 0
-62 -65 0
-62 -66 0
-63 -64 0
-63 -65 0
-63 -66 0
-64 -65 0
-64 -66 0
-65 -66 0
67 68 69 70 71 72 0
-67 -68 0
-67 -69 0
-67 -70 0
-67 -71 0
-67 -72 0
-68 -69 0
-68 -70 0
-68 -71 0
-68 -72 0
-69 -70 0
-69 -71 0
-69 -72 0
-70 -71 0
-70 -72 0
-71 -72 0
73 74 75 76 77 78 0
-73 -74 0
-73 -75 0
-73 -76 0
-73 -77 0
-73 -78 0
-74 -75 0
-74 -76 0
-74 -77 0
-74 -78 0
-75 -76 0
-75 -77 0
-75 -78 0
-76 -77 0
-76 -78 0
-77 -78 0
79 80 81 82 83 84 0
-79 -80 0
-79 -81 0
-79 -82 0
-79 -83 0
-79 -84 0
-80 -81 0
-80 -82 0
-80 -83 0
-80 -84 0
-81 -82 0
-81 -83 0
-81 -84 0
-82 -83 0
-82 -84 0
-83 -84 0
85 86 87 88 89 90 0
-85 -86 0
-85 -87 0
-85 -88 0
-85 -89 0
-85 -90 0
-86 -87 0
-86 -88 0
-86 -89 0
-86 -90 0
-87 -88 0
-87 -89 0
-87 -90 0
-88 -89 0
-88 -90 0
-89 -90 0
-1 -7 0
-1 -13 0
-1 -19 0
-1 -25 0
-7 -13 0
-7 -19 0
-7 -25 0
-13 -19 0
-13 -25 0
-19 -25 0
-2 -8 0
-2 -14 0
-2 -20 0
-2 -26 0
-8 -14 0
-8 -20 0
-8 -26 0
-14 -20 0
-14 -26 0
-20 -26 0
-3 -9 0
-3 -15 0
-3 -21 0
-3 -27 0
-9 -15 0
-9 -21 0
-9 -27 0
-15 -21 0
-15 -27 0
-21 -27 0
-4 -10 0
-4 -16 0
-4 -22 0
-4 -28 0
-10 -16 0
-10 -22 0
-10 -28 0
-16 -22 0
-16 -28 0
-22 -28 0
-5 -11 0
-5 -17 0
-5 -23 0
-5 -29 0
-11 -17 0
-11 -23 0
-11 -29 0
-17 -23 0
-17 -29 0
-23 -29 0
-6 -12 0
-6 -18 0
-6 -24 0
-6 -30 0
-12 -18 0
-12 -24 0
-12 -30 0
-18 -24 0
-18 -30 0
-24 -30 0
91 92 0
-91 -92 0
-1 91 0
-2 91 92 0
-3 91 92 0
-4 91 92 0
-5 91 92 0
-6 92 0
-7 91 0
-8 91 92 0
-9 91 92 0
-10 91 92 0
-11 91 92 0
-12 92 0
-13 91 0
-14 91 92 0
-15 91 92 0
-16 91 92 0
-17 91 92 0
-18 92 0
-19 91 0
-20 91 92 0
-21 91 92 0
-22 91 92 0
-23 91 92 0
-24 92 0
-25 91 0
-26 91 92 0
-27 91 92 0
-28 91 92 0
-29 91 92 0
-30 92 0
-91 -6 0
-91 -12 0
-91 -18 0
-91 -24 0
-91 -30 0
-92 -1 0
-92 -7 0
-92 -13 0
-92 -19 0
-92 -25 0
-31 -37 0
-31 -43 0
-31 -49 0
-31 -55 0
-37 -43 0
-37 -49 0
-37 -55 0
-43 -49 0
-43 -55 0
-49 -55 0
-32 -38 0
-32 -44 0
-32 -50 0
-32 -56 0
-38 -44 0
-38 -50 0
-38 -56 0
-44 -50 0
-44 -56 0
-50 -56 0
-33 -39 0
-33 -45 0
-33 -51 0
-33 -57 0
-39 -45 0
-39 -51 0
-39 -57 0
-45 -51 0
-45 -57 0
-51 -57 0
-34 -40 0
-34 -46 0
-34 -52 0
-34 -58 0
-40 -46 0
-40 -52 0
-40 -58 0
-46 -52 0
-46 -58 0
-52 -58 0
-35 -41 0
-35 -47 0
-35 -53 0
-35 -59 0
-41 -47 0
-41 -53 0
-41 -59 0
-47 -53 0
-47 -59 0
-53 -59 0
-36 -42 0
-36 -48 0
-36 -54 0
-36 -60 0
-42 -48 0
-42 -54 0
-42 -60 0
-48 -54 0
-48 -60 0
-54 -60 0
93 94 0
-93 -94 0
-31 93 0
-32 93 94 0
-33 93 94 0
-34 93 94 0
-35 93 94 0
-36 94 0
-37 93 0
-38 93 94 0
-39 93 94 0
-40 93 94 0
-41 93 94 0
-42 94 0
-43 93 0
-44 93 94 0
-45 93 94 0
-46 93 94 0
-47 93 94 0
-48 94 0
-49 93 0
-50 93 94 0
-51 93 94 0
-52 93 94 0
-53 93 94 0
-54 94 0
-55 93 0
-56 93 94 0
-57 93 94 0
-58 93 94 0
-59 93 94 0
-60 94 0
-93 -36 0
-93 -42 0
-93 -48 0
-93 -54 0
-93 -60 0
-94 -31 0
-94 -37 0
-94 -43 0
-94 -49 0
-94 -55 0
-61 -67 0
-61 -73 0
-61 -79 0
-61 -85 0
-67 -73 0
-67 -79 0
-67 -85 0
-73 -79 0
-73 -85 0
-79 -85 0
-62 -68 0
-62 -74 0
-62 -80 0
-62 -86 0
-68 -74 0
-68 -80 0
-68 -86 0
-74 -80 0
-74 -86 0
-80 -86 0
-63 -69 0
-63 -75 0
-63 -81 0
-63 -87 0
-69 -75 0
-69 -81 0
-69 -87 0
-75 -81 0
-75 -87 0
-81 -87 0
-64 -70 0
-64 -76 0
-64 -82 0
-64 -88 0
-70 -76 0
-70 -82 0
-70 -88 0
-76 -82 0
-76 -88 0
-82 -88 0
-65 -71 0
-65 -77 0
-65 -83 0
-65 -89 0
-71 -77 0
-71 -83 0
-71 -89 0
-77 -83 0
-77 -89 0
-83 -89 0
-66 -72 0
-66 -78 0
-66 -84 0
-66 -90 0
-72 -78 0
-72 -84 0
-72 -90 0
-78 -84 0
-78 -90 0
-84 -90 0
95 96 0
-95 -96 0
-61 95 0
-62 95 96 0
-63 95 96 0
-64 95 96 0
-65 95 96 0
-66 96 0
-67 95 0
-68 95 96 0
-69 95 96 0
-70 95 96 0
-71 95 96 0
-72 96 0
-73 95 0
-74 95 96 0
-75 95 96 0
-76 95 96 0
-77 95 96 0
-78 96 0
-79 95 0
-80 95 96 0
-81 95 96 0
-82 95 96 0
-83 95 96 0
-84 96 0
-85 95 0
-86 95 96 0
-87 95 96 0
-88 95 96 0
-89 95 96 0
-90 96 0
-95 -66 0
-95 -72 0
-95 -78 0
-95 -84 0
-95 -90 0
-96 -61 0
-96 -67 0
-96 -73 0
-96 -79 0
-96 -85 0
-1 -31 0
-1 -61 0
-31 -61 0
-2 -32 0
-2 -62 0
-32 -62 0
-3 -33 0
-3 -63 0
-33 -63 0
-4 -34 0
-4 -64 0
-34 -64 0
-5 -35 0
-5 -65 0
-35 -65 0
-6 -36 0
-6 -66 0
-36 -66 0
97 98 99 100 0
-97 -98 0
-97 -99 0
-97 -100 0
-98 -99 0
-98 -100 0
-99 -100 0
-1 97 0
-2 97 98 0
-3 97 98 99 0
-4 98 99 100 0
-5 99 100 0
-6 100 0
-31 97 0
-32 97 98 0
-33 97 98 99 0
-34 98 99 100 0
-35 99 100 0
-36 100 0
-61 97 0
-62 97 98 0
-63 97 98 99 0
-64 98 99 100 0
-65 99 100 0
-66 100 0
-97 -4 0
-97 -5 0
-97 -6 0
-97 -34 0
-97 -35 0
-97 -36 0
-97 -64 0
-97 -65 0
-97 -66 0
-98 -1 0
-98 -5 0
-98 -6 0
-98 -31 0
-98 -35 0
-98 -36 0
-98 -61 0
-98 -65 0
-98 -66 0
-99 -1 0
-99 -2 0
-99 -6 0
-99 -31 0
-99 -32 0
-99 -36 0
-99 -61 0
-99 -62 0
-99 -66 0
-100 -1 0
-100 -2 0
-100 -3 0
-100 -31 0
-100 -32 0
-100 -33 0
-100 -61 0
-100 -62 0
-100 -63 0
-7 -37 0
-7 -67 0
-37 -67 0
-8 -38 0
-8 -68 0
-38 -68 0
-9 -39 0
-9 -69 0
-39 -69 0
-10 -40 0
-10 -70 0
-40 -70 0
-11 -41 0
-11 -71 0
-41 -71 0
-12 -42 0
-12 -72 0
-42 -72 0
101 102 103 104 0
-101 -102 0
-101 -103 0
-101 -104 0
-102 -103 0
-102 -104 0
-103 -104 0
-7 101 0
-8 101 102 0
-9 101 102 103 0
-10 102 103 104 0
-11 103 104 0
-12 104 0
-37 101 0
-38 101 102 0
-39 101 102 103 0
-40 102 103 104 0
-41 103 104 0
-42 104 0
-67 101 0
-68 101 102 0
-69 101 102 103 0
-70 102 103 104 0
-71 103 104 0
-72 104 0
-101 -10 0
-101 -11 0
-101 -12 0
-101 -40 0
-101 -41 0
-101 -42 0
-101 -70 0
-101 -71 0
-101 -72 0
-102 -7 0
-102 -11 0
-102 -12 0
-102 -37 0
-102 -41 0
-102 -42 0
-102 -67 0
-102 -71 0
-102 -72 0
-103 -7 0
-103 -8 0
-103 -12 0
-103 -37 0
-103 -38 0
-103 -42 0
-103 -67 0
-103 -68 0
-103 -72 0
-104 -7 0
-104 -8 0
-104 -9 0
-104 -37 0
-104 -38 0
-104 -39 0
-104 -67 0
-104 -68 0
-104 -69 0
-13 -43 0
-13 -73 0
-43 -73 0
-14 -44 0
-14 -74 0
-44 -74 0
-15 -45 0
-15 -75 0
-45 -75 0
-16 -46 0
-16 -76 0
-46 -76 0
-17 -47 0
-17 -77 0
-47 -77 0
-18 -48 0
-18 -78 0
-48 -78 0
105 106 107 108 0
-105 -106 0
-105 -107 0
-105 -108 0
-106 -107 0
-106 -108 0
-107 -108 0
-13 105 0
-14 105 106 0
-15 105 106 107 0
-16 106 107 108 0
-17 107 108 0
-18 108 0
-43 105 0
-44 105 106 0
-45 105 106 107 0
-46 106 107 108 0
-47 107 108 0
-48 108 0
-73 105 0
-74 105 106 0
-75 105 106 107 0
-76 106 107 108 0
-77 107 108 0
-78 108 0
-105 -16 0
-105 -17 0
-105 -18 0
-105 -46 0
-105 -47 0
-105 -48 0
-105 -76 0
-105 -77 0
-105 -78 0
-106 -13 0
-106 -17 0
-106 -18 0
-106 -43 0
-106 -47 0
-106 -48 0
-106 -73 0
-106 -77 0
-106 -78 0
-107 -13 0
-107 -14 0
-107 -18 0
-107 -43 0
-107 -44 0
-107 -48 0
-107 -73 0
-107 -74 0
-107 -78 0
-108 -13 0
-108 -14 0
-108 -15 0
-108 -43 0
-108 -44 0
-108 -45 0
-108 -73 0
-108 -74 0
-108 -75 0
-19 -49 0
-19 -79 0
-49 -79 0
-20 -50 0
-20 -80 0
-50 -80 0
-21 -51 0
-21 -81 0
-51 -81 0
-22 -52 0
-22 -82 0
-52 -82 0
-23 -53 0
-23 -83 0
-53 -83 0
-24 -54 0
-24 -84 0
-54 -84 0
109 110 111 112 0
-109 -110 0
-109 -111 0
-109 -112 0
-110 -111 0
-110 -112 0
-111 -112 0
-19 109 0
-20 109 110 0
-21 109 110 111 0
-22 110 111 112 0
-23 111 112 0
-24 112 0
-49 109 0
-50 109 110 0
-51 109 110 111 0
-52 110 111 112 0
-53 111 112 0
-54 112 0
-79 109 0
-80 109 110 0
-81 109 110 111 0
-82 110 111 112 0
-83 111 112 0
-84 112 0
-109 -22 0
-109 -23 0
-109 -24 0
-109 -52 0
-109 -53 0
-109 -54 0
-109 -82 0
-109 -83 0
-109 -84 0
-110 -19 0
-110 -23 0
-110 -24 0
-110 -49 0
-110 -53 0
-110 -54 0
-110 -79 0
-110 -83 0
-110 -84 0
-111 -19 0
-111 -20 0
-111 -24 0
-111 -49 0
-111 -50 0
-111 -54 0
-111 -79 0
-111 -80 0
-111 -84 0
-112 -19 0
-112 -20 0
-112 -21 0
-112 -49 0
-112 -50 0
-112 -51 0
-112 -79 0
-112 -80 0
-112 -81 0
-25 -55 0
-25 -85 0
-55 -85 0
-26 -56 0
-26 -86 0
-56 -86 0
-27 -57 0
-27 -87 0
-57 -87 0
-28 -58 0
-28 -88 0
-58 -88 0
-29 -59 0
-29 -89 0
-59 -89 0
-30 -60 0
-30 -90 0
-60 -90 0
113 114 115 116 0
-113 -114 0
-113 -115 0
-113 -116 0
-114 -115 0
-114 -116 0
-115 -116 0
-25 113 0
-26 113 114 0
-27 113 114 115 0
-28 114 115 116 0
-29 115 116 0
-30 116 0
-55 113 0
-56 113 114 0
-57 113 114 115 0
-58 114 115 116 0
-59 115 116 0
-60 116 0
-85 113 0
-86 113 114 0
-87 113 114 115 0
-88 114 115 116 0
-89 115 116 0
-90 116 0
-113 -28 0
-113 -29 0
-113 -30 0
-113 -58 0
-113 -59 0
-113 -60 0
-113 -88 0
-113 -89 0
-113 -90 0
-114 -25 0
-114 -29 0
-114 -30 0
-114 -55 0
-114 -59 0
-114 -60 0
-114 -85 0
-114 -89 0
-114 -90 0
-115 -25 0
-115 -26 0
-115 -30 0
-115 -55 0
-115 -56 0
-115 -60 0
-115 -85 0
-115 -86 0
-115 -90 0
-116 -25 0
-116 -26 0
-116 -27 0
-116 -55 0
-116 -56 0
-116 -57 0
-116 -85 0
-116 -86 0
-116 -87 0
1 7 13 19 25 31 37 43 49 55 61 67 73 79 85 0
2 8 14 20 26 32 38 44 50 56 62 68 74 80 86 0
3 9 15 21 27 33 39 45 51 57 63 69 75 81 87 0
4 10 16 22 28 34 40 46 52 58 64 70 76 82 88 0
5 11 17 23 29 35 41 47 53 59 65 71 77 83 89 0
6 12 18 24 30 36 42 48 54 60 66 72 78 84 90 0
