p cnf 139 1319
1 2 3 4 5 6 7 0
-1 -2 0
-1 -3 0
-1 -4 0
-1 -5 0
-1 -6 0
-1 -7 0
-2 -3 0
-2 -4 0
-2 -5 0
-2 -6 0
-2 -7 0
-3 -4 0
-3 -5 0
-3 -6 0
-3 -7 0
-4 -5 0
-4 -6 0
-4 -7 0
-5 -6 0
-5 -7 0
-6 -7 0
8 9 10 11 12 13 14 0
-8 -9 0
-8 -10 0
-8 -11 0
-8 -12 0
-8 -13 0
-8 -14 0
-9 -10 0
-9 -11 0
-9 -12 0
-9 -13 0
-9 -14 0
-10 -11 0
-10 -12 0
-10 -13 0
-10 -14 0
-11 -12 0
-11 -13 0
-11 -14 0
-12 -13 0
-12 -14 0
-13 -14 0
15 16 17 18 19 20 21 0
-15 -16 0
-15 -17 0
-15 -18 0
-15 -19 0
-15 -20 0
-15 -21 0
-16 -17 0
-16 -18 0
-16 -19 0
-16 -20 0
-16 -21 0
-17 -18 0
-17 -19 0
-17 -20 0
-17 -21 0
-18 -19 0
-18 -20 0
-18 -21 0
-19 -20 0
-19 -21 0
-20 -21 0
22 23 24 25 26 27 28 0
-22 -23 0
-22 -24 0
-22 -25 0
-22 -26 0
-22 -27 0
-22 -28 0
-23 -24 0
-23 -25 0
-23 -26 0
-23 -27 0
-23 -28 0
-24 -25 0
-24 -26 0
-24 -27 0
-24 -28 0
-25 -26 0
-25 -27 0
-25 -28 0
-26 -27 0
-26 -28 0
-27 -28 0
29 30 31 32 33 34 35 0
-29 -30 0
-29 -31 0
-29 -32 0
-29 -33 0
-29 -34 0
-29 -35 0
-30 -31 0
-30 -32 0
-30 -33 0
-30 -34 0
-30 -35 0
-31 -32 0
-31 -33 0
-31 -34 0
-31 -35 0
-32 -33 0
-32 -34 0
-32 -35 0
-33 -34 0
-33 -35 0
-34 -35 0
36 37 38 39 40 41 42 0
-36 -37 0
-36 -38 0
-36 -39 0
-36 -40 0
-36 -41 0
-36 -42 0
-37 -38 0
-37 -39 0
-37 -40 0
-37 -41 0
-37 -42 0
-38 -39 0
-38 -40 0
-38 -41 0
-38 -42 0
-39 -40 0
-39 -41 0
-39 -42 0
-40 -41 0
-40 -42 0
-41 -42 0
43 44 45 46 47 48 49 0
-43 -44 0
-43 -45 0
-43 -46 0
-43 -47 0
-43 -48 0
-43 -49 0
-44 -45 0
-44 -46 0
-44 -47 0
-44 -48 0
-44 -49 0
-45 -46 0
-45 -47 0
-45 -48 0
-45 -49 0
-46 -47 0
-46 -48 0
-46 -49 0
-47 -48 0
-47 -49 0
-48 -49 0
50 51 52 53 54 55 56 0
-50 -51 0
-50 -52 0
-50 -53 0
-50 -54 0
-50 -55 0
-50 -56 0
-51 -52 0
-51 -53 0
-51 -54 0
-51 -55 0
-51 -56 0
-52 -53 0
-52 -54 0
-52 -55 0
-52 -56 0
-53 -54 0
-53 -55 0
-53 -56 0
-54 -55 0
-54 -56 0
-55 -56 0
57 58 59 60 61 62 63 0
-57 -58 0
-57 -59 0
-57 -60 0
-57 -61 0
-57 -62 0
-57 -63 0
-58 -59 0
-58 -60 0
-58 -61 0
-58 -62 0
-58 -63 0
-59 -60 0
-59 -61 0
-59 -62 0
-59 -63 0
-60 -61 0
-60 -62 0
-60 -63 0
-61 -62 0
-61 -63 0
-62 -63 0
64 65 66 67 68 69 70 0
-64 -65 0
-64 -66 0
-64 -67 0
-64 -68 0
-64 -69 0
-64 -70 0
-65 -66 0
-65 -67 0
-65 -68 0
-65 -69 0
-65 -70 0
-66 -67 0
-66 -68 0
-66 -69 0
-66 -70 0
-67 -68 0
-67 -69 0
-67 -70 0
-68 -69 0
-68 -70 0
-69 -70 0
71 72 73 74 75 76 77 0
-71 -72 0
-71 -73 0
-71 -74 0
-71 -75 0
-71 -76 0
-71 -77 0
-72 -73 0
-72 -74 0
-72 -75 0
-72 -76 0
-72 -77 0
-73 -74 0
-73 -75 0
-73 -76 0
-73 -77 0
-74 -75 0
-74 -76 0
-74 -77 0
-75 -76 0
-75 -77 0
-76 -77 0
78 79 80 81 82 83 84 0
-78 -79 0
-78 -80 0
-78 -81 0
-78 -82 0
-78 -83 0
-78 -84 0
-79 -80 0
-79 -81 0
-79 -82 0
-79 -83 0
-79 -84 0
-80 -81 0
-80 -82 0
-80 -83 0
-80 -84 0
-81 -82 0
-81 -83 0
-81 -84 0
-82 -83 0
-82 -84 0
-83 -84 0
85 86 87 88 89 90 91 0
-85 -86 0
-85 -87 0
-85 -88 0
-85 -89 0
-85 -90 0
-85 -91 0
-86 -87 0
-86 -88 0
-86 -89 0
-86 -90 0
-86 -91 0
-87 -88 0
-87 -89 0
-87 -90 0
-87 -91 0
-88 -89 0
-88 -90 0
-88 -91 0
-89 -90 0
-89 -91 0
-90 -91 0
92 93 94 95 96 97 98 0
-92 -93 0
-92 -94 0
-92 -95 0
-92 -96 0
-92 -97 0
-92 -98 0
-93 -94 0
-93 -95 0
-93 -96 0
-93 -97 0
-93 -98 0
-94 -95 0
-94 -96 0
-94 -97 0
-94 -98 0
-95 -96 0
-95 -97 0
-95 -98 0
-96 -97 0
-96 -98 0
-97 -98 0
99 100 101 102 103 104 105 0
-99 -100 0
-99 -101 0
-99 -102 0
-99 -103 0
-99 -104 0
-99 -105 0
-100 -101 0
-100 -102 0
-100 -103 0
-100 -104 0
-100 -105 0
-101 -102 0
-101 -103 0
-101 -104 0
-101 -105 0
-102 -103 0
-102 -104 0
-102 -105 0
-103 -104 0
-103 -105 0
-104 -105 0
-1 -8 0
-1 -15 0
-1 -22 0
-1 -29 0
-8 -15 0
-8 -22 0
-8 -29 0
-15 -22 0
-15 -29 0
-22 -29 0
-2 -9 0
-2 -16 0
-2 -23 0
-2 -30 0
-9 -16 0
-9 -23 0
-9 -30 0
-16 -23 0
-16 -30 0
-23 -30 0
-3 -10 0
-3 -17 0
-3 -24 0
-3 -31 0
-10 -17 0
-10 -24 0
-10 -31 0
-17 -24 0
-17 -31 0
-24 -31 0
-4 -11 0
-4 -18 0
-4 -25 0
-4 -32 0
-11 -18 0
-11 -25 0
-11 -32 0
-18 -25 0
-18 -32 0
-25 -32 0
-5 -12 0
-5 -19 0
-5 -26 0
-5 -33 0
-12 -19 0
-12 -26 0
-12 -33 0
-19 -26 0
-19 -33 0
-26 -33 0
-6 -13 0
-6 -20 0
-6 -27 0
-6 -34 0
-13 -20 0
-13 -27 0
-13 -34 0
-20 -27 0
-20 -34 0
-27 -34 0
-7 -14 0
-7 -21 0
-7 -28 0
-7 -35 0
-14 -21 0
-14 -28 0
-14 -35 0
-21 -28 0
-21 -35 0
-28 -35 0
106 107 108 0
-106 -107 0
-106 -108 0
-107 -108 0
-1 106 0
-2 106 107 0
-3 106 107 108 0
-4 106 107 108 0
-5 106 107 108 0
-6 107 108 0
-7 108 0
-8 106 0
-9 106 107 0
-10 106 107 108 0
-11 106 107 108 0
-12 106 107 108 0
-13 107 108 0
-14 108 0
-15 106 0
-16 106 107 0
-17 106 107 108 0
-18 106 107 108 0
-19 106 107 108 0
-20 107 108 0
-21 108 0
-22 106 0
-23 106 107 0
-24 106 107 108 0
-25 106 107 108 0
-26 106 107 108 0
-27 107 108 0
-28 108 0
-29 106 0
-30 106 107 0
-31 106 107 108 0
-32 106 107 108 0
-33 106 107 108 0
-34 107 108 0
-35 108 0
-106 -6 0
-106 -7 0
-106 -13 0
-106 -14 0
-106 -20 0
-106 -21 0
-106 -27 0
-106 -28 0
-106 -34 0
-106 -35 0
-107 -1 0
-107 -7 0
-107 -8 0
-107 -14 0
-107 -15 0
-107 -21 0
-107 -22 0
-107 -28 0
-107 -29 0
-107 -35 0
-108 -1 0
-108 -2 0
-108 -8 0
-108 -9 0
-108 -15 0
-108 -16 0
-108 -22 0
-108 -23 0
-108 -29 0
-108 -30 0
-36 -43 0
-36 -50 0
-36 -57 0
-36 -64 0
-43 -50 0
-43 -57 0
-43 -64 0
-50 -57 0
-50 -64 0
-57 -64 0
-37 -44 0
-37 -51 0
-37 -58 0
-37 -65 0
-44 -51 0
-44 -58 0
-44 -65 0
-51 -58 0
-51 -65 0
-58 -65 0
-38 -45 0
-38 -52 0
-38 -59 0
-38 -66 0
-45 -52 0
-45 -59 0
-45 -66 0
-52 -59 0
-52 -66 0
-59 -66 0
-39 -46 0
-39 -53 0
-39 -60 0
-39 -67 0
-46 -53 0
-46 -60 0
-46 -67 0
-53 -60 0
-53 -67 0
-60 -67 0
-40 -47 0
-40 -54 0
-40 -61 0
-40 -68 0
-47 -54 0
-47 -61 0
-47 -68 0
-54 -61 0
-54 -68 0
-61 -68 0
-41 -48 0
-41 -55 0
-41 -62 0
-41 -69 0
-48 -55 0
-48 -62 0
-48 -69 0
-55 -62 0
-55 -69 0
-62 -69 0
-42 -49 0
-42 -56 0
-42 -63 0
-42 -70 0
-49 -56 0
-49 -63 0
-49 -70 0
-56 -63 0
-56 -70 0
-63 -70 0
109 110 111 0
-109 -110 0
-109 -111 0
-110 -111 0
-36 109 0
-37 109 110 0
-38 109 110 111 0
-39 109 110 111 0
-40 109 110 111 0
-41 110 111 0
-42 111 0
-43 109 0
-44 109 110 0
-45 109 110 111 0
-46 109 110 111 0
-47 109 110 111 0
-48 110 111 0
-49 111 0
-50 109 0
-51 109 110 0
-52 109 110 111 0
-53 109 110 111 0
-54 109 110 111 0
-55 110 111 0
-56 111 0
-57 109 0
-58 109 110 0
-59 109 110 111 0
-60 109 110 111 0
-61 109 110 111 0
-62 110 111 0
-63 111 0
-64 109 0
-65 109 110 0
-66 109 110 111 0
-67 109 110 111 0
-68 109 110 111 0
-69 110 111 0
-70 111 0
-109 -41 0
-109 -42 0
-109 -48 0
-109 -49 0
-109 -55 0
-109 -56 0
-109 -62 0
-109 -63 0
-109 -69 0
-109 -70 0
-110 -36 0
-110 -42 0
-110 -43 0
-110 -49 0
-110 -50 0
-110 -56 0
-110 -57 0
-110 -63 0
-110 -64 0
-110 -70 0
-111 -36 0
-111 -37 0
-111 -43 0
-111 -44 0
-111 -50 0
-111 -51 0
-111 -57 0
-111 -58 0
-111 -64 0
-111 -65 0
-71 -78 0
-71 -85 0
-71 -92 0
-71 -99 0
-78 -85 0
-78 -92 0
-78 -99 0
-85 -92 0
-85 -99 0
-92 -99 0
-72 -79 0
-72 -86 0
-72 -93 0
-72 -100 0
-79 -86 0
-79 -93 0
-79 -100 0
-86 -93 0
-86 -100 0
-93 -100 0
-73 -80 0
-73 -87 0
-73 -94 0
-73 -101 0
-80 -87 0
-80 -94 0
-80 -101 0
-87 -94 0
-87 -101 0
-94 -101 0
-74 -81 0
-74 -88 0
-74 -95 0
-74 -102 0
-81 -88 0
-81 -95 0
-81 -102 0
-88 -95 0
-88 -102 0
-95 -102 0
-75 -82 0
-75 -89 0
-75 -96 0
-75 -103 0
-82 -89 0
-82 -96 0
-82 -103 0
-89 -96 0
-89 -103 0
-96 -103 0
-76 -83 0
-76 -90 0
-76 -97 0
-76 -104 0
-83 -90 0
-83 -97 0
-83 -104 0
-90 -97 0
-90 -104 0
-97 -104 0
-77 -84 0
-77 -91 0
-77 -98 0
-77 -105 0
-84 -91 0
-84 -98 0
-84 -105 0
-91 -98 0
-91 -105 0
-98 -105 0
112 113 114 0
-112 -113 0
-112 -114 0
-113 -114 0
-71 112 0
-72 112 113 0
-73 112 113 114 0
-74 112 113 114 0
-75 112 113 114 0
-76 113 114 0
-77 114 0
-78 112 0
-79 112 113 0
-80 112 113 114 0
-81 112 113 114 0
-82 112 113 114 0
-83 113 114 0
-84 114 0
-85 112 0
-86 112 113 0
-87 112 113 114 0
-88 112 113 114 0
-89 112 113 114 0
-90 113 114 0
-91 114 0
-92 112 0
-93 112 113 0
-94 112 113 114 0
-95 112 113 114 0
-96 112 113 114 0
-97 113 114 0
-98 114 0
-99 112 0
-100 112 113 0
-101 112 113 114 0
-102 112 113 114 0
-103 112 113 114 0
-104 113 114 0
-105 114 0
-112 -76 0
-112 -77 0
-112 -83 0
-112 -84 0
-112 -90 0
-112 -91 0
-112 -97 0
-112 -98 0
-112 -104 0
-112 -105 0
-113 -71 0
-113 -77 0
-113 -78 0
-113 -84 0
-113 -85 0
-113 -91 0
-113 -92 0
-113 -98 0
-113 -99 0
-113 -105 0
-114 -71 0
-114 -72 0
-114 -78 0
-114 -79 0
-114 -85 0
-114 -86 0
-114 -92 0
-114 -93 0
-114 -99 0
-114 -100 0
-1 -36 0
-1 -71 0
-36 -71 0
-2 -37 0
-2 -72 0
-37 -72 0
-3 -38 0
-3 -73 0
-38 -73 0
-4 -39 0
-4 -74 0
-39 -74 0
-5 -40 0
-5 -75 0
-40 -75 0
-6 -41 0
-6 -76 0
-41 -76 0
-7 -42 0
-7 -77 0
-42 -77 0
115 116 117 118 119 0
-115 -116 0
-115 -117 0
-115 -118 0
-115 -119 0
-116 -117 0
-116 -118 0
-116 -119 0
-117 -118 0
-117 -119 0
-118 -119 0
-1 115 0
-2 115 116 0
-3 115 116 117 0
-4 116 117 118 0
-5 117 118 119 0
-6 118 119 0
-7 119 0
-36 115 0
-37 115 116 0
-38 115 116 117 0
-39 116 117 118 0
-40 117 118 119 0
-41 118 119 0
-42 119 0
-71 115 0
-72 115 116 0
-73 115 116 117 0
-74 116 117 118 0
-75 117 118 119 0
-76 118 119 0
-77 119 0
-115 -4 0
-115 -5 0
-115 -6 0
-115 -7 0
-115 -39 0
-115 -40 0
-115 -41 0
-115 -42 0
-115 -74 0
-115 -75 0
-115 -76 0
-115 -77 0
-116 -1 0
-116 -5 0
-116 -6 0
-116 -7 0
-116 -36 0
-116 -40 0
-116 -41 0
-116 -42 0
-116 -71 0
-116 -75 0
-116 -76 0
-116 -77 0
-117 -1 0
-117 -2 0
-117 -6 0
-117 -7 0
-117 -36 0
-117 -37 0
-117 -41 0
-117 -42 0
-117 -71 0
-117 -72 0
-117 -76 0
-117 -77 0
-118 -1 0
-118 -2 0
-118 -3 0
-118 -7 0
-118 -36 0
-118 -37 0
-118 -38 0
-118 -42 0
-118 -71 0
-118 -72 0
-118 -73 0
-118 -77 0
-119 -1 0
-119 -2 0
-119 -3 0
-119 -4 0
-119 -36 0
-119 -37 0
-119 -38 0
-119 -39 0
-119 -71 0
-119 -72 0
-119 -73 0
-119 -74 0
-8 -43 0
-8 -78 0
-43 -78 0
-9 -44 0
-9 -79 0
-44 -79 0
-10 -45 0
-10 -80 0
-45 -80 0
-11 -46 0
-11 -81 0
-46 -81 0
-12 -47 0
-12 -82 0
-47 -82 0
-13 -48 0
-13 -83 0
-48 -83 0
-14 -49 0
-14 -84 0
-49 -84 0
120 121 122 123 124 0
-120 -121 0
-120 -122 0
-120 -123 0
-120 -124 0
-121 -122 0
-121 -123 0
-121 -124 0
-122 -123 0
-122 -124 0
-123 -124 0
-8 120 0
-9 120 121 0
-10 120 121 122 0
-11 121 122 123 0
-12 122 123 124 0
-13 123 124 0
-14 124 0
-43 120 0
-44 120 121 0
-45 120 121 122 0
-46 121 122 123 0
-47 122 123 124 0
-48 123 124 0
-49 124 0
-78 120 0
-79 120 121 0
-80 120 121 122 0
-81 121 122 123 0
-82 122 123 124 0
-83 123 124 0
-84 124 0
-120 -11 0
-120 -12 0
-120 -13 0
-120 -14 0
-120 -46 0
-120 -47 0
-120 -48 0
-120 -49 0
-120 -81 0
-120 -82 0
-120 -83 0
-120 -84 0
-121 -8 0
-121 -12 0
-121 -13 0
-121 -14 0
-121 -43 0
-121 -47 0
-121 -48 0
-121 -49 0
-121 -78 0
-121 -82 0
-121 -83 0
-121 -84 0
-122 -8 0
-122 -9 0
-122 -13 0
-122 -14 0
-122 -43 0
-122 -44 0
-122 -48 0
-122 -49 0
-122 -78 0
-122 -79 0
-122 -83 0
-122 -84 0
-123 -8 0
-123 -9 0
-123 -10 0
-123 -14 0
-123 -43 0
-123 -44 0
-123 -45 0
-123 -49 0
-123 -78 0
-123 -79 0
-123 -80 0
-123 -84 0
-124 -8 0
-124 -9 0
-124 -10 0
-124 -11 0
-124 -43 0
-124 -44 0
-124 -45 0
-124 -46 0
-124 -78 0
-124 -79 0
-124 -80 0
-124 -81 0
-15 -50 0
-15 -85 0
-50 -85 0
-16 -51 0
-16 -86 0
-51 -86 0
-17 -52 0
-17 -87 0
-52 -87 0
-18 -53 0
-18 -88 0
-53 -88 0
-19 -54 0
-19 -89 0
-54 -89 0
-20 -55 0
-20 -90 0
-55 -90 0
-21 -56 0
-21 -91 0
-56 -91 0
125 126 127 128 129 0
-125 -126 0
-125 -127 0
-125 -128 0
-125 -129 0
-126 -127 0
-126 -128 0
-126 -129 0
-127 -128 0
-127 -129 0
-128 -129 0
-15 125 0
-16 125 126 0
-17 125 126 127 0
-18 126 127 128 0
-19 127 128 129 0
-20 128 129 0
-21 129 0
-50 125 0
-51 125 126 0
-52 125 126 127 0
-53 126 127 128 0
-54 127 128 129 0
-55 128 129 0
-56 129 0
-85 125 0
-86 125 126 0
-87 125 126 127 0
-88 126 127 128 0
-89 127 128 129 0
-90 128 129 0
-91 129 0
-125 -18 0
-125 -19 0
-125 -20 0
-125 -21 0
-125 -53 0
-125 -54 0
-125 -55 0
-125 -56 0
-125 -88 0
-125 -89 0
-125 -90 0
-125 -91 0
-126 -15 0
-126 -19 0
-126 -20 0
-126 -21 0
-126 -50 0
-126 -54 0
-126 -55 0
-126 -56 0
-126 -85 0
-126 -89 0
-126 -90 0
-126 -91 0
-127 -15 0
-127 -16 0
-127 -20 0
-127 -21 0
-127 -50 0
-127 -51 0
-127 -55 0
-127 -56 0
-127 -85 0
-127 -86 0
-127 -90 0
-127 -91 0
-128 -15 0
-128 -16 0
-128 -17 0
-128 -21 0
-128 -50 0
-128 -51 0
-128 -52 0
-128 -56 0
-128 -85 0
-128 -86 0
-128 -87 0
-128 -91 0
-129 -15 0
-129 -16 0
-129 -17 0
-129 -18 0
-129 -50 0
-129 -51 0
-129 -52 0
-129 -53 0
-129 -85 0
-129 -86 0
-129 -87 0
-129 -88 0
-22 -57 0
-22 -92 0
-57 -92 0
-23 -58 0
-23 -93 0
-58 -93 0
-24 -59 0
-24 -94 0
-59 -94 0
-25 -60 0
-25 -95 0
-60 -95 0
-26 -61 0
-26 -96 0
-61 -96 0
-27 -62 0
-27 -97 0
-62 -97 0
-28 -63 0
-28 -98 0
-63 -98 0
130 131 132 133 134 0
-130 -131 0
-130 -132 0
-130 -133 0
-130 -134 0
-131 -132 0
-131 -133 0
-131 -134 0
-132 -133 0
-132 -134 0
-133 -134 0
-22 130 0
-23 130 131 0
-24 130 131 132 0
-25 131 132 133 0
-26 132 133 134 0
-27 133 134 0
-28 134 0
-57 130 0
-58 130 131 0
-59 130 131 132 0
-60 131 132 133 0
-61 132 133 134 0
-62 133 134 0
-63 134 0
-92 130 0
-93 130 131 0
-94 130 131 132 0
-95 131 132 133 0
-96 132 133 134 0
-97 133 134 0
-98 134 0
-130 -25 0
-130 -26 0
-130 -27 0
-130 -28 0
-130 -60 0
-130 -61 0
-130 -62 0
-130 -63 0
-130 -95 0
-130 -96 0
-130 -97 0
-130 -98 0
-131 -22 0
-131 -26 0
-131 -27 0
-131 -28 0
-131 -57 0
-131 -61 0
-131 -62 0
-131 -63 0
-131 -92 0
-131 -96 0
-131 -97 0
-131 -98 0
-132 -22 0
-132 -23 0
-132 -27 0
-132 -28 0
-132 -57 0
-132 -58 0
-132 -62 0
-132 -63 0
-132 -92 0
-132 -93 0
-132 -97 0
-132 -98 0
-133 -22 0
-133 -23 0
-133 -24 0
-133 -28 0
-133 -57 0
-133 -58 0
-133 -59 0
-133 -63 0
-133 -92 0
-133 -93 0
-133 -94 0
-133 -98 0
-134 -22 0
-134 -23 0
-134 -24 0
-134 -25 0
-134 -57 0
-134 -58 0
-134 -59 0
-134 -60 0
-134 -92 0
-134 -93 0
-134 -94 0
-134 -95 0
-29 -64 0
-29 -99 0
-64 -99 0
-30 -65 0
-30 -100 0
-65 -100 0
-31 -66 0
-31 -101 0
-66 -101 0
-32 -67 0
-32 -102 0
-67 -102 0
-33 -68 0
-33 -103 0
-68 -103 0
-34 -69 0
-34 -104 0
-69 -104 0
-35 -70 0
-35 -105 0
-70 -105 0
135 136 137 138 139 0
-135 -136 0
-135 -137 0
-135 -138 0
-135 -139 0
-136 -137 0
-136 -138 0
-136 -139 0
-137 -138 0
-137 -139 0
-138 -139 0
-29 135 0
-30 135 136 0
-31 135 136 137 0
-32 136 137 138 0
-33 137 138 139 0
-34 138 139 0
-35 139 0
-64 135 0
-65 135 136 0
-66 135 136 137 0
-67 136 137 138 0
-68 137 138 139 0
-69 138 139 0
-70 139 0
-99 135 0
-100 135 136 0
-101 135 136 137 0
-102 136 137 138 0
-103 137 138 139 0
-104 138 139 0
-105 139 0
-135 -32 0
-135 -33 0
-135 -34 0
-135 -35 0
-135 -67 0
-135 -68 0
-135 -69 0
-135 -70 0
-135 -102 0
-135 -103 0
-135 -104 0
-135 -105 0
-136 -29 0
-136 -33 0
-136 -34 0
-136 -35 0
-136 -64 0
-136 -68 0
-136 -69 0
-136 -70 0
-136 -99 0
-136 -103 0
-136 -104 0
-136 -105 0
-137 -29 0
-137 -30 0
-137 -34 0
-137 -35 0
-137 -64 0
-137 -65 0
-137 -69 0
-137 -70 0
-137 -99 0
-137 -100 0
-137 -104 0
-137 -105 0
-138 -29 0
-138 -30 0
-138 -31 0
-138 -35 0
-138 -64 0
-138 -65 0
-138 -66 0
-138 -70 0
-138 -99 0
-138 -100 0
-138 -101 0
-138 -105 0
-139 -29 0
-139 -30 0
-139 -31 0
-139 -32 0
-139 -64 0
-139 -65 0
-139 -66 0
-139 -67 0
-139 -99 0
-139 -100 0
-139 -101 0
-139 -102 0
1 8 15 22 29 36 43 50 57 64 71 78 85 92 99 0
2 9 16 23 30 37 44 51 58 65 72 79 86 93 100 0
3 10 17 24 31 38 45 52 59 66 73 80 87 94 101 0
4 11 18 25 32 39 46 53 60 67 74 81 88 95 102 0
5 12 19 26 33 40 47 54 61 68 75 82 89 96 103 0
6 13 20 27 34 41 48 55 62 69 76 83 90 97 104 0
7 14 21 28 35 42 49 56 63 70 77 84 91 98 105 0
