p cnf 93 658
1 2 3 4 5 0
-1 -2 0
-1 -3 0
-1 -4 0
-1 -5 0
-2 -3 0
-2 -4 0
-2 -5 0
-3 -4 0
-3 -5 0
-4 -5 0
6 7 8 9 10 0
-6 -7 0
-6 -8 0
-6 -9 0
-6 -10 0
-7 -8 0
-7 -9 0
-7 -10 0
-8 -9 0
-8 -10 0
-9 -10 0
11 12 13 14 15 0
-11 -12 0
-11 -13 0
-11 -14 0
-11 -15 0
-12 -13 0
-12 -14 0
-12 -15 0
-13 -14 0
-13 -15 0
-14 -15 0
16 17 18 19 20 0
-16 -17 0
-16 -18 0
-16 -19 0
-16 -20 0
-17 -18 0
-17 -19 0
-17 -20 0
-18 -19 0
-18 -20 0
-19 -20 0
21 22 23 24 25 0
-21 -22 0
-21 -23 0
-21 -24 0
-21 -25 0
-22 -23 0
-22 -24 0
-22 -25 0
-23 -24 0
-23 -25 0
-24 -25 0
26 27 28 29 30 0
-26 -27 0
-26 -28 0
-26 -29 0
-26 -30 0
-27 -28 0
-27 -29 0
-27 -30 0
-28 -29 0
-28 -30 0
-29 -30 0
31 32 33 34 35 0
-31 -32 0
-31 -33 0
-31 -34 0
-31 -35 0
-32 -33 0
-32 -34 0
-32 -35 0
-33 -34 0
-33 -35 0
-34 -35 0
36 37 38 39 40 0
-36 -37 0
-36 -38 0
-36 -39 0
-36 -40 0
-37 -38 0
-37 -39 0
-37 -40 0
-38 -39 0
-38 -40 0
-39 -40 0
41 42 43 44 45 0
-41 -42 0
-41 -43 0
-41 -44 0
-41 -45 0
-42 -43 0
-42 -44 0
-42 -45 0
-43 -44 0
-43 -45 0
-44 -45 0
46 47 48 49 50 0
-46 -47 0
-46 -48 0
-46 -49 0
-46 -50 0
-47 -48 0
-47 -49 0
-47 -50 0
-48 -49 0
-48 -50 0
-49 -50 0
51 52 53 54 55 0
-51 -52 0
-51 -53 0
-51 -54 0
-51 -55 0
-52 -53 0
-52 -54 0
-52 -55 0
-53 -54 0
-53 -55 0
-54 -55 0
56 57 58 59 60 0
-56 -57 0
-56 -58 0
-56 -59 0
-56 -60 0
-57 -58 0
-57 -59 0
-57 -60 0
-58 -59 0
-58 -60 0
-59 -60 0
61 62 63 64 65 0
-61 -62 0
-61 -63 0
-61 -64 0
-61 -65 0
-62 -63 0
-62 -64 0
-62 -65 0
-63 -64 0
-63 -65 0
-64 -65 0
66 67 68 69 70 0
-66 -67 0
-66 -68 0
-66 -69 0
-66 -70 0
-67 -68 0
-67 -69 0
-67 -70 0
-68 -69 0
-68 -70 0
-69 -70 0
71 72 73 74 75 0
-71 -72 0
-71 -73 0
-71 -74 0
-71 -75 0
-72 -73 0
-72 -74 0
-72 -75 0
-73 -74 0
-73 -75 0
-74 -75 0
-1 -6 0
-1 -11 0
-1 -16 0
-1 -21 0
-6 -11 0
-6 -16 0
-6 -21 0
-11 -16 0
-11 -21 0
-16 -21 0
-2 -7 0
-2 -12 0
-2 -17 0
-2 -22 0
-7 -12 0
-7 -17 0
-7 -22 0
-12 -17 0
-12 -22 0
-17 -22 0
-3 -8 0
-3 -13 0
-3 -18 0
-3 -23 0
-8 -13 0
-8 -18 0
-8 -23 0
-13 -18 0
-13 -23 0
-18 -23 0
-4 -9 0
-4 -14 0
-4 -19 0
-4 -24 0
-9 -14 0
-9 -19 0
-9 -24 0
-14 -19 0
-14 -24 0
-19 -24 0
-5 -10 0
-5 -15 0
-5 -20 0
-5 -25 0
-10 -15 0
-10 -20 0
-10 -25 0
-15 -20 0
-15 -25 0
-20 -25 0
76 0
-1 76 0
-2 76 0
-3 76 0
-4 76 0
-5 76 0
-6 76 0
-7 76 0
-8 76 0
-9 76 0
-10 76 0
-11 76 0
-12 76 0
-13 76 0
-14 76 0
-15 76 0
-16 76 0
-17 76 0
-18 76 0
-19 76 0
-20 76 0
-21 76 0
-22 76 0
-23 76 0
-24 76 0
-25 76 0
-26 -31 0
-26 -36 0
-26 -41 0
-26 -46 0
-31 -36 0
-31 -41 0
-31 -46 0
-36 -41 0
-36 -46 0
-41 -46 0
-27 -32 0
-27 -37 0
-27 -42 0
-27 -47 0
-32 -37 0
-32 -42 0
-32 -47 0
-37 -42 0
-37 -47 0
-42 -47 0
-28 -33 0
-28 -38 0
-28 -43 0
-28 -48 0
-33 -38 0
-33 -43 0
-33 -48 0
-38 -43 0
-38 -48 0
-43 -48 0
-29 -34 0
-29 -39 0
-29 -44 0
-29 -49 0
-34 -39 0
-34 -44 0
-34 -49 0
-39 -44 0
-39 -49 0
-44 -49 0
-30 -35 0
-30 -40 0
-30 -45 0
-30 -50 0
-35 -40 0
-35 -45 0
-35 -50 0
-40 -45 0
-40 -50 0
-45 -50 0
77 0
-26 77 0
-27 77 0
-28 77 0
-29 77 0
-30 77 0
-31 77 0
-32 77 0
-33 77 0
-34 77 0
-35 77 0
-36 77 0
-37 77 0
-38 77 0
-39 77 0
-40 77 0
-41 77 0
-42 77 0
-43 77 0
-44 77 0
-45 77 0
-46 77 0
-47 77 0
-48 77 0
-49 77 0
-50 77 0
-51 -56 0
-51 -61 0
-51 -66 0
-51 -71 0
-56 -61 0
-56 -66 0
-56 -71 0
-61 -66 0
-61 -71 0
-66 -71 0
-52 -57 0
-52 -62 0
-52 -67 0
-52 -72 0
-57 -62 0
-57 -67 0
-57 -72 0
-62 -67 0
-62 -72 0
-67 -72 0
-53 -58 0
-53 -63 0
-53 -68 0
-53 -73 0
-58 -63 0
-58 -68 0
-58 -73 0
-63 -68 0
-63 -73 0
-68 -73 0
-54 -59 0
-54 -64 0
-54 -69 0
-54 -74 0
-59 -64 0
-59 -69 0
-59 -74 0
-64 -69 0
-64 -74 0
-69 -74 0
-55 -60 0
-55 -65 0
-55 -70 0
-55 -75 0
-60 -65 0
-60 -70 0
-60 -75 0
-65 -70 0
-65 -75 0
-70 -75 0
78 0
-51 78 0
-52 78 0
-53 78 0
-54 78 0
-55 78 0
-56 78 0
-57 78 0
-58 78 0
-59 78 0
-60 78 0
-61 78 0
-62 78 0
-63 78 0
-64 78 0
-65 78 0
-66 78 0
-67 78 0
-68 78 0
-69 78 0
-70 78 0
-71 78 0
-72 78 0
-73 78 0
-74 78 0
-75 78 0
-1 -26 0
-1 -51 0
-26 -51 0
-2 -27 0
-2 -52 0
-27 -52 0
-3 -28 0
-3 -53 0
-28 -53 0
-4 -29 0
-4 -54 0
-29 -54 0
-5 -30 0
-5 -55 0
-30 -55 0
79 80 81 0
-79 -80 0
-79 -81 0
-80 -81 0
-1 79 0
-2 79 80 0
-3 79 80 81 0
-4 80 81 0
-5 81 0
-26 79 0
-27 79 80 0
-28 79 80 81 0
-29 80 81 0
-30 81 0
-51 79 0
-52 79 80 0
-53 79 80 81 0
-54 80 81 0
-55 81 0
-79 -4 0
-79 -5 0
-79 -29 0
-79 -30 0
-79 -54 0
-79 -55 0
-80 -1 0
-80 -5 0
-80 -26 0
-80 -30 0
-80 -51 0
-80 -55 0
-81 -1 0
-81 -2 0
-81 -26 0
-81 -27 0
-81 -51 0
-81 -52 0
-6 -31 0
-6 -56 0
-31 -56 0
-7 -32 0
-7 -57 0
-32 -57 0
-8 -33 0
-8 -58 0
-33 -58 0
-9 -34 0
-9 -59 0
-34 -59 0
-10 -35 0
-10 -60 0
-35 -60 0
82 83 84 0
-82 -83 0
-82 -84 0
-83 -84 0
-6 82 0
-7 82 83 0
-8 82 83 84 0
-9 83 84 0
-10 84 0
-31 82 0
-32 82 83 0
-33 82 83 84 0
-34 83 84 0
-35 84 0
-56 82 0
-57 82 83 0
-58 82 83 84 0
-59 83 84 0
-60 84 0
-82 -9 0
-82 -10 0
-82 -34 0
-82 -35 0
-82 -59 0
-82 -60 0
-83 -6 0
-83 -10 0
-83 -31 0
-83 -35 0
-83 -56 0
-83 -60 0
-84 -6 0
-84 -7 0
-84 -31 0
-84 -32 0
-84 -56 0
-84 -57 0
-11 -36 0
-11 -61 0
-36 -61 0
-12 -37 0
-12 -62 0
-37 -62 0
-13 -38 0
-13 -63 0
-38 -63 0
-14 -39 0
-14 -64 0
-39 -64 0
-15 -40 0
-15 -65 0
-40 -65 0
85 86 87 0
-85 -86 0
-85 -87 0
-86 -87 0
-11 85 0
-12 85 86 0
-13 85 86 87 0
-14 86 87 0
-15 87 0
-36 85 0
-37 85 86 0
-38 85 86 87 0
-39 86 87 0
-40 87 0
-61 85 0
-62 85 86 0
-63 85 86 87 0
-64 86 87 0
-65 87 0
-85 -14 0
-85 -15 0
-85 -39 0
-85 -40 0
-85 -64 0
-85 -65 0
-86 -11 0
-86 -15 0
-86 -36 0
-86 -40 0
-86 -61 0
-86 -65 0
-87 -11 0
-87 -12 0
-87 -36 0
-87 -37 0
-87 -61 0
-87 -62 0
-16 -41 0
-16 -66 0
-41 -66 0
-17 -42 0
-17 -67 0
-42 -67 0
-18 -43 0
-18 -68 0
-43 -68 0
-19 -44 0
-19 -69 0
-44 -69 0
-20 -45 0
-20 -70 0
-45 -70 0
88 89 90 0
-88 -89 0
-88 -90 0
-89 -90 0
-16 88 0
-17 88 89 0
-18 88 89 90 0
-19 89 90 0
-20 90 0
-41 88 0
-42 88 89 0
-43 88 89 90 0
-44 89 90 0
-45 90 0
-66 88 0
-67 88 89 0
-68 88 89 90 0
-69 89 90 0
-70 90 0
-88 -19 0
-88 -20 0
-88 -44 0
-88 -45 0
-88 -69 0
-88 -70 0
-89 -16 0
-89 -20 0
-89 -41 0
-89 -45 0
-89 -66 0
-89 -70 0
-90 -16 0
-90 -17 0
-90 -41 0
-90 -42 0
-90 -66 0
-90 -67 0
-21 -46 0
-21 -71 0
-46 -71 0
-22 -47 0
-22 -72 0
-47 -72 0
-23 -48 0
-23 -73 0
-48 -73 0
-24 -49 0
-24 -74 0
-49 -74 0
-25 -50 0
-25 -75 0
-50 -75 0
91 92 93 0
-91 -92 0
-91 -93 0
-92 -93 0
-21 91 0
-22 91 92 0
-23 91 92 93 0
-24 92 93 0
-25 93 0
-46 91 0
-47 91 92 0
-48 91 92 93 0
-49 92 93 0
-50 93 0
-71 91 0
-72 91 92 0
-73 91 92 93 0
-74 92 93 0
-75 93 0
-91 -24 0
-91 -25 0
-91 -49 0
-91 -50 0
-91 -74 0
-91 -75 0
-92 -21 0
-92 -25 0
-92 -46 0
-92 -50 0
-92 -71 0
-92 -75 0
-93 -21 0
-93 -22 0
-93 -46 0
-93 -47 0
-93 -71 0
-93 -72 0
1 6 11 16 21 26 31 36 41 46 51 56 61 66 71 0
2 7 12 17 22 27 32 37 42 47 52 57 62 67 72 0
3 8 13 18 23 28 33 38 43 48 53 58 63 68 73 0
4 9 14 19 24 29 34 39 44 49 54 59 64 69 74 0
5 10 15 20 25 30 35 40 45 50 55 60 65 70 75 0
