p cnf 1017 25458
1 2 3 4 5 6 7 8 9 10 11 12 13 14 15 16 17 0
-1 -2 0
-1 -3 0
-1 -4 0
-1 -5 0
-1 -6 0
-1 -7 0
-1 -8 0
-1 -9 0
-1 -10 0
-1 -11 0
-1 -12 0
-1 -13 0
-1 -14 0
-1 -15 0
-1 -16 0
-1 -17 0
-2 -3 0
-2 -4 0
-2 -5 0
-2 -6 0
-2 -7 0
-2 -8 0
-2 -9 0
-2 -10 0
-2 -11 0
-2 -12 0
-2 -13 0
-2 -14 0
-2 -15 0
-2 -16 0
-2 -17 0
-3 -4 0
-3 -5 0
-3 -6 0
-3 -7 0
-3 -8 0
-3 -9 0
-3 -10 0
-3 -11 0
-3 -12 0
-3 -13 0
-3 -14 0
-3 -15 0
-3 -16 0
-3 -17 0
-4 -5 0
-4 -6 0
-4 -7 0
-4 -8 0
-4 -9 0
-4 -10 0
-4 -11 0
-4 -12 0
-4 -13 0
-4 -14 0
-4 -15 0
-4 -16 0
-4 -17 0
-5 -6 0
-5 -7 0
-5 -8 0
-5 -9 0
-5 -10 0
-5 -11 0
-5 -12 0
-5 -13 0
-5 -14 0
-5 -15 0
-5 -16 0
-5 -17 0
-6 -7 0
-6 -8 0
-6 -9 0
-6 -10 0
-6 -11 0
-6 -12 0
-6 -13 0
-6 -14 0
-6 -15 0
-6 -16 0
-6 -17 0
-7 -8 0
-7 -9 0
-7 -10 0
-7 -11 0
-7 -12 0
-7 -13 0
-7 -14 0
-7 -15 0
-7 -16 0
-7 -17 0
-8 -9 0
-8 -10 0
-8 -11 0
-8 -12 0
-8 -13 0
-8 -14 0
-8 -15 0
-8 -16 0
-8 -17 0
-9 -10 0
-9 -11 0
-9 -12 0
-9 -13 0
-9 -14 0
-9 -15 0
-9 -16 0
-9 -17 0
-10 -11 0
-10 -12 0
-10 -13 0
-10 -14 0
-10 -15 0
-10 -16 0
-10 -17 0
-11 -12 0
-11 -13 0
-11 -14 0
-11 -15 0
-11 -16 0
-11 -17 0
-12 -13 0
-12 -14 0
-12 -15 0
-12 -16 0
-12 -17 0
-13 -14 0
-13 -15 0
-13 -16 0
-13 -17 0
-14 -15 0
-14 -16 0
-14 -17 0
-15 -16 0
-15 -17 0
-16 -17 0
18 19 20 21 22 23 24 25 26 27 28 29 30 31 32 33 34 0
-18 -19 0
-18 -20 0
-18 -21 0
-18 -22 0
-18 -23 0
-18 -24 0
-18 -25 0
-18 -26 0
-18 -27 0
-18 -28 0
-18 -29 0
-18 -30 0
-18 -31 0
-18 -32 0
-18 -33 0
-18 -34 0
-19 -20 0
-19 -21 0
-19 -22 0
-19 -23 0
-19 -24 0
-19 -25 0
-19 -26 0
-19 -27 0
-19 -28 0
-19 -29 0
-19 -30 0
-19 -31 0
-19 -32 0
-19 -33 0
-19 -34 0
-20 -21 0
-20 -22 0
-20 -23 0
-20 -24 0
-20 -25 0
-20 -26 0
-20 -27 0
-20 -28 0
-20 -29 0
-20 -30 0
-20 -31 0
-20 -32 0
-20 -33 0
-20 -34 0
-21 -22 0
-21 -23 0
-21 -24 0
-21 -25 0
-21 -26 0
-21 -27 0
-21 -28 0
-21 -29 0
-21 -30 0
-21 -31 0
-21 -32 0
-21 -33 0
-21 -34 0
-22 -23 0
-22 -24 0
-22 -25 0
-22 -26 0
-22 -27 0
-22 -28 0
-22 -29 0
-22 -30 0
-22 -31 0
-22 -32 0
-22 -33 0
-22 -34 0
-23 -24 0
-23 -25 0
-23 -26 0
-23 -27 0
-23 -28 0
-23 -29 0
-23 -30 0
-23 -31 0
-23 -32 0
-23 -33 0
-23 -34 0
-24 -25 0
-24 -26 0
-24 -27 0
-24 -28 0
-24 -29 0
-24 -30 0
-24 -31 0
-24 -32 0
-24 -33 0
-24 -34 0
-25 -26 0
-25 -27 0
-25 -28 0
-25 -29 0
-25 -30 0
-25 -31 0
-25 -32 0
-25 -33 0
-25 -34 0
-26 -27 0
-26 -28 0
-26 -29 0
-26 -30 0
-26 -31 0
-26 -32 0
-26 -33 0
-26 -34 0
-27 -28 0
-27 -29 0
-27 -30 0
-27 -31 0
-27 -32 0
-27 -33 0
-27 -34 0
-28 -29 0
-28 -30 0
-28 -31 0
-28 -32 0
-28 -33 0
-28 -34 0
-29 -30 0
-29 -31 0
-29 -32 0
-29 -33 0
-29 -34 0
-30 -31 0
-30 -32 0
-30 -33 0
-30 -34 0
-31 -32 0
-31 -33 0
-31 -34 0
-32 -33 0
-32 -34 0
-33 -34 0
35 36 37 38 39 40 41 42 43 44 45 46 47 48 49 50 51 0
-35 -36 0
-35 -37 0
-35 -38 0
-35 -39 0
-35 -40 0
-35 -41 0
-35 -42 0
-35 -43 0
-35 -44 0
-35 -45 0
-35 -46 0
-35 -47 0
-35 -48 0
-35 -49 0
-35 -50 0
-35 -51 0
-36 -37 0
-36 -38 0
-36 -39 0
-36 -40 0
-36 -41 0
-36 -42 0
-36 -43 0
-36 -44 0
-36 -45 0
-36 -46 0
-36 -47 0
-36 -48 0
-36 -49 0
-36 -50 0
-36 -51 0
-37 -38 0
-37 -39 0
-37 -40 0
-37 -41 0
-37 -42 0
-37 -43 0
-37 -44 0
-37 -45 0
-37 -46 0
-37 -47 0
-37 -48 0
-37 -49 0
-37 -50 0
-37 -51 0
-38 -39 0
-38 -40 0
-38 -41 0
-38 -42 0
-38 -43 0
-38 -44 0
-38 -45 0
-38 -46 0
-38 -47 0
-38 -48 0
-38 -49 0
-38 -50 0
-38 -51 0
-39 -40 0
-39 -41 0
-39 -42 0
-39 -43 0
-39 -44 0
-39 -45 0
-39 -46 0
-39 -47 0
-39 -48 0
-39 -49 0
-39 -50 0
-39 -51 0
-40 -41 0
-40 -42 0
-40 -43 0
-40 -44 0
-40 -45 0
-40 -46 0
-40 -47 0
-40 -48 0
-40 -49 0
-40 -50 0
-40 -51 0
-41 -42 0
-41 -43 0
-41 -44 0
-41 -45 0
-41 -46 0
-41 -47 0
-41 -48 0
-41 -49 0
-41 -50 0
-41 -51 0
-42 -43 0
-42 -44 0
-42 -45 0
-42 -46 0
-42 -47 0
-42 -48 0
-42 -49 0
-42 -50 0
-42 -51 0
-43 -44 0
-43 -45 0
-43 -46 0
-43 -47 0
-43 -48 0
-43 -49 0
-43 -50 0
-43 -51 0
-44 -45 0
-44 -46 0
-44 -47 0
-44 -48 0
-44 -49 0
-44 -50 0
-44 -51 0
-45 -46 0
-45 -47 0
-45 -48 0
-45 -49 0
-45 -50 0
-45 -51 0
-46 -47 0
-46 -48 0
-46 -49 0
-46 -50 0
-46 -51 0
-47 -48 0
-47 -49 0
-47 -50 0
-47 -51 0
-48 -49 0
-48 -50 0
-48 -51 0
-49 -50 0
-49 -51 0
-50 -51 0
52 53 54 55 56 57 58 59 60 61 62 63 64 65 66 67 68 0
-52 -53 0
-52 -54 0
-52 -55 0
-52 -56 0
-52 -57 0
-52 -58 0
-52 -59 0
-52 -60 0
-52 -61 0
-52 -62 0
-52 -63 0
-52 -64 0
-52 -65 0
-52 -66 0
-52 -67 0
-52 -68 0
-53 -54 0
-53 -55 0
-53 -56 0
-53 -57 0
-53 -58 0
-53 -59 0
-53 -60 0
-53 -61 0
-53 -62 0
-53 -63 0
-53 -64 0
-53 -65 0
-53 -66 0
-53 -67 0
-53 -68 0
-54 -55 0
-54 -56 0
-54 -57 0
-54 -58 0
-54 -59 0
-54 -60 0
-54 -61 0
-54 -62 0
-54 -63 0
-54 -64 0
-54 -65 0
-54 -66 0
-54 -67 0
-54 -68 0
-55 -56 0
-55 -57 0
-55 -58 0
-55 -59 0
-55 -60 0
-55 -61 0
-55 -62 0
-55 -63 0
-55 -64 0
-55 -65 0
-55 -66 0
-55 -67 0
-55 -68 0
-56 -57 0
-56 -58 0
-56 -59 0
-56 -60 0
-56 -61 0
-56 -62 0
-56 -63 0
-56 -64 0
-56 -65 0
-56 -66 0
-56 -67 0
-56 -68 0
-57 -58 0
-57 -59 0
-57 -60 0
-57 -61 0
-57 -62 0
-57 -63 0
-57 -64 0
-57 -65 0
-57 -66 0
-57 -67 0
-57 -68 0
-58 -59 0
-58 -60 0
-58 -61 0
-58 -62 0
-58 -63 0
-58 -64 0
-58 -65 0
-58 -66 0
-58 -67 0
-58 -68 0
-59 -60 0
-59 -61 0
-59 -62 0
-59 -63 0
-59 -64 0
-59 -65 0
-59 -66 0
-59 -67 0
-59 -68 0
-60 -61 0
-60 -62 0
-60 -63 0
-60 -64 0
-60 -65 0
-60 -66 0
-60 -67 0
-60 -68 0
-61 -62 0
-61 -63 0
-61 -64 0
-61 -65 0
-61 -66 0
-61 -67 0
-61 -68 0
-62 -63 0
-62 -64 0
-62 -65 0
-62 -66 0
-62 -67 0
-62 -68 0
-63 -64 0
-63 -65 0
-63 -66 0
-63 -67 0
-63 -68 0
-64 -65 0
-64 -66 0
-64 -67 0
-64 -68 0
-65 -66 0
-65 -67 0
-65 -68 0
-66 -67 0
-66 -68 0
-67 -68 0
69 70 71 72 73 74 75 76 77 78 79 80 81 82 83 84 85 0
-69 -70 0
-69 -71 0
-69 -72 0
-69 -73 0
-69 -74 0
-69 -75 0
-69 -76 0
-69 -77 0
-69 -78 0
-69 -79 0
-69 -80 0
-69 -81 0
-69 -82 0
-69 -83 0
-69 -84 0
-69 -85 0
-70 -71 0
-70 -72 0
-70 -73 0
-70 -74 0
-70 -75 0
-70 -76 0
-70 -77 0
-70 -78 0
-70 -79 0
-70 -80 0
-70 -81 0
-70 -82 0
-70 -83 0
-70 -84 0
-70 -85 0
-71 -72 0
-71 -73 0
-71 -74 0
-71 -75 0
-71 -76 0
-71 -77 0
-71 -78 0
-71 -79 0
-71 -80 0
-71 -81 0
-71 -82 0
-71 -83 0
-71 -84 0
-71 -85 0
-72 -73 0
-72 -74 0
-72 -75 0
-72 -76 0
-72 -77 0
-72 -78 0
-72 -79 0
-72 -80 0
-72 -81 0
-72 -82 0
-72 -83 0
-72 -84 0
-72 -85 0
-73 -74 0
-73 -75 0
-73 -76 0
-73 -77 0
-73 -78 0
-73 -79 0
-73 -80 0
-73 -81 0
-73 -82 0
-73 -83 0
-73 -84 0
-73 -85 0
-74 -75 0
-74 -76 0
-74 -77 0
-74 -78 0
-74 -79 0
-74 -80 0
-74 -81 0
-74 -82 0
-74 -83 0
-74 -84 0
-74 -85 0
-75 -76 0
-75 -77 0
-75 -78 0
-75 -79 0
-75 -80 0
-75 -81 0
-75 -82 0
-75 -83 0
-75 -84 0
-75 -85 0
-76 -77 0
-76 -78 0
-76 -79 0
-76 -80 0
-76 -81 0
-76 -82 0
-76 -83 0
-76 -84 0
-76 -85 0
-77 -78 0
-77 -79 0
-77 -80 0
-77 -81 0
-77 -82 0
-77 -83 0
-77 -84 0
-77 -85 0
-78 -79 0
-78 -80 0
-78 -81 0
-78 -82 0
-78 -83 0
-78 -84 0
-78 -85 0
-79 -80 0
-79 -81 0
-79 -82 0
-79 -83 0
-79 -84 0
-79 -85 0
-80 -81 0
-80 -82 0
-80 -83 0
-80 -84 0
-80 -85 0
-81 -82 0
-81 -83 0
-81 -84 0
-81 -85 0
-82 -83 0
-82 -84 0
-82 -85 0
-83 -84 0
-83 -85 0
-84 -85 0
86 87 88 89 90 91 92 93 94 95 96 97 98 99 100 101 102 0
-86 -87 0
-86 -88 0
-86 -89 0
-86 -90 0
-86 -91 0
-86 -92 0
-86 -93 0
-86 -94 0
-86 -95 0
-86 -96 0
-86 -97 0
-86 -98 0
-86 -99 0
-86 -100 0
-86 -101 0
-86 -102 0
-87 -88 0
-87 -89 0
-87 -90 0
-87 -91 0
-87 -92 0
-87 -93 0
-87 -94 0
-87 -95 0
-87 -96 0
-87 -97 0
-87 -98 0
-87 -99 0
-87 -100 0
-87 -101 0
-87 -102 0
-88 -89 0
-88 -90 0
-88 -91 0
-88 -92 0
-88 -93 0
-88 -94 0
-88 -95 0
-88 -96 0
-88 -97 0
-88 -98 0
-88 -99 0
-88 -100 0
-88 -101 0
-88 -102 0
-89 -90 0
-89 -91 0
-89 -92 0
-89 -93 0
-89 -94 0
-89 -95 0
-89 -96 0
-89 -97 0
-89 -98 0
-89 -99 0
-89 -100 0
-89 -101 0
-89 -102 0
-90 -91 0
-90 -92 0
-90 -93 0
-90 -94 0
-90 -95 0
-90 -96 0
-90 -97 0
-90 -98 0
-90 -99 0
-90 -100 0
-90 -101 0
-90 -102 0
-91 -92 0
-91 -93 0
-91 -94 0
-91 -95 0
-91 -96 0
-91 -97 0
-91 -98 0
-91 -99 0
-91 -100 0
-91 -101 0
-91 -102 0
-92 -93 0
-92 -94 0
-92 -95 0
-92 -96 0
-92 -97 0
-92 -98 0
-92 -99 0
-92 -100 0
-92 -101 0
-92 -102 0
-93 -94 0
-93 -95 0
-93 -96 0
-93 -97 0
-93 -98 0
-93 -99 0
-93 -100 0
-93 -101 0
-93 -102 0
-94 -95 0
-94 -96 0
-94 -97 0
-94 -98 0
-94 -99 0
-94 -100 0
-94 -101 0
-94 -102 0
-95 -96 0
-95 -97 0
-95 -98 0
-95 -99 0
-95 -100 0
-95 -101 0
-95 -102 0
-96 -97 0
-96 -98 0
-96 -99 0
-96 -100 0
-96 -101 0
-96 -102 0
-97 -98 0
-97 -99 0
-97 -100 0
-97 -101 0
-97 -102 0
-98 -99 0
-98 -100 0
-98 -101 0
-98 -102 0
-99 -100 0
-99 -101 0
-99 -102 0
-100 -101 0
-100 -102 0
-101 -102 0
103 104 105 106 107 108 109 110 111 112 113 114 115 116 117 118 119 0
-103 -104 0
-103 -105 0
-103 -106 0
-103 -107 0
-103 -108 0
-103 -109 0
-103 -110 0
-103 -111 0
-103 -112 0
-103 -113 0
-103 -114 0
-103 -115 0
-103 -116 0
-103 -117 0
-103 -118 0
-103 -119 0
-104 -105 0
-104 -106 0
-104 -107 0
-104 -108 0
-104 -109 0
-104 -110 0
-104 -111 0
-104 -112 0
-104 -113 0
-104 -114 0
-104 -115 0
-104 -116 0
-104 -117 0
-104 -118 0
-104 -119 0
-105 -106 0
-105 -107 0
-105 -108 0
-105 -109 0
-105 -110 0
-105 -111 0
-105 -112 0
-105 -113 0
-105 -114 0
-105 -115 0
-105 -116 0
-105 -117 0
-105 -118 0
-105 -119 0
-106 -107 0
-106 -108 0
-106 -109 0
-106 -110 0
-106 -111 0
-106 -112 0
-106 -113 0
-106 -114 0
-106 -115 0
-106 -116 0
-106 -117 0
-106 -118 0
-106 -119 0
-107 -108 0
-107 -109 0
-107 -110 0
-107 -111 0
-107 -112 0
-107 -113 0
-107 -114 0
-107 -115 0
-107 -116 0
-107 -117 0
-107 -118 0
-107 -119 0
-108 -109 0
-108 -110 0
-108 -111 0
-108 -112 0
-108 -113 0
-108 -114 0
-108 -115 0
-108 -116 0
-108 -117 0
-108 -118 0
-108 -119 0
-109 -110 0
-109 -111 0
-109 -112 0
-109 -113 0
-109 -114 0
-109 -115 0
-109 -116 0
-109 -117 0
-109 -118 0
-109 -119 0
-110 -111 0
-110 -112 0
-110 -113 0
-110 -114 0
-110 -115 0
-110 -116 0
-110 -117 0
-110 -118 0
-110 -119 0
-111 -112 0
-111 -113 0
-111 -114 0
-111 -115 0
-111 -116 0
-111 -117 0
-111 -118 0
-111 -119 0
-112 -113 0
-112 -114 0
-112 -115 0
-112 -116 0
-112 -117 0
-112 -118 0
-112 -119 0
-113 -114 0
-113 -115 0
-113 -116 0
-113 -117 0
-113 -118 0
-113 -119 0
-114 -115 0
-114 -116 0
-114 -117 0
-114 -118 0
-114 -119 0
-115 -116 0
-115 -117 0
-115 -118 0
-115 -119 0
-116 -117 0
-116 -118 0
-116 -119 0
-117 -118 0
-117 -119 0
-118 -119 0
120 121 122 123 124 125 126 127 128 129 130 131 132 133 134 135 136 0
-120 -121 0
-120 -122 0
-120 -123 0
-120 -124 0
-120 -125 0
-120 -126 0
-120 -127 0
-120 -128 0
-120 -129 0
-120 -130 0
-120 -131 0
-120 -132 0
-120 -133 0
-120 -134 0
-120 -135 0
-120 -136 0
-121 -122 0
-121 -123 0
-121 -124 0
-121 -125 0
-121 -126 0
-121 -127 0
-121 -128 0
-121 -129 0
-121 -130 0
-121 -131 0
-121 -132 0
-121 -133 0
-121 -134 0
-121 -135 0
-121 -136 0
-122 -123 0
-122 -124 0
-122 -125 0
-122 -126 0
-122 -127 0
-122 -128 0
-122 -129 0
-122 -130 0
-122 -131 0
-122 -132 0
-122 -133 0
-122 -134 0
-122 -135 0
-122 -136 0
-123 -124 0
-123 -125 0
-123 -126 0
-123 -127 0
-123 -128 0
-123 -129 0
-123 -130 0
-123 -131 0
-123 -132 0
-123 -133 0
-123 -134 0
-123 -135 0
-123 -136 0
-124 -125 0
-124 -126 0
-124 -127 0
-124 -128 0
-124 -129 0
-124 -130 0
-124 -131 0
-124 -132 0
-124 -133 0
-124 -134 0
-124 -135 0
-124 -136 0
-125 -126 0
-125 -127 0
-125 -128 0
-125 -129 0
-125 -130 0
-125 -131 0
-125 -132 0
-125 -133 0
-125 -134 0
-125 -135 0
-125 -136 0
-126 -127 0
-126 -128 0
-126 -129 0
-126 -130 0
-126 -131 0
-126 -132 0
-126 -133 0
-126 -134 0
-126 -135 0
-126 -136 0
-127 -128 0
-127 -129 0
-127 -130 0
-127 -131 0
-127 -132 0
-127 -133 0
-127 -134 0
-127 -135 0
-127 -136 0
-128 -129 0
-128 -130 0
-128 -131 0
-128 -132 0
-128 -133 0
-128 -134 0
-128 -135 0
-128 -136 0
-129 -130 0
-129 -131 0
-129 -132 0
-129 -133 0
-129 -134 0
-129 -135 0
-129 -136 0
-130 -131 0
-130 -132 0
-130 -133 0
-130 -134 0
-130 -135 0
-130 -136 0
-131 -132 0
-131 -133 0
-131 -134 0
-131 -135 0
-131 -136 0
-132 -133 0
-132 -134 0
-132 -135 0
-132 -136 0
-133 -134 0
-133 -135 0
-133 -136 0
-134 -135 0
-134 -136 0
-135 -136 0
137 138 139 140 141 142 143 144 145 146 147 148 149 150 151 152 153 0
-137 -138 0
-137 -139 0
-137 -140 0
-137 -141 0
-137 -142 0
-137 -143 0
-137 -144 0
-137 -145 0
-137 -146 0
-137 -147 0
-137 -148 0
-137 -149 0
-137 -150 0
-137 -151 0
-137 -152 0
-137 -153 0
-138 -139 0
-138 -140 0
-138 -141 0
-138 -142 0
-138 -143 0
-138 -144 0
-138 -145 0
-138 -146 0
-138 -147 0
-138 -148 0
-138 -149 0
-138 -150 0
-138 -151 0
-138 -152 0
-138 -153 0
-139 -140 0
-139 -141 0
-139 -142 0
-139 -143 0
-139 -144 0
-139 -145 0
-139 -146 0
-139 -147 0
-139 -148 0
-139 -149 0
-139 -150 0
-139 -151 0
-139 -152 0
-139 -153 0
-140 -141 0
-140 -142 0
-140 -143 0
-140 -144 0
-140 -145 0
-140 -146 0
-140 -147 0
-140 -148 0
-140 -149 0
-140 -150 0
-140 -151 0
-140 -152 0
-140 -153 0
-141 -142 0
-141 -143 0
-141 -144 0
-141 -145 0
-141 -146 0
-141 -147 0
-141 -148 0
-141 -149 0
-141 -150 0
-141 -151 0
-141 -152 0
-141 -153 0
-142 -143 0
-142 -144 0
-142 -145 0
-142 -146 0
-142 -147 0
-142 -148 0
-142 -149 0
-142 -150 0
-142 -151 0
-142 -152 0
-142 -153 0
-143 -144 0
-143 -145 0
-143 -146 0
-143 -147 0
-143 -148 0
-143 -149 0
-143 -150 0
-143 -151 0
-143 -152 0
-143 -153 0
-144 -145 0
-144 -146 0
-144 -147 0
-144 -148 0
-144 -149 0
-144 -150 0
-144 -151 0
-144 -152 0
-144 -153 0
-145 -146 0
-145 -147 0
-145 -148 0
-145 -149 0
-145 -150 0
-145 -151 0
-145 -152 0
-145 -153 0
-146 -147 0
-146 -148 0
-146 -149 0
-146 -150 0
-146 -151 0
-146 -152 0
-146 -153 0
-147 -148 0
-147 -149 0
-147 -150 0
-147 -151 0
-147 -152 0
-147 -153 0
-148 -149 0
-148 -150 0
-148 -151 0
-148 -152 0
-148 -153 0
-149 -150 0
-149 -151 0
-149 -152 0
-149 -153 0
-150 -151 0
-150 -152 0
-150 -153 0
-151 -152 0
-151 -153 0
-152 -153 0
154 155 156 157 158 159 160 161 162 163 164 165 166 167 168 169 170 0
-154 -155 0
-154 -156 0
-154 -157 0
-154 -158 0
-154 -159 0
-154 -160 0
-154 -161 0
-154 -162 0
-154 -163 0
-154 -164 0
-154 -165 0
-154 -166 0
-154 -167 0
-154 -168 0
-154 -169 0
-154 -170 0
-155 -156 0
-155 -157 0
-155 -158 0
-155 -159 0
-155 -160 0
-155 -161 0
-155 -162 0
-155 -163 0
-155 -164 0
-155 -165 0
-155 -166 0
-155 -167 0
-155 -168 0
-155 -169 0
-155 -170 0
-156 -157 0
-156 -158 0
-156 -159 0
-156 -160 0
-156 -161 0
-156 -162 0
-156 -163 0
-156 -164 0
-156 -165 0
-156 -166 0
-156 -167 0
-156 -168 0
-156 -169 0
-156 -170 0
-157 -158 0
-157 -159 0
-157 -160 0
-157 -161 0
-157 -162 0
-157 -163 0
-157 -164 0
-157 -165 0
-157 -166 0
-157 -167 0
-157 -168 0
-157 -169 0
-157 -170 0
-158 -159 0
-158 -160 0
-158 -161 0
-158 -162 0
-158 -163 0
-158 -164 0
-158 -165 0
-158 -166 0
-158 -167 0
-158 -168 0
-158 -169 0
-158 -170 0
-159 -160 0
-159 -161 0
-159 -162 0
-159 -163 0
-159 -164 0
-159 -165 0
-159 -166 0
-159 -167 0
-159 -168 0
-159 -169 0
-159 -170 0
-160 -161 0
-160 -162 0
-160 -163 0
-160 -164 0
-160 -165 0
-160 -166 0
-160 -167 0
-160 -168 0
-160 -169 0
-160 -170 0
-161 -162 0
-161 -163 0
-161 -164 0
-161 -165 0
-161 -166 0
-161 -167 0
-161 -168 0
-161 -169 0
-161 -170 0
-162 -163 0
-162 -164 0
-162 -165 0
-162 -166 0
-162 -167 0
-162 -168 0
-162 -169 0
-162 -170 0
-163 -164 0
-163 -165 0
-163 -166 0
-163 -167 0
-163 -168 0
-163 -169 0
-163 -170 0
-164 -165 0
-164 -166 0
-164 -167 0
-164 -168 0
-164 -169 0
-164 -170 0
-165 -166 0
-165 -167 0
-165 -168 0
-165 -169 0
-165 -170 0
-166 -167 0
-166 -168 0
-166 -169 0
-166 -170 0
-167 -168 0
-167 -169 0
-167 -170 0
-168 -169 0
-168 -170 0
-169 -170 0
171 172 173 174 175 176 177 178 179 180 181 182 183 184 185 186 187 0
-171 -172 0
-171 -173 0
-171 -174 0
-171 -175 0
-171 -176 0
-171 -177 0
-171 -178 0
-171 -179 0
-171 -180 0
-171 -181 0
-171 -182 0
-171 -183 0
-171 -184 0
-171 -185 0
-171 -186 0
-171 -187 0
-172 -173 0
-172 -174 0
-172 -175 0
-172 -176 0
-172 -177 0
-172 -178 0
-172 -179 0
-172 -180 0
-172 -181 0
-172 -182 0
-172 -183 0
-172 -184 0
-172 -185 0
-172 -186 0
-172 -187 0
-173 -174 0
-173 -175 0
-173 -176 0
-173 -177 0
-173 -178 0
-173 -179 0
-173 -180 0
-173 -181 0
-173 -182 0
-173 -183 0
-173 -184 0
-173 -185 0
-173 -186 0
-173 -187 0
-174 -175 0
-174 -176 0
-174 -177 0
-174 -178 0
-174 -179 0
-174 -180 0
-174 -181 0
-174 -182 0
-174 -183 0
-174 -184 0
-174 -185 0
-174 -186 0
-174 -187 0
-175 -176 0
-175 -177 0
-175 -178 0
-175 -179 0
-175 -180 0
-175 -181 0
-175 -182 0
-175 -183 0
-175 -184 0
-175 -185 0
-175 -186 0
-175 -187 0
-176 -177 0
-176 -178 0
-176 -179 0
-176 -180 0
-176 -181 0
-176 -182 0
-176 -183 0
-176 -184 0
-176 -185 0
-176 -186 0
-176 -187 0
-177 -178 0
-177 -179 0
-177 -180 0
-177 -181 0
-177 -182 0
-177 -183 0
-177 -184 0
-177 -185 0
-177 -186 0
-177 -187 0
-178 -179 0
-178 -180 0
-178 -181 0
-178 -182 0
-178 -183 0
-178 -184 0
-178 -185 0
-178 -186 0
-178 -187 0
-179 -180 0
-179 -181 0
-179 -182 0
-179 -183 0
-179 -184 0
-179 -185 0
-179 -186 0
-179 -187 0
-180 -181 0
-180 -182 0
-180 -183 0
-180 -184 0
-180 -185 0
-180 -186 0
-180 -187 0
-181 -182 0
-181 -183 0
-181 -184 0
-181 -185 0
-181 -186 0
-181 -187 0
-182 -183 0
-182 -184 0
-182 -185 0
-182 -186 0
-182 -187 0
-183 -184 0
-183 -185 0
-183 -186 0
-183 -187 0
-184 -185 0
-184 -186 0
-184 -187 0
-185 -186 0
-185 -187 0
-186 -187 0
188 189 190 191 192 193 194 195 196 197 198 199 200 201 202 203 204 0
-188 -189 0
-188 -190 0
-188 -191 0
-188 -192 0
-188 -193 0
-188 -194 0
-188 -195 0
-188 -196 0
-188 -197 0
-188 -198 0
-188 -199 0
-188 -200 0
-188 -201 0
-188 -202 0
-188 -203 0
-188 -204 0
-189 -190 0
-189 -191 0
-189 -192 0
-189 -193 0
-189 -194 0
-189 -195 0
-189 -196 0
-189 -197 0
-189 -198 0
-189 -199 0
-189 -200 0
-189 -201 0
-189 -202 0
-189 -203 0
-189 -204 0
-190 -191 0
-190 -192 0
-190 -193 0
-190 -194 0
-190 -195 0
-190 -196 0
-190 -197 0
-190 -198 0
-190 -199 0
-190 -200 0
-190 -201 0
-190 -202 0
-190 -203 0
-190 -204 0
-191 -192 0
-191 -193 0
-191 -194 0
-191 -195 0
-191 -196 0
-191 -197 0
-191 -198 0
-191 -199 0
-191 -200 0
-191 -201 0
-191 -202 0
-191 -203 0
-191 -204 0
-192 -193 0
-192 -194 0
-192 -195 0
-192 -196 0
-192 -197 0
-192 -198 0
-192 -199 0
-192 -200 0
-192 -201 0
-192 -202 0
-192 -203 0
-192 -204 0
-193 -194 0
-193 -195 0
-193 -196 0
-193 -197 0
-193 -198 0
-193 -199 0
-193 -200 0
-193 -201 0
-193 -202 0
-193 -203 0
-193 -204 0
-194 -195 0
-194 -196 0
-194 -197 0
-194 -198 0
-194 -199 0
-194 -200 0
-194 -201 0
-194 -202 0
-194 -203 0
-194 -204 0
-195 -196 0
-195 -197 0
-195 -198 0
-195 -199 0
-195 -200 0
-195 -201 0
-195 -202 0
-195 -203 0
-195 -204 0
-196 -197 0
-196 -198 0
-196 -199 0
-196 -200 0
-196 -201 0
-196 -202 0
-196 -203 0
-196 -204 0
-197 -198 0
-197 -199 0
-197 -200 0
-197 -201 0
-197 -202 0
-197 -203 0
-197 -204 0
-198 -199 0
-198 -200 0
-198 -201 0
-198 -202 0
-198 -203 0
-198 -204 0
-199 -200 0
-199 -201 0
-199 -202 0
-199 -203 0
-199 -204 0
-200 -201 0
-200 -202 0
-200 -203 0
-200 -204 0
-201 -202 0
-201 -203 0
-201 -204 0
-202 -203 0
-202 -204 0
-203 -204 0
205 206 207 208 209 210 211 212 213 214 215 216 217 218 219 220 221 0
-205 -206 0
-205 -207 0
-205 -208 0
-205 -209 0
-205 -210 0
-205 -211 0
-205 -212 0
-205 -213 0
-205 -214 0
-205 -215 0
-205 -216 0
-205 -217 0
-205 -218 0
-205 -219 0
-205 -220 0
-205 -221 0
-206 -207 0
-206 -208 0
-206 -209 0
-206 -210 0
-206 -211 0
-206 -212 0
-206 -213 0
-206 -214 0
-206 -215 0
-206 -216 0
-206 -217 0
-206 -218 0
-206 -219 0
-206 -220 0
-206 -221 0
-207 -208 0
-207 -209 0
-207 -210 0
-207 -211 0
-207 -212 0
-207 -213 0
-207 -214 0
-207 -215 0
-207 -216 0
-207 -217 0
-207 -218 0
-207 -219 0
-207 -220 0
-207 -221 0
-208 -209 0
-208 -210 0
-208 -211 0
-208 -212 0
-208 -213 0
-208 -214 0
-208 -215 0
-208 -216 0
-208 -217 0
-208 -218 0
-208 -219 0
-208 -220 0
-208 -221 0
-209 -210 0
-209 -211 0
-209 -212 0
-209 -213 0
-209 -214 0
-209 -215 0
-209 -216 0
-209 -217 0
-209 -218 0
-209 -219 0
-209 -220 0
-209 -221 0
-210 -211 0
-210 -212 0
-210 -213 0
-210 -214 0
-210 -215 0
-210 -216 0
-210 -217 0
-210 -218 0
-210 -219 0
-210 -220 0
-210 -221 0
-211 -212 0
-211 -213 0
-211 -214 0
-211 -215 0
-211 -216 0
-211 -217 0
-211 -218 0
-211 -219 0
-211 -220 0
-211 -221 0
-212 -213 0
-212 -214 0
-212 -215 0
-212 -216 0
-212 -217 0
-212 -218 0
-212 -219 0
-212 -220 0
-212 -221 0
-213 -214 0
-213 -215 0
-213 -216 0
-213 -217 0
-213 -218 0
-213 -219 0
-213 -220 0
-213 -221 0
-214 -215 0
-214 -216 0
-214 -217 0
-214 -218 0
-214 -219 0
-214 -220 0
-214 -221 0
-215 -216 0
-215 -217 0
-215 -218 0
-215 -219 0
-215 -220 0
-215 -221 0
-216 -217 0
-216 -218 0
-216 -219 0
-216 -220 0
-216 -221 0
-217 -218 0
-217 -219 0
-217 -220 0
-217 -221 0
-218 -219 0
-218 -220 0
-218 -221 0
-219 -220 0
-219 -221 0
-220 -221 0
222 223 224 225 226 227 228 229 230 231 232 233 234 235 236 237 238 0
-222 -223 0
-222 -224 0
-222 -225 0
-222 -226 0
-222 -227 0
-222 -228 0
-222 -229 0
-222 -230 0
-222 -231 0
-222 -232 0
-222 -233 0
-222 -234 0
-222 -235 0
-222 -236 0
-222 -237 0
-222 -238 0
-223 -224 0
-223 -225 0
-223 -226 0
-223 -227 0
-223 -228 0
-223 -229 0
-223 -230 0
-223 -231 0
-223 -232 0
-223 -233 0
-223 -234 0
-223 -235 0
-223 -236 0
-223 -237 0
-223 -238 0
-224 -225 0
-224 -226 0
-224 -227 0
-224 -228 0
-224 -229 0
-224 -230 0
-224 -231 0
-224 -232 0
-224 -233 0
-224 -234 0
-224 -235 0
-224 -236 0
-224 -237 0
-224 -238 0
-225 -226 0
-225 -227 0
-225 -228 0
-225 -229 0
-225 -230 0
-225 -231 0
-225 -232 0
-225 -233 0
-225 -234 0
-225 -235 0
-225 -236 0
-225 -237 0
-225 -238 0
-226 -227 0
-226 -228 0
-226 -229 0
-226 -230 0
-226 -231 0
-226 -232 0
-226 -233 0
-226 -234 0
-226 -235 0
-226 -236 0
-226 -237 0
-226 -238 0
-227 -228 0
-227 -229 0
-227 -230 0
-227 -231 0
-227 -232 0
-227 -233 0
-227 -234 0
-227 -235 0
-227 -236 0
-227 -237 0
-227 -238 0
-228 -229 0
-228 -230 0
-228 -231 0
-228 -232 0
-228 -233 0
-228 -234 0
-228 -235 0
-228 -236 0
-228 -237 0
-228 -238 0
-229 -230 0
-229 -231 0
-229 -232 0
-229 -233 0
-229 -234 0
-229 -235 0
-229 -236 0
-229 -237 0
-229 -238 0
-230 -231 0
-230 -232 0
-230 -233 0
-230 -234 0
-230 -235 0
-230 -236 0
-230 -237 0
-230 -238 0
-231 -232 0
-231 -233 0
-231 -234 0
-231 -235 0
-231 -236 0
-231 -237 0
-231 -238 0
-232 -233 0
-232 -234 0
-232 -235 0
-232 -236 0
-232 -237 0
-232 -238 0
-233 -234 0
-233 -235 0
-233 -236 0
-233 -237 0
-233 -238 0
-234 -235 0
-234 -236 0
-234 -237 0
-234 -238 0
-235 -236 0
-235 -237 0
-235 -238 0
-236 -237 0
-236 -238 0
-237 -238 0
239 240 241 242 243 244 245 246 247 248 249 250 251 252 253 254 255 0
-239 -240 0
-239 -241 0
-239 -242 0
-239 -243 0
-239 -244 0
-239 -245 0
-239 -246 0
-239 -247 0
-239 -248 0
-239 -249 0
-239 -250 0
-239 -251 0
-239 -252 0
-239 -253 0
-239 -254 0
-239 -255 0
-240 -241 0
-240 -242 0
-240 -243 0
-240 -244 0
-240 -245 0
-240 -246 0
-240 -247 0
-240 -248 0
-240 -249 0
-240 -250 0
-240 -251 0
-240 -252 0
-240 -253 0
-240 -254 0
-240 -255 0
-241 -242 0
-241 -243 0
-241 -244 0
-241 -245 0
-241 -246 0
-241 -247 0
-241 -248 0
-241 -249 0
-241 -250 0
-241 -251 0
-241 -252 0
-241 -253 0
-241 -254 0
-241 -255 0
-242 -243 0
-242 -244 0
-242 -245 0
-242 -246 0
-242 -247 0
-242 -248 0
-242 -249 0
-242 -250 0
-242 -251 0
-242 -252 0
-242 -253 0
-242 -254 0
-242 -255 0
-243 -244 0
-243 -245 0
-243 -246 0
-243 -247 0
-243 -248 0
-243 -249 0
-243 -250 0
-243 -251 0
-243 -252 0
-243 -253 0
-243 -254 0
-243 -255 0
-244 -245 0
-244 -246 0
-244 -247 0
-244 -248 0
-244 -249 0
-244 -250 0
-244 -251 0
-244 -252 0
-244 -253 0
-244 -254 0
-244 -255 0
-245 -246 0
-245 -247 0
-245 -248 0
-245 -249 0
-245 -250 0
-245 -251 0
-245 -252 0
-245 -253 0
-245 -254 0
-245 -255 0
-246 -247 0
-246 -248 0
-246 -249 0
-246 -250 0
-246 -251 0
-246 -252 0
-246 -253 0
-246 -254 0
-246 -255 0
-247 -248 0
-247 -249 0
-247 -250 0
-247 -251 0
-247 -252 0
-247 -253 0
-247 -254 0
-247 -255 0
-248 -249 0
-248 -250 0
-248 -251 0
-248 -252 0
-248 -253 0
-248 -254 0
-248 -255 0
-249 -250 0
-249 -251 0
-249 -252 0
-249 -253 0
-249 -254 0
-249 -255 0
-250 -251 0
-250 -252 0
-250 -253 0
-250 -254 0
-250 -255 0
-251 -252 0
-251 -253 0
-251 -254 0
-251 -255 0
-252 -253 0
-252 -254 0
-252 -255 0
-253 -254 0
-253 -255 0
-254 -255 0
256 257 258 259 260 261 262 263 264 265 266 267 268 269 270 271 272 0
-256 -257 0
-256 -258 0
-256 -259 0
-256 -260 0
-256 -261 0
-256 -262 0
-256 -263 0
-256 -264 0
-256 -265 0
-256 -266 0
-256 -267 0
-256 -268 0
-256 -269 0
-256 -270 0
-256 -271 0
-256 -272 0
-257 -258 0
-257 -259 0
-257 -260 0
-257 -261 0
-257 -262 0
-257 -263 0
-257 -264 0
-257 -265 0
-257 -266 0
-257 -267 0
-257 -268 0
-257 -269 0
-257 -270 0
-257 -271 0
-257 -272 0
-258 -259 0
-258 -260 0
-258 -261 0
-258 -262 0
-258 -263 0
-258 -264 0
-258 -265 0
-258 -266 0
-258 -267 0
-258 -268 0
-258 -269 0
-258 -270 0
-258 -271 0
-258 -272 0
-259 -260 0
-259 -261 0
-259 -262 0
-259 -263 0
-259 -264 0
-259 -265 0
-259 -266 0
-259 -267 0
-259 -268 0
-259 -269 0
-259 -270 0
-259 -271 0
-259 -272 0
-260 -261 0
-260 -262 0
-260 -263 0
-260 -264 0
-260 -265 0
-260 -266 0
-260 -267 0
-260 -268 0
-260 -269 0
-260 -270 0
-260 -271 0
-260 -272 0
-261 -262 0
-261 -263 0
-261 -264 0
-261 -265 0
-261 -266 0
-261 -267 0
-261 -268 0
-261 -269 0
-261 -270 0
-261 -271 0
-261 -272 0
-262 -263 0
-262 -264 0
-262 -265 0
-262 -266 0
-262 -267 0
-262 -268 0
-262 -269 0
-262 -270 0
-262 -271 0
-262 -272 0
-263 -264 0
-263 -265 0
-263 -266 0
-263 -267 0
-263 -268 0
-263 -269 0
-263 -270 0
-263 -271 0
-263 -272 0
-264 -265 0
-264 -266 0
-264 -267 0
-264 -268 0
-264 -269 0
-264 -270 0
-264 -271 0
-264 -272 0
-265 -266 0
-265 -267 0
-265 -268 0
-265 -269 0
-265 -270 0
-265 -271 0
-265 -272 0
-266 -267 0
-266 -268 0
-266 -269 0
-266 -270 0
-266 -271 0
-266 -272 0
-267 -268 0
-267 -269 0
-267 -270 0
-267 -271 0
-267 -272 0
-268 -269 0
-268 -270 0
-268 -271 0
-268 -272 0
-269 -270 0
-269 -271 0
-269 -272 0
-270 -271 0
-270 -272 0
-271 -272 0
273 274 275 276 277 278 279 280 281 282 283 284 285 286 287 288 289 0
-273 -274 0
-273 -275 0
-273 -276 0
-273 -277 0
-273 -278 0
-273 -279 0
-273 -280 0
-273 -281 0
-273 -282 0
-273 -283 0
-273 -284 0
-273 -285 0
-273 -286 0
-273 -287 0
-273 -288 0
-273 -289 0
-274 -275 0
-274 -276 0
-274 -277 0
-274 -278 0
-274 -279 0
-274 -280 0
-274 -281 0
-274 -282 0
-274 -283 0
-274 -284 0
-274 -285 0
-274 -286 0
-274 -287 0
-274 -288 0
-274 -289 0
-275 -276 0
-275 -277 0
-275 -278 0
-275 -279 0
-275 -280 0
-275 -281 0
-275 -282 0
-275 -283 0
-275 -284 0
-275 -285 0
-275 -286 0
-275 -287 0
-275 -288 0
-275 -289 0
-276 -277 0
-276 -278 0
-276 -279 0
-276 -280 0
-276 -281 0
-276 -282 0
-276 -283 0
-276 -284 0
-276 -285 0
-276 -286 0
-276 -287 0
-276 -288 0
-276 -289 0
-277 -278 0
-277 -279 0
-277 -280 0
-277 -281 0
-277 -282 0
-277 -283 0
-277 -284 0
-277 -285 0
-277 -286 0
-277 -287 0
-277 -288 0
-277 -289 0
-278 -279 0
-278 -280 0
-278 -281 0
-278 -282 0
-278 -283 0
-278 -284 0
-278 -285 0
-278 -286 0
-278 -287 0
-278 -288 0
-278 -289 0
-279 -280 0
-279 -281 0
-279 -282 0
-279 -283 0
-279 -284 0
-279 -285 0
-279 -286 0
-279 -287 0
-279 -288 0
-279 -289 0
-280 -281 0
-280 -282 0
-280 -283 0
-280 -284 0
-280 -285 0
-280 -286 0
-280 -287 0
-280 -288 0
-280 -289 0
-281 -282 0
-281 -283 0
-281 -284 0
-281 -285 0
-281 -286 0
-281 -287 0
-281 -288 0
-281 -289 0
-282 -283 0
-282 -284 0
-282 -285 0
-282 -286 0
-282 -287 0
-282 -288 0
-282 -289 0
-283 -284 0
-283 -285 0
-283 -286 0
-283 -287 0
-283 -288 0
-283 -289 0
-284 -285 0
-284 -286 0
-284 -287 0
-284 -288 0
-284 -289 0
-285 -286 0
-285 -287 0
-285 -288 0
-285 -289 0
-286 -287 0
-286 -288 0
-286 -289 0
-287 -288 0
-287 -289 0
-288 -289 0
290 291 292 293 294 295 296 297 298 299 300 301 302 303 304 305 306 0
-290 -291 0
-290 -292 0
-290 -293 0
-290 -294 0
-290 -295 0
-290 -296 0
-290 -297 0
-290 -298 0
-290 -299 0
-290 -300 0
-290 -301 0
-290 -302 0
-290 -303 0
-290 -304 0
-290 -305 0
-290 -306 0
-291 -292 0
-291 -293 0
-291 -294 0
-291 -295 0
-291 -296 0
-291 -297 0
-291 -298 0
-291 -299 0
-291 -300 0
-291 -301 0
-291 -302 0
-291 -303 0
-291 -304 0
-291 -305 0
-291 -306 0
-292 -293 0
-292 -294 0
-292 -295 0
-292 -296 0
-292 -297 0
-292 -298 0
-292 -299 0
-292 -300 0
-292 -301 0
-292 -302 0
-292 -303 0
-292 -304 0
-292 -305 0
-292 -306 0
-293 -294 0
-293 -295 0
-293 -296 0
-293 -297 0
-293 -298 0
-293 -299 0
-293 -300 0
-293 -301 0
-293 -302 0
-293 -303 0
-293 -304 0
-293 -305 0
-293 -306 0
-294 -295 0
-294 -296 0
-294 -297 0
-294 -298 0
-294 -299 0
-294 -300 0
-294 -301 0
-294 -302 0
-294 -303 0
-294 -304 0
-294 -305 0
-294 -306 0
-295 -296 0
-295 -297 0
-295 -298 0
-295 -299 0
-295 -300 0
-295 -301 0
-295 -302 0
-295 -303 0
-295 -304 0
-295 -305 0
-295 -306 0
-296 -297 0
-296 -298 0
-296 -299 0
-296 -300 0
-296 -301 0
-296 -302 0
-296 -303 0
-296 -304 0
-296 -305 0
-296 -306 0
-297 -298 0
-297 -299 0
-297 -300 0
-297 -301 0
-297 -302 0
-297 -303 0
-297 -304 0
-297 -305 0
-297 -306 0
-298 -299 0
-298 -300 0
-298 -301 0
-298 -302 0
-298 -303 0
-298 -304 0
-298 -305 0
-298 -306 0
-299 -300 0
-299 -301 0
-299 -302 0
-299 -303 0
-299 -304 0
-299 -305 0
-299 -306 0
-300 -301 0
-300 -302 0
-300 -303 0
-300 -304 0
-300 -305 0
-300 -306 0
-301 -302 0
-301 -303 0
-301 -304 0
-301 -305 0
-301 -306 0
-302 -303 0
-302 -304 0
-302 -305 0
-302 -306 0
-303 -304 0
-303 -305 0
-303 -306 0
-304 -305 0
-304 -306 0
-305 -306 0
307 308 309 310 311 312 313 314 315 316 317 318 319 320 321 322 323 0
-307 -308 0
-307 -309 0
-307 -310 0
-307 -311 0
-307 -312 0
-307 -313 0
-307 -314 0
-307 -315 0
-307 -316 0
-307 -317 0
-307 -318 0
-307 -319 0
-307 -320 0
-307 -321 0
-307 -322 0
-307 -323 0
-308 -309 0
-308 -310 0
-308 -311 0
-308 -312 0
-308 -313 0
-308 -314 0
-308 -315 0
-308 -316 0
-308 -317 0
-308 -318 0
-308 -319 0
-308 -320 0
-308 -321 0
-308 -322 0
-308 -323 0
-309 -310 0
-309 -311 0
-309 -312 0
-309 -313 0
-309 -314 0
-309 -315 0
-309 -316 0
-309 -317 0
-309 -318 0
-309 -319 0
-309 -320 0
-309 -321 0
-309 -322 0
-309 -323 0
-310 -311 0
-310 -312 0
-310 -313 0
-310 -314 0
-310 -315 0
-310 -316 0
-310 -317 0
-310 -318 0
-310 -319 0
-310 -320 0
-310 -321 0
-310 -322 0
-310 -323 0
-311 -312 0
-311 -313 0
-311 -314 0
-311 -315 0
-311 -316 0
-311 -317 0
-311 -318 0
-311 -319 0
-311 -320 0
-311 -321 0
-311 -322 0
-311 -323 0
-312 -313 0
-312 -314 0
-312 -315 0
-312 -316 0
-312 -317 0
-312 -318 0
-312 -319 0
-312 -320 0
-312 -321 0
-312 -322 0
-312 -323 0
-313 -314 0
-313 -315 0
-313 -316 0
-313 -317 0
-313 -318 0
-313 -319 0
-313 -320 0
-313 -321 0
-313 -322 0
-313 -323 0
-314 -315 0
-314 -316 0
-314 -317 0
-314 -318 0
-314 -319 0
-314 -320 0
-314 -321 0
-314 -322 0
-314 -323 0
-315 -316 0
-315 -317 0
-315 -318 0
-315 -319 0
-315 -320 0
-315 -321 0
-315 -322 0
-315 -323 0
-316 -317 0
-316 -318 0
-316 -319 0
-316 -320 0
-316 -321 0
-316 -322 0
-316 -323 0
-317 -318 0
-317 -319 0
-317 -320 0
-317 -321 0
-317 -322 0
-317 -323 0
-318 -319 0
-318 -320 0
-318 -321 0
-318 -322 0
-318 -323 0
-319 -320 0
-319 -321 0
-319 -322 0
-319 -323 0
-320 -321 0
-320 -322 0
-320 -323 0
-321 -322 0
-321 -323 0
-322 -323 0
324 325 326 327 328 329 330 331 332 333 334 335 336 337 338 339 340 0
-324 -325 0
-324 -326 0
-324 -327 0
-324 -328 0
-324 -329 0
-324 -330 0
-324 -331 0
-324 -332 0
-324 -333 0
-324 -334 0
-324 -335 0
-324 -336 0
-324 -337 0
-324 -338 0
-324 -339 0
-324 -340 0
-325 -326 0
-325 -327 0
-325 -328 0
-325 -329 0
-325 -330 0
-325 -331 0
-325 -332 0
-325 -333 0
-325 -334 0
-325 -335 0
-325 -336 0
-325 -337 0
-325 -338 0
-325 -339 0
-325 -340 0
-326 -327 0
-326 -328 0
-326 -329 0
-326 -330 0
-326 -331 0
-326 -332 0
-326 -333 0
-326 -334 0
-326 -335 0
-326 -336 0
-326 -337 0
-326 -338 0
-326 -339 0
-326 -340 0
-327 -328 0
-327 -329 0
-327 -330 0
-327 -331 0
-327 -332 0
-327 -333 0
-327 -334 0
-327 -335 0
-327 -336 0
-327 -337 0
-327 -338 0
-327 -339 0
-327 -340 0
-328 -329 0
-328 -330 0
-328 -331 0
-328 -332 0
-328 -333 0
-328 -334 0
-328 -335 0
-328 -336 0
-328 -337 0
-328 -338 0
-328 -339 0
-328 -340 0
-329 -330 0
-329 -331 0
-329 -332 0
-329 -333 0
-329 -334 0
-329 -335 0
-329 -336 0
-329 -337 0
-329 -338 0
-329 -339 0
-329 -340 0
-330 -331 0
-330 -332 0
-330 -333 0
-330 -334 0
-330 -335 0
-330 -336 0
-330 -337 0
-330 -338 0
-330 -339 0
-330 -340 0
-331 -332 0
-331 -333 0
-331 -334 0
-331 -335 0
-331 -336 0
-331 -337 0
-331 -338 0
-331 -339 0
-331 -340 0
-332 -333 0
-332 -334 0
-332 -335 0
-332 -336 0
-332 -337 0
-332 -338 0
-332 -339 0
-332 -340 0
-333 -334 0
-333 -335 0
-333 -336 0
-333 -337 0
-333 -338 0
-333 -339 0
-333 -340 0
-334 -335 0
-334 -336 0
-334 -337 0
-334 -338 0
-334 -339 0
-334 -340 0
-335 -336 0
-335 -337 0
-335 -338 0
-335 -339 0
-335 -340 0
-336 -337 0
-336 -338 0
-336 -339 0
-336 -340 0
-337 -338 0
-337 -339 0
-337 -340 0
-338 -339 0
-338 -340 0
-339 -340 0
341 342 343 344 345 346 347 348 349 350 351 352 353 354 355 356 357 0
-341 -342 0
-341 -343 0
-341 -344 0
-341 -345 0
-341 -346 0
-341 -347 0
-341 -348 0
-341 -349 0
-341 -350 0
-341 -351 0
-341 -352 0
-341 -353 0
-341 -354 0
-341 -355 0
-341 -356 0
-341 -357 0
-342 -343 0
-342 -344 0
-342 -345 0
-342 -346 0
-342 -347 0
-342 -348 0
-342 -349 0
-342 -350 0
-342 -351 0
-342 -352 0
-342 -353 0
-342 -354 0
-342 -355 0
-342 -356 0
-342 -357 0
-343 -344 0
-343 -345 0
-343 -346 0
-343 -347 0
-343 -348 0
-343 -349 0
-343 -350 0
-343 -351 0
-343 -352 0
-343 -353 0
-343 -354 0
-343 -355 0
-343 -356 0
-343 -357 0
-344 -345 0
-344 -346 0
-344 -347 0
-344 -348 0
-344 -349 0
-344 -350 0
-344 -351 0
-344 -352 0
-344 -353 0
-344 -354 0
-344 -355 0
-344 -356 0
-344 -357 0
-345 -346 0
-345 -347 0
-345 -348 0
-345 -349 0
-345 -350 0
-345 -351 0
-345 -352 0
-345 -353 0
-345 -354 0
-345 -355 0
-345 -356 0
-345 -357 0
-346 -347 0
-346 -348 0
-346 -349 0
-346 -350 0
-346 -351 0
-346 -352 0
-346 -353 0
-346 -354 0
-346 -355 0
-346 -356 0
-346 -357 0
-347 -348 0
-347 -349 0
-347 -350 0
-347 -351 0
-347 -352 0
-347 -353 0
-347 -354 0
-347 -355 0
-347 -356 0
-347 -357 0
-348 -349 0
-348 -350 0
-348 -351 0
-348 -352 0
-348 -353 0
-348 -354 0
-348 -355 0
-348 -356 0
-348 -357 0
-349 -350 0
-349 -351 0
-349 -352 0
-349 -353 0
-349 -354 0
-349 -355 0
-349 -356 0
-349 -357 0
-350 -351 0
-350 -352 0
-350 -353 0
-350 -354 0
-350 -355 0
-350 -356 0
-350 -357 0
-351 -352 0
-351 -353 0
-351 -354 0
-351 -355 0
-351 -356 0
-351 -357 0
-352 -353 0
-352 -354 0
-352 -355 0
-352 -356 0
-352 -357 0
-353 -354 0
-353 -355 0
-353 -356 0
-353 -357 0
-354 -355 0
-354 -356 0
-354 -357 0
-355 -356 0
-355 -357 0
-356 -357 0
358 359 360 361 362 363 364 365 366 367 368 369 370 371 372 373 374 0
-358 -359 0
-358 -360 0
-358 -361 0
-358 -362 0
-358 -363 0
-358 -364 0
-358 -365 0
-358 -366 0
-358 -367 0
-358 -368 0
-358 -369 0
-358 -370 0
-358 -371 0
-358 -372 0
-358 -373 0
-358 -374 0
-359 -360 0
-359 -361 0
-359 -362 0
-359 -363 0
-359 -364 0
-359 -365 0
-359 -366 0
-359 -367 0
-359 -368 0
-359 -369 0
-359 -370 0
-359 -371 0
-359 -372 0
-359 -373 0
-359 -374 0
-360 -361 0
-360 -362 0
-360 -363 0
-360 -364 0
-360 -365 0
-360 -366 0
-360 -367 0
-360 -368 0
-360 -369 0
-360 -370 0
-360 -371 0
-360 -372 0
-360 -373 0
-360 -374 0
-361 -362 0
-361 -363 0
-361 -364 0
-361 -365 0
-361 -366 0
-361 -367 0
-361 -368 0
-361 -369 0
-361 -370 0
-361 -371 0
-361 -372 0
-361 -373 0
-361 -374 0
-362 -363 0
-362 -364 0
-362 -365 0
-362 -366 0
-362 -367 0
-362 -368 0
-362 -369 0
-362 -370 0
-362 -371 0
-362 -372 0
-362 -373 0
-362 -374 0
-363 -364 0
-363 -365 0
-363 -366 0
-363 -367 0
-363 -368 0
-363 -369 0
-363 -370 0
-363 -371 0
-363 -372 0
-363 -373 0
-363 -374 0
-364 -365 0
-364 -366 0
-364 -367 0
-364 -368 0
-364 -369 0
-364 -370 0
-364 -371 0
-364 -372 0
-364 -373 0
-364 -374 0
-365 -366 0
-365 -367 0
-365 -368 0
-365 -369 0
-365 -370 0
-365 -371 0
-365 -372 0
-365 -373 0
-365 -374 0
-366 -367 0
-366 -368 0
-366 -369 0
-366 -370 0
-366 -371 0
-366 -372 0
-366 -373 0
-366 -374 0
-367 -368 0
-367 -369 0
-367 -370 0
-367 -371 0
-367 -372 0
-367 -373 0
-367 -374 0
-368 -369 0
-368 -370 0
-368 -371 0
-368 -372 0
-368 -373 0
-368 -374 0
-369 -370 0
-369 -371 0
-369 -372 0
-369 -373 0
-369 -374 0
-370 -371 0
-370 -372 0
-370 -373 0
-370 -374 0
-371 -372 0
-371 -373 0
-371 -374 0
-372 -373 0
-372 -374 0
-373 -374 0
375 376 377 378 379 380 381 382 383 384 385 386 387 388 389 390 391 0
-375 -376 0
-375 -377 0
-375 -378 0
-375 -379 0
-375 -380 0
-375 -381 0
-375 -382 0
-375 -383 0
-375 -384 0
-375 -385 0
-375 -386 0
-375 -387 0
-375 -388 0
-375 -389 0
-375 -390 0
-375 -391 0
-376 -377 0
-376 -378 0
-376 -379 0
-376 -380 0
-376 -381 0
-376 -382 0
-376 -383 0
-376 -384 0
-376 -385 0
-376 -386 0
-376 -387 0
-376 -388 0
-376 -389 0
-376 -390 0
-376 -391 0
-377 -378 0
-377 -379 0
-377 -380 0
-377 -381 0
-377 -382 0
-377 -383 0
-377 -384 0
-377 -385 0
-377 -386 0
-377 -387 0
-377 -388 0
-377 -389 0
-377 -390 0
-377 -391 0
-378 -379 0
-378 -380 0
-378 -381 0
-378 -382 0
-378 -383 0
-378 -384 0
-378 -385 0
-378 -386 0
-378 -387 0
-378 -388 0
-378 -389 0
-378 -390 0
-378 -391 0
-379 -380 0
-379 -381 0
-379 -382 0
-379 -383 0
-379 -384 0
-379 -385 0
-379 -386 0
-379 -387 0
-379 -388 0
-379 -389 0
-379 -390 0
-379 -391 0
-380 -381 0
-380 -382 0
-380 -383 0
-380 -384 0
-380 -385 0
-380 -386 0
-380 -387 0
-380 -388 0
-380 -389 0
-380 -390 0
-380 -391 0
-381 -382 0
-381 -383 0
-381 -384 0
-381 -385 0
-381 -386 0
-381 -387 0
-381 -388 0
-381 -389 0
-381 -390 0
-381 -391 0
-382 -383 0
-382 -384 0
-382 -385 0
-382 -386 0
-382 -387 0
-382 -388 0
-382 -389 0
-382 -390 0
-382 -391 0
-383 -384 0
-383 -385 0
-383 -386 0
-383 -387 0
-383 -388 0
-383 -389 0
-383 -390 0
-383 -391 0
-384 -385 0
-384 -386 0
-384 -387 0
-384 -388 0
-384 -389 0
-384 -390 0
-384 -391 0
-385 -386 0
-385 -387 0
-385 -388 0
-385 -389 0
-385 -390 0
-385 -391 0
-386 -387 0
-386 -388 0
-386 -389 0
-386 -390 0
-386 -391 0
-387 -388 0
-387 -389 0
-387 -390 0
-387 -391 0
-388 -389 0
-388 -390 0
-388 -391 0
-389 -390 0
-389 -391 0
-390 -391 0
392 393 394 395 396 397 398 399 400 401 402 403 404 405 406 407 408 0
-392 -393 0
-392 -394 0
-392 -395 0
-392 -396 0
-392 -397 0
-392 -398 0
-392 -399 0
-392 -400 0
-392 -401 0
-392 -402 0
-392 -403 0
-392 -404 0
-392 -405 0
-392 -406 0
-392 -407 0
-392 -408 0
-393 -394 0
-393 -395 0
-393 -396 0
-393 -397 0
-393 -398 0
-393 -399 0
-393 -400 0
-393 -401 0
-393 -402 0
-393 -403 0
-393 -404 0
-393 -405 0
-393 -406 0
-393 -407 0
-393 -408 0
-394 -395 0
-394 -396 0
-394 -397 0
-394 -398 0
-394 -399 0
-394 -400 0
-394 -401 0
-394 -402 0
-394 -403 0
-394 -404 0
-394 -405 0
-394 -406 0
-394 -407 0
-394 -408 0
-395 -396 0
-395 -397 0
-395 -398 0
-395 -399 0
-395 -400 0
-395 -401 0
-395 -402 0
-395 -403 0
-395 -404 0
-395 -405 0
-395 -406 0
-395 -407 0
-395 -408 0
-396 -397 0
-396 -398 0
-396 -399 0
-396 -400 0
-396 -401 0
-396 -402 0
-396 -403 0
-396 -404 0
-396 -405 0
-396 -406 0
-396 -407 0
-396 -408 0
-397 -398 0
-397 -399 0
-397 -400 0
-397 -401 0
-397 -402 0
-397 -403 0
-397 -404 0
-397 -405 0
-397 -406 0
-397 -407 0
-397 -408 0
-398 -399 0
-398 -400 0
-398 -401 0
-398 -402 0
-398 -403 0
-398 -404 0
-398 -405 0
-398 -406 0
-398 -407 0
-398 -408 0
-399 -400 0
-399 -401 0
-399 -402 0
-399 -403 0
-399 -404 0
-399 -405 0
-399 -406 0
-399 -407 0
-399 -408 0
-400 -401 0
-400 -402 0
-400 -403 0
-400 -404 0
-400 -405 0
-400 -406 0
-400 -407 0
-400 -408 0
-401 -402 0
-401 -403 0
-401 -404 0
-401 -405 0
-401 -406 0
-401 -407 0
-401 -408 0
-402 -403 0
-402 -404 0
-402 -405 0
-402 -406 0
-402 -407 0
-402 -408 0
-403 -404 0
-403 -405 0
-403 -406 0
-403 -407 0
-403 -408 0
-404 -405 0
-404 -406 0
-404 -407 0
-404 -408 0
-405 -406 0
-405 -407 0
-405 -408 0
-406 -407 0
-406 -408 0
-407 -408 0
409 410 411 412 413 414 415 416 417 418 419 420 421 422 423 424 425 0
-409 -410 0
-409 -411 0
-409 -412 0
-409 -413 0
-409 -414 0
-409 -415 0
-409 -416 0
-409 -417 0
-409 -418 0
-409 -419 0
-409 -420 0
-409 -421 0
-409 -422 0
-409 -423 0
-409 -424 0
-409 -425 0
-410 -411 0
-410 -412 0
-410 -413 0
-410 -414 0
-410 -415 0
-410 -416 0
-410 -417 0
-410 -418 0
-410 -419 0
-410 -420 0
-410 -421 0
-410 -422 0
-410 -423 0
-410 -424 0
-410 -425 0
-411 -412 0
-411 -413 0
-411 -414 0
-411 -415 0
-411 -416 0
-411 -417 0
-411 -418 0
-411 -419 0
-411 -420 0
-411 -421 0
-411 -422 0
-411 -423 0
-411 -424 0
-411 -425 0
-412 -413 0
-412 -414 0
-412 -415 0
-412 -416 0
-412 -417 0
-412 -418 0
-412 -419 0
-412 -420 0
-412 -421 0
-412 -422 0
-412 -423 0
-412 -424 0
-412 -425 0
-413 -414 0
-413 -415 0
-413 -416 0
-413 -417 0
-413 -418 0
-413 -419 0
-413 -420 0
-413 -421 0
-413 -422 0
-413 -423 0
-413 -424 0
-413 -425 0
-414 -415 0
-414 -416 0
-414 -417 0
-414 -418 0
-414 -419 0
-414 -420 0
-414 -421 0
-414 -422 0
-414 -423 0
-414 -424 0
-414 -425 0
-415 -416 0
-415 -417 0
-415 -418 0
-415 -419 0
-415 -420 0
-415 -421 0
-415 -422 0
-415 -423 0
-415 -424 0
-415 -425 0
-416 -417 0
-416 -418 0
-416 -419 0
-416 -420 0
-416 -421 0
-416 -422 0
-416 -423 0
-416 -424 0
-416 -425 0
-417 -418 0
-417 -419 0
-417 -420 0
-417 -421 0
-417 -422 0
-417 -423 0
-417 -424 0
-417 -425 0
-418 -419 0
-418 -420 0
-418 -421 0
-418 -422 0
-418 -423 0
-418 -424 0
-418 -425 0
-419 -420 0
-419 -421 0
-419 -422 0
-419 -423 0
-419 -424 0
-419 -425 0
-420 -421 0
-420 -422 0
-420 -423 0
-420 -424 0
-420 -425 0
-421 -422 0
-421 -423 0
-421 -424 0
-421 -425 0
-422 -423 0
-422 -424 0
-422 -425 0
-423 -424 0
-423 -425 0
-424 -425 0
426 427 428 429 430 431 432 433 434 435 436 437 438 439 440 441 442 0
-426 -427 0
-426 -428 0
-426 -429 0
-426 -430 0
-426 -431 0
-426 -432 0
-426 -433 0
-426 -434 0
-426 -435 0
-426 -436 0
-426 -437 0
-426 -438 0
-426 -439 0
-426 -440 0
-426 -441 0
-426 -442 0
-427 -428 0
-427 -429 0
-427 -430 0
-427 -431 0
-427 -432 0
-427 -433 0
-427 -434 0
-427 -435 0
-427 -436 0
-427 -437 0
-427 -438 0
-427 -439 0
-427 -440 0
-427 -441 0
-427 -442 0
-428 -429 0
-428 -430 0
-428 -431 0
-428 -432 0
-428 -433 0
-428 -434 0
-428 -435 0
-428 -436 0
-428 -437 0
-428 -438 0
-428 -439 0
-428 -440 0
-428 -441 0
-428 -442 0
-429 -430 0
-429 -431 0
-429 -432 0
-429 -433 0
-429 -434 0
-429 -435 0
-429 -436 0
-429 -437 0
-429 -438 0
-429 -439 0
-429 -440 0
-429 -441 0
-429 -442 0
-430 -431 0
-430 -432 0
-430 -433 0
-430 -434 0
-430 -435 0
-430 -436 0
-430 -437 0
-430 -438 0
-430 -439 0
-430 -440 0
-430 -441 0
-430 -442 0
-431 -432 0
-431 -433 0
-431 -434 0
-431 -435 0
-431 -436 0
-431 -437 0
-431 -438 0
-431 -439 0
-431 -440 0
-431 -441 0
-431 -442 0
-432 -433 0
-432 -434 0
-432 -435 0
-432 -436 0
-432 -437 0
-432 -438 0
-432 -439 0
-432 -440 0
-432 -441 0
-432 -442 0
-433 -434 0
-433 -435 0
-433 -436 0
-433 -437 0
-433 -438 0
-433 -439 0
-433 -440 0
-433 -441 0
-433 -442 0
-434 -435 0
-434 -436 0
-434 -437 0
-434 -438 0
-434 -439 0
-434 -440 0
-434 -441 0
-434 -442 0
-435 -436 0
-435 -437 0
-435 -438 0
-435 -439 0
-435 -440 0
-435 -441 0
-435 -442 0
-436 -437 0
-436 -438 0
-436 -439 0
-436 -440 0
-436 -441 0
-436 -442 0
-437 -438 0
-437 -439 0
-437 -440 0
-437 -441 0
-437 -442 0
-438 -439 0
-438 -440 0
-438 -441 0
-438 -442 0
-439 -440 0
-439 -441 0
-439 -442 0
-440 -441 0
-440 -442 0
-441 -442 0
443 444 445 446 447 448 449 450 451 452 453 454 455 456 457 458 459 0
-443 -444 0
-443 -445 0
-443 -446 0
-443 -447 0
-443 -448 0
-443 -449 0
-443 -450 0
-443 -451 0
-443 -452 0
-443 -453 0
-443 -454 0
-443 -455 0
-443 -456 0
-443 -457 0
-443 -458 0
-443 -459 0
-444 -445 0
-444 -446 0
-444 -447 0
-444 -448 0
-444 -449 0
-444 -450 0
-444 -451 0
-444 -452 0
-444 -453 0
-444 -454 0
-444 -455 0
-444 -456 0
-444 -457 0
-444 -458 0
-444 -459 0
-445 -446 0
-445 -447 0
-445 -448 0
-445 -449 0
-445 -450 0
-445 -451 0
-445 -452 0
-445 -453 0
-445 -454 0
-445 -455 0
-445 -456 0
-445 -457 0
-445 -458 0
-445 -459 0
-446 -447 0
-446 -448 0
-446 -449 0
-446 -450 0
-446 -451 0
-446 -452 0
-446 -453 0
-446 -454 0
-446 -455 0
-446 -456 0
-446 -457 0
-446 -458 0
-446 -459 0
-447 -448 0
-447 -449 0
-447 -450 0
-447 -451 0
-447 -452 0
-447 -453 0
-447 -454 0
-447 -455 0
-447 -456 0
-447 -457 0
-447 -458 0
-447 -459 0
-448 -449 0
-448 -450 0
-448 -451 0
-448 -452 0
-448 -453 0
-448 -454 0
-448 -455 0
-448 -456 0
-448 -457 0
-448 -458 0
-448 -459 0
-449 -450 0
-449 -451 0
-449 -452 0
-449 -453 0
-449 -454 0
-449 -455 0
-449 -456 0
-449 -457 0
-449 -458 0
-449 -459 0
-450 -451 0
-450 -452 0
-450 -453 0
-450 -454 0
-450 -455 0
-450 -456 0
-450 -457 0
-450 -458 0
-450 -459 0
-451 -452 0
-451 -453 0
-451 -454 0
-451 -455 0
-451 -456 0
-451 -457 0
-451 -458 0
-451 -459 0
-452 -453 0
-452 -454 0
-452 -455 0
-452 -456 0
-452 -457 0
-452 -458 0
-452 -459 0
-453 -454 0
-453 -455 0
-453 -456 0
-453 -457 0
-453 -458 0
-453 -459 0
-454 -455 0
-454 -456 0
-454 -457 0
-454 -458 0
-454 -459 0
-455 -456 0
-455 -457 0
-455 -458 0
-455 -459 0
-456 -457 0
-456 -458 0
-456 -459 0
-457 -458 0
-457 -459 0
-458 -459 0
460 461 462 463 464 465 466 467 468 469 470 471 472 473 474 475 476 0
-460 -461 0
-460 -462 0
-460 -463 0
-460 -464 0
-460 -465 0
-460 -466 0
-460 -467 0
-460 -468 0
-460 -469 0
-460 -470 0
-460 -471 0
-460 -472 0
-460 -473 0
-460 -474 0
-460 -475 0
-460 -476 0
-461 -462 0
-461 -463 0
-461 -464 0
-461 -465 0
-461 -466 0
-461 -467 0
-461 -468 0
-461 -469 0
-461 -470 0
-461 -471 0
-461 -472 0
-461 -473 0
-461 -474 0
-461 -475 0
-461 -476 0
-462 -463 0
-462 -464 0
-462 -465 0
-462 -466 0
-462 -467 0
-462 -468 0
-462 -469 0
-462 -470 0
-462 -471 0
-462 -472 0
-462 -473 0
-462 -474 0
-462 -475 0
-462 -476 0
-463 -464 0
-463 -465 0
-463 -466 0
-463 -467 0
-463 -468 0
-463 -469 0
-463 -470 0
-463 -471 0
-463 -472 0
-463 -473 0
-463 -474 0
-463 -475 0
-463 -476 0
-464 -465 0
-464 -466 0
-464 -467 0
-464 -468 0
-464 -469 0
-464 -470 0
-464 -471 0
-464 -472 0
-464 -473 0
-464 -474 0
-464 -475 0
-464 -476 0
-465 -466 0
-465 -467 0
-465 -468 0
-465 -469 0
-465 -470 0
-465 -471 0
-465 -472 0
-465 -473 0
-465 -474 0
-465 -475 0
-465 -476 0
-466 -467 0
-466 -468 0
-466 -469 0
-466 -470 0
-466 -471 0
-466 -472 0
-466 -473 0
-466 -474 0
-466 -475 0
-466 -476 0
-467 -468 0
-467 -469 0
-467 -470 0
-467 -471 0
-467 -472 0
-467 -473 0
-467 -474 0
-467 -475 0
-467 -476 0
-468 -469 0
-468 -470 0
-468 -471 0
-468 -472 0
-468 -473 0
-468 -474 0
-468 -475 0
-468 -476 0
-469 -470 0
-469 -471 0
-469 -472 0
-469 -473 0
-469 -474 0
-469 -475 0
-469 -476 0
-470 -471 0
-470 -472 0
-470 -473 0
-470 -474 0
-470 -475 0
-470 -476 0
-471 -472 0
-471 -473 0
-471 -474 0
-471 -475 0
-471 -476 0
-472 -473 0
-472 -474 0
-472 -475 0
-472 -476 0
-473 -474 0
-473 -475 0
-473 -476 0
-474 -475 0
-474 -476 0
-475 -476 0
477 478 479 480 481 482 483 484 485 486 487 488 489 490 491 492 493 0
-477 -478 0
-477 -479 0
-477 -480 0
-477 -481 0
-477 -482 0
-477 -483 0
-477 -484 0
-477 -485 0
-477 -486 0
-477 -487 0
-477 -488 0
-477 -489 0
-477 -490 0
-477 -491 0
-477 -492 0
-477 -493 0
-478 -479 0
-478 -480 0
-478 -481 0
-478 -482 0
-478 -483 0
-478 -484 0
-478 -485 0
-478 -486 0
-478 -487 0
-478 -488 0
-478 -489 0
-478 -490 0
-478 -491 0
-478 -492 0
-478 -493 0
-479 -480 0
-479 -481 0
-479 -482 0
-479 -483 0
-479 -484 0
-479 -485 0
-479 -486 0
-479 -487 0
-479 -488 0
-479 -489 0
-479 -490 0
-479 -491 0
-479 -492 0
-479 -493 0
-480 -481 0
-480 -482 0
-480 -483 0
-480 -484 0
-480 -485 0
-480 -486 0
-480 -487 0
-480 -488 0
-480 -489 0
-480 -490 0
-480 -491 0
-480 -492 0
-480 -493 0
-481 -482 0
-481 -483 0
-481 -484 0
-481 -485 0
-481 -486 0
-481 -487 0
-481 -488 0
-481 -489 0
-481 -490 0
-481 -491 0
-481 -492 0
-481 -493 0
-482 -483 0
-482 -484 0
-482 -485 0
-482 -486 0
-482 -487 0
-482 -488 0
-482 -489 0
-482 -490 0
-482 -491 0
-482 -492 0
-482 -493 0
-483 -484 0
-483 -485 0
-483 -486 0
-483 -487 0
-483 -488 0
-483 -489 0
-483 -490 0
-483 -491 0
-483 -492 0
-483 -493 0
-484 -485 0
-484 -486 0
-484 -487 0
-484 -488 0
-484 -489 0
-484 -490 0
-484 -491 0
-484 -492 0
-484 -493 0
-485 -486 0
-485 -487 0
-485 -488 0
-485 -489 0
-485 -490 0
-485 -491 0
-485 -492 0
-485 -493 0
-486 -487 0
-486 -488 0
-486 -489 0
-486 -490 0
-486 -491 0
-486 -492 0
-486 -493 0
-487 -488 0
-487 -489 0
-487 -490 0
-487 -491 0
-487 -492 0
-487 -493 0
-488 -489 0
-488 -490 0
-488 -491 0
-488 -492 0
-488 -493 0
-489 -490 0
-489 -491 0
-489 -492 0
-489 -493 0
-490 -491 0
-490 -492 0
-490 -493 0
-491 -492 0
-491 -493 0
-492 -493 0
494 495 496 497 498 499 500 501 502 503 504 505 506 507 508 509 510 0
-494 -495 0
-494 -496 0
-494 -497 0
-494 -498 0
-494 -499 0
-494 -500 0
-494 -501 0
-494 -502 0
-494 -503 0
-494 -504 0
-494 -505 0
-494 -506 0
-494 -507 0
-494 -508 0
-494 -509 0
-494 -510 0
-495 -496 0
-495 -497 0
-495 -498 0
-495 -499 0
-495 -500 0
-495 -501 0
-495 -502 0
-495 -503 0
-495 -504 0
-495 -505 0
-495 -506 0
-495 -507 0
-495 -508 0
-495 -509 0
-495 -510 0
-496 -497 0
-496 -498 0
-496 -499 0
-496 -500 0
-496 -501 0
-496 -502 0
-496 -503 0
-496 -504 0
-496 -505 0
-496 -506 0
-496 -507 0
-496 -508 0
-496 -509 0
-496 -510 0
-497 -498 0
-497 -499 0
-497 -500 0
-497 -501 0
-497 -502 0
-497 -503 0
-497 -504 0
-497 -505 0
-497 -506 0
-497 -507 0
-497 -508 0
-497 -509 0
-497 -510 0
-498 -499 0
-498 -500 0
-498 -501 0
-498 -502 0
-498 -503 0
-498 -504 0
-498 -505 0
-498 -506 0
-498 -507 0
-498 -508 0
-498 -509 0
-498 -510 0
-499 -500 0
-499 -501 0
-499 -502 0
-499 -503 0
-499 -504 0
-499 -505 0
-499 -506 0
-499 -507 0
-499 -508 0
-499 -509 0
-499 -510 0
-500 -501 0
-500 -502 0
-500 -503 0
-500 -504 0
-500 -505 0
-500 -506 0
-500 -507 0
-500 -508 0
-500 -509 0
-500 -510 0
-501 -502 0
-501 -503 0
-501 -504 0
-501 -505 0
-501 -506 0
-501 -507 0
-501 -508 0
-501 -509 0
-501 -510 0
-502 -503 0
-502 -504 0
-502 -505 0
-502 -506 0
-502 -507 0
-502 -508 0
-502 -509 0
-502 -510 0
-503 -504 0
-503 -505 0
-503 -506 0
-503 -507 0
-503 -508 0
-503 -509 0
-503 -510 0
-504 -505 0
-504 -506 0
-504 -507 0
-504 -508 0
-504 -509 0
-504 -510 0
-505 -506 0
-505 -507 0
-505 -508 0
-505 -509 0
-505 -510 0
-506 -507 0
-506 -508 0
-506 -509 0
-506 -510 0
-507 -508 0
-507 -509 0
-507 -510 0
-508 -509 0
-508 -510 0
-509 -510 0
511 512 513 514 515 516 517 518 519 520 521 522 523 524 525 526 527 0
-511 -512 0
-511 -513 0
-511 -514 0
-511 -515 0
-511 -516 0
-511 -517 0
-511 -518 0
-511 -519 0
-511 -520 0
-511 -521 0
-511 -522 0
-511 -523 0
-511 -524 0
-511 -525 0
-511 -526 0
-511 -527 0
-512 -513 0
-512 -514 0
-512 -515 0
-512 -516 0
-512 -517 0
-512 -518 0
-512 -519 0
-512 -520 0
-512 -521 0
-512 -522 0
-512 -523 0
-512 -524 0
-512 -525 0
-512 -526 0
-512 -527 0
-513 -514 0
-513 -515 0
-513 -516 0
-513 -517 0
-513 -518 0
-513 -519 0
-513 -520 0
-513 -521 0
-513 -522 0
-513 -523 0
-513 -524 0
-513 -525 0
-513 -526 0
-513 -527 0
-514 -515 0
-514 -516 0
-514 -517 0
-514 -518 0
-514 -519 0
-514 -520 0
-514 -521 0
-514 -522 0
-514 -523 0
-514 -524 0
-514 -525 0
-514 -526 0
-514 -527 0
-515 -516 0
-515 -517 0
-515 -518 0
-515 -519 0
-515 -520 0
-515 -521 0
-515 -522 0
-515 -523 0
-515 -524 0
-515 -525 0
-515 -526 0
-515 -527 0
-516 -517 0
-516 -518 0
-516 -519 0
-516 -520 0
-516 -521 0
-516 -522 0
-516 -523 0
-516 -524 0
-516 -525 0
-516 -526 0
-516 -527 0
-517 -518 0
-517 -519 0
-517 -520 0
-517 -521 0
-517 -522 0
-517 -523 0
-517 -524 0
-517 -525 0
-517 -526 0
-517 -527 0
-518 -519 0
-518 -520 0
-518 -521 0
-518 -522 0
-518 -523 0
-518 -524 0
-518 -525 0
-518 -526 0
-518 -527 0
-519 -520 0
-519 -521 0
-519 -522 0
-519 -523 0
-519 -524 0
-519 -525 0
-519 -526 0
-519 -527 0
-520 -521 0
-520 -522 0
-520 -523 0
-520 -524 0
-520 -525 0
-520 -526 0
-520 -527 0
-521 -522 0
-521 -523 0
-521 -524 0
-521 -525 0
-521 -526 0
-521 -527 0
-522 -523 0
-522 -524 0
-522 -525 0
-522 -526 0
-522 -527 0
-523 -524 0
-523 -525 0
-523 -526 0
-523 -527 0
-524 -525 0
-524 -526 0
-524 -527 0
-525 -526 0
-525 -527 0
-526 -527 0
528 529 530 531 532 533 534 535 536 537 538 539 540 541 542 543 544 0
-528 -529 0
-528 -530 0
-528 -531 0
-528 -532 0
-528 -533 0
-528 -534 0
-528 -535 0
-528 -536 0
-528 -537 0
-528 -538 0
-528 -539 0
-528 -540 0
-528 -541 0
-528 -542 0
-528 -543 0
-528 -544 0
-529 -530 0
-529 -531 0
-529 -532 0
-529 -533 0
-529 -534 0
-529 -535 0
-529 -536 0
-529 -537 0
-529 -538 0
-529 -539 0
-529 -540 0
-529 -541 0
-529 -542 0
-529 -543 0
-529 -544 0
-530 -531 0
-530 -532 0
-530 -533 0
-530 -534 0
-530 -535 0
-530 -536 0
-530 -537 0
-530 -538 0
-530 -539 0
-530 -540 0
-530 -541 0
-530 -542 0
-530 -543 0
-530 -544 0
-531 -532 0
-531 -533 0
-531 -534 0
-531 -535 0
-531 -536 0
-531 -537 0
-531 -538 0
-531 -539 0
-531 -540 0
-531 -541 0
-531 -542 0
-531 -543 0
-531 -544 0
-532 -533 0
-532 -534 0
-532 -535 0
-532 -536 0
-532 -537 0
-532 -538 0
-532 -539 0
-532 -540 0
-532 -541 0
-532 -542 0
-532 -543 0
-532 -544 0
-533 -534 0
-533 -535 0
-533 -536 0
-533 -537 0
-533 -538 0
-533 -539 0
-533 -540 0
-533 -541 0
-533 -542 0
-533 -543 0
-533 -544 0
-534 -535 0
-534 -536 0
-534 -537 0
-534 -538 0
-534 -539 0
-534 -540 0
-534 -541 0
-534 -542 0
-534 -543 0
-534 -544 0
-535 -536 0
-535 -537 0
-535 -538 0
-535 -539 0
-535 -540 0
-535 -541 0
-535 -542 0
-535 -543 0
-535 -544 0
-536 -537 0
-536 -538 0
-536 -539 0
-536 -540 0
-536 -541 0
-536 -542 0
-536 -543 0
-536 -544 0
-537 -538 0
-537 -539 0
-537 -540 0
-537 -541 0
-537 -542 0
-537 -543 0
-537 -544 0
-538 -539 0
-538 -540 0
-538 -541 0
-538 -542 0
-538 -543 0
-538 -544 0
-539 -540 0
-539 -541 0
-539 -542 0
-539 -543 0
-539 -544 0
-540 -541 0
-540 -542 0
-540 -543 0
-540 -544 0
-541 -542 0
-541 -543 0
-541 -544 0
-542 -543 0
-542 -544 0
-543 -544 0
545 546 547 548 549 550 551 552 553 554 555 556 557 558 559 560 561 0
-545 -546 0
-545 -547 0
-545 -548 0
-545 -549 0
-545 -550 0
-545 -551 0
-545 -552 0
-545 -553 0
-545 -554 0
-545 -555 0
-545 -556 0
-545 -557 0
-545 -558 0
-545 -559 0
-545 -560 0
-545 -561 0
-546 -547 0
-546 -548 0
-546 -549 0
-546 -550 0
-546 -551 0
-546 -552 0
-546 -553 0
-546 -554 0
-546 -555 0
-546 -556 0
-546 -557 0
-546 -558 0
-546 -559 0
-546 -560 0
-546 -561 0
-547 -548 0
-547 -549 0
-547 -550 0
-547 -551 0
-547 -552 0
-547 -553 0
-547 -554 0
-547 -555 0
-547 -556 0
-547 -557 0
-547 -558 0
-547 -559 0
-547 -560 0
-547 -561 0
-548 -549 0
-548 -550 0
-548 -551 0
-548 -552 0
-548 -553 0
-548 -554 0
-548 -555 0
-548 -556 0
-548 -557 0
-548 -558 0
-548 -559 0
-548 -560 0
-548 -561 0
-549 -550 0
-549 -551 0
-549 -552 0
-549 -553 0
-549 -554 0
-549 -555 0
-549 -556 0
-549 -557 0
-549 -558 0
-549 -559 0
-549 -560 0
-549 -561 0
-550 -551 0
-550 -552 0
-550 -553 0
-550 -554 0
-550 -555 0
-550 -556 0
-550 -557 0
-550 -558 0
-550 -559 0
-550 -560 0
-550 -561 0
-551 -552 0
-551 -553 0
-551 -554 0
-551 -555 0
-551 -556 0
-551 -557 0
-551 -558 0
-551 -559 0
-551 -560 0
-551 -561 0
-552 -553 0
-552 -554 0
-552 -555 0
-552 -556 0
-552 -557 0
-552 -558 0
-552 -559 0
-552 -560 0
-552 -561 0
-553 -554 0
-553 -555 0
-553 -556 0
-553 -557 0
-553 -558 0
-553 -559 0
-553 -560 0
-553 -561 0
-554 -555 0
-554 -556 0
-554 -557 0
-554 -558 0
-554 -559 0
-554 -560 0
-554 -561 0
-555 -556 0
-555 -557 0
-555 -558 0
-555 -559 0
-555 -560 0
-555 -561 0
-556 -557 0
-556 -558 0
-556 -559 0
-556 -560 0
-556 -561 0
-557 -558 0
-557 -559 0
-557 -560 0
-557 -561 0
-558 -559 0
-558 -560 0
-558 -561 0
-559 -560 0
-559 -561 0
-560 -561 0
562 563 564 565 566 567 568 569 570 571 572 573 574 575 576 577 578 0
-562 -563 0
-562 -564 0
-562 -565 0
-562 -566 0
-562 -567 0
-562 -568 0
-562 -569 0
-562 -570 0
-562 -571 0
-562 -572 0
-562 -573 0
-562 -574 0
-562 -575 0
-562 -576 0
-562 -577 0
-562 -578 0
-563 -564 0
-563 -565 0
-563 -566 0
-563 -567 0
-563 -568 0
-563 -569 0
-563 -570 0
-563 -571 0
-563 -572 0
-563 -573 0
-563 -574 0
-563 -575 0
-563 -576 0
-563 -577 0
-563 -578 0
-564 -565 0
-564 -566 0
-564 -567 0
-564 -568 0
-564 -569 0
-564 -570 0
-564 -571 0
-564 -572 0
-564 -573 0
-564 -574 0
-564 -575 0
-564 -576 0
-564 -577 0
-564 -578 0
-565 -566 0
-565 -567 0
-565 -568 0
-565 -569 0
-565 -570 0
-565 -571 0
-565 -572 0
-565 -573 0
-565 -574 0
-565 -575 0
-565 -576 0
-565 -577 0
-565 -578 0
-566 -567 0
-566 -568 0
-566 -569 0
-566 -570 0
-566 -571 0
-566 -572 0
-566 -573 0
-566 -574 0
-566 -575 0
-566 -576 0
-566 -577 0
-566 -578 0
-567 -568 0
-567 -569 0
-567 -570 0
-567 -571 0
-567 -572 0
-567 -573 0
-567 -574 0
-567 -575 0
-567 -576 0
-567 -577 0
-567 -578 0
-568 -569 0
-568 -570 0
-568 -571 0
-568 -572 0
-568 -573 0
-568 -574 0
-568 -575 0
-568 -576 0
-568 -577 0
-568 -578 0
-569 -570 0
-569 -571 0
-569 -572 0
-569 -573 0
-569 -574 0
-569 -575 0
-569 -576 0
-569 -577 0
-569 -578 0
-570 -571 0
-570 -572 0
-570 -573 0
-570 -574 0
-570 -575 0
-570 -576 0
-570 -577 0
-570 -578 0
-571 -572 0
-571 -573 0
-571 -574 0
-571 -575 0
-571 -576 0
-571 -577 0
-571 -578 0
-572 -573 0
-572 -574 0
-572 -575 0
-572 -576 0
-572 -577 0
-572 -578 0
-573 -574 0
-573 -575 0
-573 -576 0
-573 -577 0
-573 -578 0
-574 -575 0
-574 -576 0
-574 -577 0
-574 -578 0
-575 -576 0
-575 -577 0
-575 -578 0
-576 -577 0
-576 -578 0
-577 -578 0
579 580 581 582 583 584 585 586 587 588 589 590 591 592 593 594 595 0
-579 -580 0
-579 -581 0
-579 -582 0
-579 -583 0
-579 -584 0
-579 -585 0
-579 -586 0
-579 -587 0
-579 -588 0
-579 -589 0
-579 -590 0
-579 -591 0
-579 -592 0
-579 -593 0
-579 -594 0
-579 -595 0
-580 -581 0
-580 -582 0
-580 -583 0
-580 -584 0
-580 -585 0
-580 -586 0
-580 -587 0
-580 -588 0
-580 -589 0
-580 -590 0
-580 -591 0
-580 -592 0
-580 -593 0
-580 -594 0
-580 -595 0
-581 -582 0
-581 -583 0
-581 -584 0
-581 -585 0
-581 -586 0
-581 -587 0
-581 -588 0
-581 -589 0
-581 -590 0
-581 -591 0
-581 -592 0
-581 -593 0
-581 -594 0
-581 -595 0
-582 -583 0
-582 -584 0
-582 -585 0
-582 -586 0
-582 -587 0
-582 -588 0
-582 -589 0
-582 -590 0
-582 -591 0
-582 -592 0
-582 -593 0
-582 -594 0
-582 -595 0
-583 -584 0
-583 -585 0
-583 -586 0
-583 -587 0
-583 -588 0
-583 -589 0
-583 -590 0
-583 -591 0
-583 -592 0
-583 -593 0
-583 -594 0
-583 -595 0
-584 -585 0
-584 -586 0
-584 -587 0
-584 -588 0
-584 -589 0
-584 -590 0
-584 -591 0
-584 -592 0
-584 -593 0
-584 -594 0
-584 -595 0
-585 -586 0
-585 -587 0
-585 -588 0
-585 -589 0
-585 -590 0
-585 -591 0
-585 -592 0
-585 -593 0
-585 -594 0
-585 -595 0
-586 -587 0
-586 -588 0
-586 -589 0
-586 -590 0
-586 -591 0
-586 -592 0
-586 -593 0
-586 -594 0
-586 -595 0
-587 -588 0
-587 -589 0
-587 -590 0
-587 -591 0
-587 -592 0
-587 -593 0
-587 -594 0
-587 -595 0
-588 -589 0
-588 -590 0
-588 -591 0
-588 -592 0
-588 -593 0
-588 -594 0
-588 -595 0
-589 -590 0
-589 -591 0
-589 -592 0
-589 -593 0
-589 -594 0
-589 -595 0
-590 -591 0
-590 -592 0
-590 -593 0
-590 -594 0
-590 -595 0
-591 -592 0
-591 -593 0
-591 -594 0
-591 -595 0
-592 -593 0
-592 -594 0
-592 -595 0
-593 -594 0
-593 -595 0
-594 -595 0
596 597 598 599 600 601 602 603 604 605 606 607 608 609 610 611 612 0
-596 -597 0
-596 -598 0
-596 -599 0
-596 -600 0
-596 -601 0
-596 -602 0
-596 -603 0
-596 -604 0
-596 -605 0
-596 -606 0
-596 -607 0
-596 -608 0
-596 -609 0
-596 -610 0
-596 -611 0
-596 -612 0
-597 -598 0
-597 -599 0
-597 -600 0
-597 -601 0
-597 -602 0
-597 -603 0
-597 -604 0
-597 -605 0
-597 -606 0
-597 -607 0
-597 -608 0
-597 -609 0
-597 -610 0
-597 -611 0
-597 -612 0
-598 -599 0
-598 -600 0
-598 -601 0
-598 -602 0
-598 -603 0
-598 -604 0
-598 -605 0
-598 -606 0
-598 -607 0
-598 -608 0
-598 -609 0
-598 -610 0
-598 -611 0
-598 -612 0
-599 -600 0
-599 -601 0
-599 -602 0
-599 -603 0
-599 -604 0
-599 -605 0
-599 -606 0
-599 -607 0
-599 -608 0
-599 -609 0
-599 -610 0
-599 -611 0
-599 -612 0
-600 -601 0
-600 -602 0
-600 -603 0
-600 -604 0
-600 -605 0
-600 -606 0
-600 -607 0
-600 -608 0
-600 -609 0
-600 -610 0
-600 -611 0
-600 -612 0
-601 -602 0
-601 -603 0
-601 -604 0
-601 -605 0
-601 -606 0
-601 -607 0
-601 -608 0
-601 -609 0
-601 -610 0
-601 -611 0
-601 -612 0
-602 -603 0
-602 -604 0
-602 -605 0
-602 -606 0
-602 -607 0
-602 -608 0
-602 -609 0
-602 -610 0
-602 -611 0
-602 -612 0
-603 -604 0
-603 -605 0
-603 -606 0
-603 -607 0
-603 -608 0
-603 -609 0
-603 -610 0
-603 -611 0
-603 -612 0
-604 -605 0
-604 -606 0
-604 -607 0
-604 -608 0
-604 -609 0
-604 -610 0
-604 -611 0
-604 -612 0
-605 -606 0
-605 -607 0
-605 -608 0
-605 -609 0
-605 -610 0
-605 -611 0
-605 -612 0
-606 -607 0
-606 -608 0
-606 -609 0
-606 -610 0
-606 -611 0
-606 -612 0
-607 -608 0
-607 -609 0
-607 -610 0
-607 -611 0
-607 -612 0
-608 -609 0
-608 -610 0
-608 -611 0
-608 -612 0
-609 -610 0
-609 -611 0
-609 -612 0
-610 -611 0
-610 -612 0
-611 -612 0
613 614 615 616 617 618 619 620 621 622 623 624 625 626 627 628 629 0
-613 -614 0
-613 -615 0
-613 -616 0
-613 -617 0
-613 -618 0
-613 -619 0
-613 -620 0
-613 -621 0
-613 -622 0
-613 -623 0
-613 -624 0
-613 -625 0
-613 -626 0
-613 -627 0
-613 -628 0
-613 -629 0
-614 -615 0
-614 -616 0
-614 -617 0
-614 -618 0
-614 -619 0
-614 -620 0
-614 -621 0
-614 -622 0
-614 -623 0
-614 -624 0
-614 -625 0
-614 -626 0
-614 -627 0
-614 -628 0
-614 -629 0
-615 -616 0
-615 -617 0
-615 -618 0
-615 -619 0
-615 -620 0
-615 -621 0
-615 -622 0
-615 -623 0
-615 -624 0
-615 -625 0
-615 -626 0
-615 -627 0
-615 -628 0
-615 -629 0
-616 -617 0
-616 -618 0
-616 -619 0
-616 -620 0
-616 -621 0
-616 -622 0
-616 -623 0
-616 -624 0
-616 -625 0
-616 -626 0
-616 -627 0
-616 -628 0
-616 -629 0
-617 -618 0
-617 -619 0
-617 -620 0
-617 -621 0
-617 -622 0
-617 -623 0
-617 -624 0
-617 -625 0
-617 -626 0
-617 -627 0
-617 -628 0
-617 -629 0
-618 -619 0
-618 -620 0
-618 -621 0
-618 -622 0
-618 -623 0
-618 -624 0
-618 -625 0
-618 -626 0
-618 -627 0
-618 -628 0
-618 -629 0
-619 -620 0
-619 -621 0
-619 -622 0
-619 -623 0
-619 -624 0
-619 -625 0
-619 -626 0
-619 -627 0
-619 -628 0
-619 -629 0
-620 -621 0
-620 -622 0
-620 -623 0
-620 -624 0
-620 -625 0
-620 -626 0
-620 -627 0
-620 -628 0
-620 -629 0
-621 -622 0
-621 -623 0
-621 -624 0
-621 -625 0
-621 -626 0
-621 -627 0
-621 -628 0
-621 -629 0
-622 -623 0
-622 -624 0
-622 -625 0
-622 -626 0
-622 -627 0
-622 -628 0
-622 -629 0
-623 -624 0
-623 -625 0
-623 -626 0
-623 -627 0
-623 -628 0
-623 -629 0
-624 -625 0
-624 -626 0
-624 -627 0
-624 -628 0
-624 -629 0
-625 -626 0
-625 -627 0
-625 -628 0
-625 -629 0
-626 -627 0
-626 -628 0
-626 -629 0
-627 -628 0
-627 -629 0
-628 -629 0
630 631 632 633 634 635 636 637 638 639 640 641 642 643 644 645 646 0
-630 -631 0
-630 -632 0
-630 -633 0
-630 -634 0
-630 -635 0
-630 -636 0
-630 -637 0
-630 -638 0
-630 -639 0
-630 -640 0
-630 -641 0
-630 -642 0
-630 -643 0
-630 -644 0
-630 -645 0
-630 -646 0
-631 -632 0
-631 -633 0
-631 -634 0
-631 -635 0
-631 -636 0
-631 -637 0
-631 -638 0
-631 -639 0
-631 -640 0
-631 -641 0
-631 -642 0
-631 -643 0
-631 -644 0
-631 -645 0
-631 -646 0
-632 -633 0
-632 -634 0
-632 -635 0
-632 -636 0
-632 -637 0
-632 -638 0
-632 -639 0
-632 -640 0
-632 -641 0
-632 -642 0
-632 -643 0
-632 -644 0
-632 -645 0
-632 -646 0
-633 -634 0
-633 -635 0
-633 -636 0
-633 -637 0
-633 -638 0
-633 -639 0
-633 -640 0
-633 -641 0
-633 -642 0
-633 -643 0
-633 -644 0
-633 -645 0
-633 -646 0
-634 -635 0
-634 -636 0
-634 -637 0
-634 -638 0
-634 -639 0
-634 -640 0
-634 -641 0
-634 -642 0
-634 -643 0
-634 -644 0
-634 -645 0
-634 -646 0
-635 -636 0
-635 -637 0
-635 -638 0
-635 -639 0
-635 -640 0
-635 -641 0
-635 -642 0
-635 -643 0
-635 -644 0
-635 -645 0
-635 -646 0
-636 -637 0
-636 -638 0
-636 -639 0
-636 -640 0
-636 -641 0
-636 -642 0
-636 -643 0
-636 -644 0
-636 -645 0
-636 -646 0
-637 -638 0
-637 -639 0
-637 -640 0
-637 -641 0
-637 -642 0
-637 -643 0
-637 -644 0
-637 -645 0
-637 -646 0
-638 -639 0
-638 -640 0
-638 -641 0
-638 -642 0
-638 -643 0
-638 -644 0
-638 -645 0
-638 -646 0
-639 -640 0
-639 -641 0
-639 -642 0
-639 -643 0
-639 -644 0
-639 -645 0
-639 -646 0
-640 -641 0
-640 -642 0
-640 -643 0
-640 -644 0
-640 -645 0
-640 -646 0
-641 -642 0
-641 -643 0
-641 -644 0
-641 -645 0
-641 -646 0
-642 -643 0
-642 -644 0
-642 -645 0
-642 -646 0
-643 -644 0
-643 -645 0
-643 -646 0
-644 -645 0
-644 -646 0
-645 -646 0
647 648 649 650 651 652 653 654 655 656 657 658 659 660 661 662 663 0
-647 -648 0
-647 -649 0
-647 -650 0
-647 -651 0
-647 -652 0
-647 -653 0
-647 -654 0
-647 -655 0
-647 -656 0
-647 -657 0
-647 -658 0
-647 -659 0
-647 -660 0
-647 -661 0
-647 -662 0
-647 -663 0
-648 -649 0
-648 -650 0
-648 -651 0
-648 -652 0
-648 -653 0
-648 -654 0
-648 -655 0
-648 -656 0
-648 -657 0
-648 -658 0
-648 -659 0
-648 -660 0
-648 -661 0
-648 -662 0
-648 -663 0
-649 -650 0
-649 -651 0
-649 -652 0
-649 -653 0
-649 -654 0
-649 -655 0
-649 -656 0
-649 -657 0
-649 -658 0
-649 -659 0
-649 -660 0
-649 -661 0
-649 -662 0
-649 -663 0
-650 -651 0
-650 -652 0
-650 -653 0
-650 -654 0
-650 -655 0
-650 -656 0
-650 -657 0
-650 -658 0
-650 -659 0
-650 -660 0
-650 -661 0
-650 -662 0
-650 -663 0
-651 -652 0
-651 -653 0
-651 -654 0
-651 -655 0
-651 -656 0
-651 -657 0
-651 -658 0
-651 -659 0
-651 -660 0
-651 -661 0
-651 -662 0
-651 -663 0
-652 -653 0
-652 -654 0
-652 -655 0
-652 -656 0
-652 -657 0
-652 -658 0
-652 -659 0
-652 -660 0
-652 -661 0
-652 -662 0
-652 -663 0
-653 -654 0
-653 -655 0
-653 -656 0
-653 -657 0
-653 -658 0
-653 -659 0
-653 -660 0
-653 -661 0
-653 -662 0
-653 -663 0
-654 -655 0
-654 -656 0
-654 -657 0
-654 -658 0
-654 -659 0
-654 -660 0
-654 -661 0
-654 -662 0
-654 -663 0
-655 -656 0
-655 -657 0
-655 -658 0
-655 -659 0
-655 -660 0
-655 -661 0
-655 -662 0
-655 -663 0
-656 -657 0
-656 -658 0
-656 -659 0
-656 -660 0
-656 -661 0
-656 -662 0
-656 -663 0
-657 -658 0
-657 -659 0
-657 -660 0
-657 -661 0
-657 -662 0
-657 -663 0
-658 -659 0
-658 -660 0
-658 -661 0
-658 -662 0
-658 -663 0
-659 -660 0
-659 -661 0
-659 -662 0
-659 -663 0
-660 -661 0
-660 -662 0
-660 -663 0
-661 -662 0
-661 -663 0
-662 -663 0
664 665 666 667 668 669 670 671 672 673 674 675 676 677 678 679 680 0
-664 -665 0
-664 -666 0
-664 -667 0
-664 -668 0
-664 -669 0
-664 -670 0
-664 -671 0
-664 -672 0
-664 -673 0
-664 -674 0
-664 -675 0
-664 -676 0
-664 -677 0
-664 -678 0
-664 -679 0
-664 -680 0
-665 -666 0
-665 -667 0
-665 -668 0
-665 -669 0
-665 -670 0
-665 -671 0
-665 -672 0
-665 -673 0
-665 -674 0
-665 -675 0
-665 -676 0
-665 -677 0
-665 -678 0
-665 -679 0
-665 -680 0
-666 -667 0
-666 -668 0
-666 -669 0
-666 -670 0
-666 -671 0
-666 -672 0
-666 -673 0
-666 -674 0
-666 -675 0
-666 -676 0
-666 -677 0
-666 -678 0
-666 -679 0
-666 -680 0
-667 -668 0
-667 -669 0
-667 -670 0
-667 -671 0
-667 -672 0
-667 -673 0
-667 -674 0
-667 -675 0
-667 -676 0
-667 -677 0
-667 -678 0
-667 -679 0
-667 -680 0
-668 -669 0
-668 -670 0
-668 -671 0
-668 -672 0
-668 -673 0
-668 -674 0
-668 -675 0
-668 -676 0
-668 -677 0
-668 -678 0
-668 -679 0
-668 -680 0
-669 -670 0
-669 -671 0
-669 -672 0
-669 -673 0
-669 -674 0
-669 -675 0
-669 -676 0
-669 -677 0
-669 -678 0
-669 -679 0
-669 -680 0
-670 -671 0
-670 -672 0
-670 -673 0
-670 -674 0
-670 -675 0
-670 -676 0
-670 -677 0
-670 -678 0
-670 -679 0
-670 -680 0
-671 -672 0
-671 -673 0
-671 -674 0
-671 -675 0
-671 -676 0
-671 -677 0
-671 -678 0
-671 -679 0
-671 -680 0
-672 -673 0
-672 -674 0
-672 -675 0
-672 -676 0
-672 -677 0
-672 -678 0
-672 -679 0
-672 -680 0
-673 -674 0
-673 -675 0
-673 -676 0
-673 -677 0
-673 -678 0
-673 -679 0
-673 -680 0
-674 -675 0
-674 -676 0
-674 -677 0
-674 -678 0
-674 -679 0
-674 -680 0
-675 -676 0
-675 -677 0
-675 -678 0
-675 -679 0
-675 -680 0
-676 -677 0
-676 -678 0
-676 -679 0
-676 -680 0
-677 -678 0
-677 -679 0
-677 -680 0
-678 -679 0
-678 -680 0
-679 -680 0
681 682 683 684 685 686 687 688 689 690 691 692 693 694 695 696 697 0
-681 -682 0
-681 -683 0
-681 -684 0
-681 -685 0
-681 -686 0
-681 -687 0
-681 -688 0
-681 -689 0
-681 -690 0
-681 -691 0
-681 -692 0
-681 -693 0
-681 -694 0
-681 -695 0
-681 -696 0
-681 -697 0
-682 -683 0
-682 -684 0
-682 -685 0
-682 -686 0
-682 -687 0
-682 -688 0
-682 -689 0
-682 -690 0
-682 -691 0
-682 -692 0
-682 -693 0
-682 -694 0
-682 -695 0
-682 -696 0
-682 -697 0
-683 -684 0
-683 -685 0
-683 -686 0
-683 -687 0
-683 -688 0
-683 -689 0
-683 -690 0
-683 -691 0
-683 -692 0
-683 -693 0
-683 -694 0
-683 -695 0
-683 -696 0
-683 -697 0
-684 -685 0
-684 -686 0
-684 -687 0
-684 -688 0
-684 -689 0
-684 -690 0
-684 -691 0
-684 -692 0
-684 -693 0
-684 -694 0
-684 -695 0
-684 -696 0
-684 -697 0
-685 -686 0
-685 -687 0
-685 -688 0
-685 -689 0
-685 -690 0
-685 -691 0
-685 -692 0
-685 -693 0
-685 -694 0
-685 -695 0
-685 -696 0
-685 -697 0
-686 -687 0
-686 -688 0
-686 -689 0
-686 -690 0
-686 -691 0
-686 -692 0
-686 -693 0
-686 -694 0
-686 -695 0
-686 -696 0
-686 -697 0
-687 -688 0
-687 -689 0
-687 -690 0
-687 -691 0
-687 -692 0
-687 -693 0
-687 -694 0
-687 -695 0
-687 -696 0
-687 -697 0
-688 -689 0
-688 -690 0
-688 -691 0
-688 -692 0
-688 -693 0
-688 -694 0
-688 -695 0
-688 -696 0
-688 -697 0
-689 -690 0
-689 -691 0
-689 -692 0
-689 -693 0
-689 -694 0
-689 -695 0
-689 -696 0
-689 -697 0
-690 -691 0
-690 -692 0
-690 -693 0
-690 -694 0
-690 -695 0
-690 -696 0
-690 -697 0
-691 -692 0
-691 -693 0
-691 -694 0
-691 -695 0
-691 -696 0
-691 -697 0
-692 -693 0
-692 -694 0
-692 -695 0
-692 -696 0
-692 -697 0
-693 -694 0
-693 -695 0
-693 -696 0
-693 -697 0
-694 -695 0
-694 -696 0
-694 -697 0
-695 -696 0
-695 -697 0
-696 -697 0
698 699 700 701 702 703 704 705 706 707 708 709 710 711 712 713 714 0
-698 -699 0
-698 -700 0
-698 -701 0
-698 -702 0
-698 -703 0
-698 -704 0
-698 -705 0
-698 -706 0
-698 -707 0
-698 -708 0
-698 -709 0
-698 -710 0
-698 -711 0
-698 -712 0
-698 -713 0
-698 -714 0
-699 -700 0
-699 -701 0
-699 -702 0
-699 -703 0
-699 -704 0
-699 -705 0
-699 -706 0
-699 -707 0
-699 -708 0
-699 -709 0
-699 -710 0
-699 -711 0
-699 -712 0
-699 -713 0
-699 -714 0
-700 -701 0
-700 -702 0
-700 -703 0
-700 -704 0
-700 -705 0
-700 -706 0
-700 -707 0
-700 -708 0
-700 -709 0
-700 -710 0
-700 -711 0
-700 -712 0
-700 -713 0
-700 -714 0
-701 -702 0
-701 -703 0
-701 -704 0
-701 -705 0
-701 -706 0
-701 -707 0
-701 -708 0
-701 -709 0
-701 -710 0
-701 -711 0
-701 -712 0
-701 -713 0
-701 -714 0
-702 -703 0
-702 -704 0
-702 -705 0
-702 -706 0
-702 -707 0
-702 -708 0
-702 -709 0
-702 -710 0
-702 -711 0
-702 -712 0
-702 -713 0
-702 -714 0
-703 -704 0
-703 -705 0
-703 -706 0
-703 -707 0
-703 -708 0
-703 -709 0
-703 -710 0
-703 -711 0
-703 -712 0
-703 -713 0
-703 -714 0
-704 -705 0
-704 -706 0
-704 -707 0
-704 -708 0
-704 -709 0
-704 -710 0
-704 -711 0
-704 -712 0
-704 -713 0
-704 -714 0
-705 -706 0
-705 -707 0
-705 -708 0
-705 -709 0
-705 -710 0
-705 -711 0
-705 -712 0
-705 -713 0
-705 -714 0
-706 -707 0
-706 -708 0
-706 -709 0
-706 -710 0
-706 -711 0
-706 -712 0
-706 -713 0
-706 -714 0
-707 -708 0
-707 -709 0
-707 -710 0
-707 -711 0
-707 -712 0
-707 -713 0
-707 -714 0
-708 -709 0
-708 -710 0
-708 -711 0
-708 -712 0
-708 -713 0
-708 -714 0
-709 -710 0
-709 -711 0
-709 -712 0
-709 -713 0
-709 -714 0
-710 -711 0
-710 -712 0
-710 -713 0
-710 -714 0
-711 -712 0
-711 -713 0
-711 -714 0
-712 -713 0
-712 -714 0
-713 -714 0
715 716 717 718 719 720 721 722 723 724 725 726 727 728 729 730 731 0
-715 -716 0
-715 -717 0
-715 -718 0
-715 -719 0
-715 -720 0
-715 -721 0
-715 -722 0
-715 -723 0
-715 -724 0
-715 -725 0
-715 -726 0
-715 -727 0
-715 -728 0
-715 -729 0
-715 -730 0
-715 -731 0
-716 -717 0
-716 -718 0
-716 -719 0
-716 -720 0
-716 -721 0
-716 -722 0
-716 -723 0
-716 -724 0
-716 -725 0
-716 -726 0
-716 -727 0
-716 -728 0
-716 -729 0
-716 -730 0
-716 -731 0
-717 -718 0
-717 -719 0
-717 -720 0
-717 -721 0
-717 -722 0
-717 -723 0
-717 -724 0
-717 -725 0
-717 -726 0
-717 -727 0
-717 -728 0
-717 -729 0
-717 -730 0
-717 -731 0
-718 -719 0
-718 -720 0
-718 -721 0
-718 -722 0
-718 -723 0
-718 -724 0
-718 -725 0
-718 -726 0
-718 -727 0
-718 -728 0
-718 -729 0
-718 -730 0
-718 -731 0
-719 -720 0
-719 -721 0
-719 -722 0
-719 -723 0
-719 -724 0
-719 -725 0
-719 -726 0
-719 -727 0
-719 -728 0
-719 -729 0
-719 -730 0
-719 -731 0
-720 -721 0
-720 -722 0
-720 -723 0
-720 -724 0
-720 -725 0
-720 -726 0
-720 -727 0
-720 -728 0
-720 -729 0
-720 -730 0
-720 -731 0
-721 -722 0
-721 -723 0
-721 -724 0
-721 -725 0
-721 -726 0
-721 -727 0
-721 -728 0
-721 -729 0
-721 -730 0
-721 -731 0
-722 -723 0
-722 -724 0
-722 -725 0
-722 -726 0
-722 -727 0
-722 -728 0
-722 -729 0
-722 -730 0
-722 -731 0
-723 -724 0
-723 -725 0
-723 -726 0
-723 -727 0
-723 -728 0
-723 -729 0
-723 -730 0
-723 -731 0
-724 -725 0
-724 -726 0
-724 -727 0
-724 -728 0
-724 -729 0
-724 -730 0
-724 -731 0
-725 -726 0
-725 -727 0
-725 -728 0
-725 -729 0
-725 -730 0
-725 -731 0
-726 -727 0
-726 -728 0
-726 -729 0
-726 -730 0
-726 -731 0
-727 -728 0
-727 -729 0
-727 -730 0
-727 -731 0
-728 -729 0
-728 -730 0
-728 -731 0
-729 -730 0
-729 -731 0
-730 -731 0
732 733 734 735 736 737 738 739 740 741 742 743 744 745 746 747 748 0
-732 -733 0
-732 -734 0
-732 -735 0
-732 -736 0
-732 -737 0
-732 -738 0
-732 -739 0
-732 -740 0
-732 -741 0
-732 -742 0
-732 -743 0
-732 -744 0
-732 -745 0
-732 -746 0
-732 -747 0
-732 -748 0
-733 -734 0
-733 -735 0
-733 -736 0
-733 -737 0
-733 -738 0
-733 -739 0
-733 -740 0
-733 -741 0
-733 -742 0
-733 -743 0
-733 -744 0
-733 -745 0
-733 -746 0
-733 -747 0
-733 -748 0
-734 -735 0
-734 -736 0
-734 -737 0
-734 -738 0
-734 -739 0
-734 -740 0
-734 -741 0
-734 -742 0
-734 -743 0
-734 -744 0
-734 -745 0
-734 -746 0
-734 -747 0
-734 -748 0
-735 -736 0
-735 -737 0
-735 -738 0
-735 -739 0
-735 -740 0
-735 -741 0
-735 -742 0
-735 -743 0
-735 -744 0
-735 -745 0
-735 -746 0
-735 -747 0
-735 -748 0
-736 -737 0
-736 -738 0
-736 -739 0
-736 -740 0
-736 -741 0
-736 -742 0
-736 -743 0
-736 -744 0
-736 -745 0
-736 -746 0
-736 -747 0
-736 -748 0
-737 -738 0
-737 -739 0
-737 -740 0
-737 -741 0
-737 -742 0
-737 -743 0
-737 -744 0
-737 -745 0
-737 -746 0
-737 -747 0
-737 -748 0
-738 -739 0
-738 -740 0
-738 -741 0
-738 -742 0
-738 -743 0
-738 -744 0
-738 -745 0
-738 -746 0
-738 -747 0
-738 -748 0
-739 -740 0
-739 -741 0
-739 -742 0
-739 -743 0
-739 -744 0
-739 -745 0
-739 -746 0
-739 -747 0
-739 -748 0
-740 -741 0
-740 -742 0
-740 -743 0
-740 -744 0
-740 -745 0
-740 -746 0
-740 -747 0
-740 -748 0
-741 -742 0
-741 -743 0
-741 -744 0
-741 -745 0
-741 -746 0
-741 -747 0
-741 -748 0
-742 -743 0
-742 -744 0
-742 -745 0
-742 -746 0
-742 -747 0
-742 -748 0
-743 -744 0
-743 -745 0
-743 -746 0
-743 -747 0
-743 -748 0
-744 -745 0
-744 -746 0
-744 -747 0
-744 -748 0
-745 -746 0
-745 -747 0
-745 -748 0
-746 -747 0
-746 -748 0
-747 -748 0
749 750 751 752 753 754 755 756 757 758 759 760 761 762 763 764 765 0
-749 -750 0
-749 -751 0
-749 -752 0
-749 -753 0
-749 -754 0
-749 -755 0
-749 -756 0
-749 -757 0
-749 -758 0
-749 -759 0
-749 -760 0
-749 -761 0
-749 -762 0
-749 -763 0
-749 -764 0
-749 -765 0
-750 -751 0
-750 -752 0
-750 -753 0
-750 -754 0
-750 -755 0
-750 -756 0
-750 -757 0
-750 -758 0
-750 -759 0
-750 -760 0
-750 -761 0
-750 -762 0
-750 -763 0
-750 -764 0
-750 -765 0
-751 -752 0
-751 -753 0
-751 -754 0
-751 -755 0
-751 -756 0
-751 -757 0
-751 -758 0
-751 -759 0
-751 -760 0
-751 -761 0
-751 -762 0
-751 -763 0
-751 -764 0
-751 -765 0
-752 -753 0
-752 -754 0
-752 -755 0
-752 -756 0
-752 -757 0
-752 -758 0
-752 -759 0
-752 -760 0
-752 -761 0
-752 -762 0
-752 -763 0
-752 -764 0
-752 -765 0
-753 -754 0
-753 -755 0
-753 -756 0
-753 -757 0
-753 -758 0
-753 -759 0
-753 -760 0
-753 -761 0
-753 -762 0
-753 -763 0
-753 -764 0
-753 -765 0
-754 -755 0
-754 -756 0
-754 -757 0
-754 -758 0
-754 -759 0
-754 -760 0
-754 -761 0
-754 -762 0
-754 -763 0
-754 -764 0
-754 -765 0
-755 -756 0
-755 -757 0
-755 -758 0
-755 -759 0
-755 -760 0
-755 -761 0
-755 -762 0
-755 -763 0
-755 -764 0
-755 -765 0
-756 -757 0
-756 -758 0
-756 -759 0
-756 -760 0
-756 -761 0
-756 -762 0
-756 -763 0
-756 -764 0
-756 -765 0
-757 -758 0
-757 -759 0
-757 -760 0
-757 -761 0
-757 -762 0
-757 -763 0
-757 -764 0
-757 -765 0
-758 -759 0
-758 -760 0
-758 -761 0
-758 -762 0
-758 -763 0
-758 -764 0
-758 -765 0
-759 -760 0
-759 -761 0
-759 -762 0
-759 -763 0
-759 -764 0
-759 -765 0
-760 -761 0
-760 -762 0
-760 -763 0
-760 -764 0
-760 -765 0
-761 -762 0
-761 -763 0
-761 -764 0
-761 -765 0
-762 -763 0
-762 -764 0
-762 -765 0
-763 -764 0
-763 -765 0
-764 -765 0
-1 -52 0
-1 -103 0
-1 -154 0
-1 -205 0
-1 -256 0
-1 -307 0
-1 -358 0
-1 -409 0
-1 -460 0
-1 -511 0
-1 -562 0
-1 -613 0
-1 -664 0
-1 -715 0
-52 -103 0
-52 -154 0
-52 -205 0
-52 -256 0
-52 -307 0
-52 -358 0
-52 -409 0
-52 -460 0
-52 -511 0
-52 -562 0
-52 -613 0
-52 -664 0
-52 -715 0
-103 -154 0
-103 -205 0
-103 -256 0
-103 -307 0
-103 -358 0
-103 -409 0
-103 -460 0
-103 -511 0
-103 -562 0
-103 -613 0
-103 -664 0
-103 -715 0
-154 -205 0
-154 -256 0
-154 -307 0
-154 -358 0
-154 -409 0
-154 -460 0
-154 -511 0
-154 -562 0
-154 -613 0
-154 -664 0
-154 -715 0
-205 -256 0
-205 -307 0
-205 -358 0
-205 -409 0
-205 -460 0
-205 -511 0
-205 -562 0
-205 -613 0
-205 -664 0
-205 -715 0
-256 -307 0
-256 -358 0
-256 -409 0
-256 -460 0
-256 -511 0
-256 -562 0
-256 -613 0
-256 -664 0
-256 -715 0
-307 -358 0
-307 -409 0
-307 -460 0
-307 -511 0
-307 -562 0
-307 -613 0
-307 -664 0
-307 -715 0
-358 -409 0
-358 -460 0
-358 -511 0
-358 -562 0
-358 -613 0
-358 -664 0
-358 -715 0
-409 -460 0
-409 -511 0
-409 -562 0
-409 -613 0
-409 -664 0
-409 -715 0
-460 -511 0
-460 -562 0
-460 -613 0
-460 -664 0
-460 -715 0
-511 -562 0
-511 -613 0
-511 -664 0
-511 -715 0
-562 -613 0
-562 -664 0
-562 -715 0
-613 -664 0
-613 -715 0
-664 -715 0
-2 -53 0
-2 -104 0
-2 -155 0
-2 -206 0
-2 -257 0
-2 -308 0
-2 -359 0
-2 -410 0
-2 -461 0
-2 -512 0
-2 -563 0
-2 -614 0
-2 -665 0
-2 -716 0
-53 -104 0
-53 -155 0
-53 -206 0
-53 -257 0
-53 -308 0
-53 -359 0
-53 -410 0
-53 -461 0
-53 -512 0
-53 -563 0
-53 -614 0
-53 -665 0
-53 -716 0
-104 -155 0
-104 -206 0
-104 -257 0
-104 -308 0
-104 -359 0
-104 -410 0
-104 -461 0
-104 -512 0
-104 -563 0
-104 -614 0
-104 -665 0
-104 -716 0
-155 -206 0
-155 -257 0
-155 -308 0
-155 -359 0
-155 -410 0
-155 -461 0
-155 -512 0
-155 -563 0
-155 -614 0
-155 -665 0
-155 -716 0
-206 -257 0
-206 -308 0
-206 -359 0
-206 -410 0
-206 -461 0
-206 -512 0
-206 -563 0
-206 -614 0
-206 -665 0
-206 -716 0
-257 -308 0
-257 -359 0
-257 -410 0
-257 -461 0
-257 -512 0
-257 -563 0
-257 -614 0
-257 -665 0
-257 -716 0
-308 -359 0
-308 -410 0
-308 -461 0
-308 -512 0
-308 -563 0
-308 -614 0
-308 -665 0
-308 -716 0
-359 -410 0
-359 -461 0
-359 -512 0
-359 -563 0
-359 -614 0
-359 -665 0
-359 -716 0
-410 -461 0
-410 -512 0
-410 -563 0
-410 -614 0
-410 -665 0
-410 -716 0
-461 -512 0
-461 -563 0
-461 -614 0
-461 -665 0
-461 -716 0
-512 -563 0
-512 -614 0
-512 -665 0
-512 -716 0
-563 -614 0
-563 -665 0
-563 -716 0
-614 -665 0
-614 -716 0
-665 -716 0
-3 -54 0
-3 -105 0
-3 -156 0
-3 -207 0
-3 -258 0
-3 -309 0
-3 -360 0
-3 -411 0
-3 -462 0
-3 -513 0
-3 -564 0
-3 -615 0
-3 -666 0
-3 -717 0
-54 -105 0
-54 -156 0
-54 -207 0
-54 -258 0
-54 -309 0
-54 -360 0
-54 -411 0
-54 -462 0
-54 -513 0
-54 -564 0
-54 -615 0
-54 -666 0
-54 -717 0
-105 -156 0
-105 -207 0
-105 -258 0
-105 -309 0
-105 -360 0
-105 -411 0
-105 -462 0
-105 -513 0
-105 -564 0
-105 -615 0
-105 -666 0
-105 -717 0
-156 -207 0
-156 -258 0
-156 -309 0
-156 -360 0
-156 -411 0
-156 -462 0
-156 -513 0
-156 -564 0
-156 -615 0
-156 -666 0
-156 -717 0
-207 -258 0
-207 -309 0
-207 -360 0
-207 -411 0
-207 -462 0
-207 -513 0
-207 -564 0
-207 -615 0
-207 -666 0
-207 -717 0
-258 -309 0
-258 -360 0
-258 -411 0
-258 -462 0
-258 -513 0
-258 -564 0
-258 -615 0
-258 -666 0
-258 -717 0
-309 -360 0
-309 -411 0
-309 -462 0
-309 -513 0
-309 -564 0
-309 -615 0
-309 -666 0
-309 -717 0
-360 -411 0
-360 -462 0
-360 -513 0
-360 -564 0
-360 -615 0
-360 -666 0
-360 -717 0
-411 -462 0
-411 -513 0
-411 -564 0
-411 -615 0
-411 -666 0
-411 -717 0
-462 -513 0
-462 -564 0
-462 -615 0
-462 -666 0
-462 -717 0
-513 -564 0
-513 -615 0
-513 -666 0
-513 -717 0
-564 -615 0
-564 -666 0
-564 -717 0
-615 -666 0
-615 -717 0
-666 -717 0
-4 -55 0
-4 -106 0
-4 -157 0
-4 -208 0
-4 -259 0
-4 -310 0
-4 -361 0
-4 -412 0
-4 -463 0
-4 -514 0
-4 -565 0
-4 -616 0
-4 -667 0
-4 -718 0
-55 -106 0
-55 -157 0
-55 -208 0
-55 -259 0
-55 -310 0
-55 -361 0
-55 -412 0
-55 -463 0
-55 -514 0
-55 -565 0
-55 -616 0
-55 -667 0
-55 -718 0
-106 -157 0
-106 -208 0
-106 -259 0
-106 -310 0
-106 -361 0
-106 -412 0
-106 -463 0
-106 -514 0
-106 -565 0
-106 -616 0
-106 -667 0
-106 -718 0
-157 -208 0
-157 -259 0
-157 -310 0
-157 -361 0
-157 -412 0
-157 -463 0
-157 -514 0
-157 -565 0
-157 -616 0
-157 -667 0
-157 -718 0
-208 -259 0
-208 -310 0
-208 -361 0
-208 -412 0
-208 -463 0
-208 -514 0
-208 -565 0
-208 -616 0
-208 -667 0
-208 -718 0
-259 -310 0
-259 -361 0
-259 -412 0
-259 -463 0
-259 -514 0
-259 -565 0
-259 -616 0
-259 -667 0
-259 -718 0
-310 -361 0
-310 -412 0
-310 -463 0
-310 -514 0
-310 -565 0
-310 -616 0
-310 -667 0
-310 -718 0
-361 -412 0
-361 -463 0
-361 -514 0
-361 -565 0
-361 -616 0
-361 -667 0
-361 -718 0
-412 -463 0
-412 -514 0
-412 -565 0
-412 -616 0
-412 -667 0
-412 -718 0
-463 -514 0
-463 -565 0
-463 -616 0
-463 -667 0
-463 -718 0
-514 -565 0
-514 -616 0
-514 -667 0
-514 -718 0
-565 -616 0
-565 -667 0
-565 -718 0
-616 -667 0
-616 -718 0
-667 -718 0
-5 -56 0
-5 -107 0
-5 -158 0
-5 -209 0
-5 -260 0
-5 -311 0
-5 -362 0
-5 -413 0
-5 -464 0
-5 -515 0
-5 -566 0
-5 -617 0
-5 -668 0
-5 -719 0
-56 -107 0
-56 -158 0
-56 -209 0
-56 -260 0
-56 -311 0
-56 -362 0
-56 -413 0
-56 -464 0
-56 -515 0
-56 -566 0
-56 -617 0
-56 -668 0
-56 -719 0
-107 -158 0
-107 -209 0
-107 -260 0
-107 -311 0
-107 -362 0
-107 -413 0
-107 -464 0
-107 -515 0
-107 -566 0
-107 -617 0
-107 -668 0
-107 -719 0
-158 -209 0
-158 -260 0
-158 -311 0
-158 -362 0
-158 -413 0
-158 -464 0
-158 -515 0
-158 -566 0
-158 -617 0
-158 -668 0
-158 -719 0
-209 -260 0
-209 -311 0
-209 -362 0
-209 -413 0
-209 -464 0
-209 -515 0
-209 -566 0
-209 -617 0
-209 -668 0
-209 -719 0
-260 -311 0
-260 -362 0
-260 -413 0
-260 -464 0
-260 -515 0
-260 -566 0
-260 -617 0
-260 -668 0
-260 -719 0
-311 -362 0
-311 -413 0
-311 -464 0
-311 -515 0
-311 -566 0
-311 -617 0
-311 -668 0
-311 -719 0
-362 -413 0
-362 -464 0
-362 -515 0
-362 -566 0
-362 -617 0
-362 -668 0
-362 -719 0
-413 -464 0
-413 -515 0
-413 -566 0
-413 -617 0
-413 -668 0
-413 -719 0
-464 -515 0
-464 -566 0
-464 -617 0
-464 -668 0
-464 -719 0
-515 -566 0
-515 -617 0
-515 -668 0
-515 -719 0
-566 -617 0
-566 -668 0
-566 -719 0
-617 -668 0
-617 -719 0
-668 -719 0
-6 -57 0
-6 -108 0
-6 -159 0
-6 -210 0
-6 -261 0
-6 -312 0
-6 -363 0
-6 -414 0
-6 -465 0
-6 -516 0
-6 -567 0
-6 -618 0
-6 -669 0
-6 -720 0
-57 -108 0
-57 -159 0
-57 -210 0
-57 -261 0
-57 -312 0
-57 -363 0
-57 -414 0
-57 -465 0
-57 -516 0
-57 -567 0
-57 -618 0
-57 -669 0
-57 -720 0
-108 -159 0
-108 -210 0
-108 -261 0
-108 -312 0
-108 -363 0
-108 -414 0
-108 -465 0
-108 -516 0
-108 -567 0
-108 -618 0
-108 -669 0
-108 -720 0
-159 -210 0
-159 -261 0
-159 -312 0
-159 -363 0
-159 -414 0
-159 -465 0
-159 -516 0
-159 -567 0
-159 -618 0
-159 -669 0
-159 -720 0
-210 -261 0
-210 -312 0
-210 -363 0
-210 -414 0
-210 -465 0
-210 -516 0
-210 -567 0
-210 -618 0
-210 -669 0
-210 -720 0
-261 -312 0
-261 -363 0
-261 -414 0
-261 -465 0
-261 -516 0
-261 -567 0
-261 -618 0
-261 -669 0
-261 -720 0
-312 -363 0
-312 -414 0
-312 -465 0
-312 -516 0
-312 -567 0
-312 -618 0
-312 -669 0
-312 -720 0
-363 -414 0
-363 -465 0
-363 -516 0
-363 -567 0
-363 -618 0
-363 -669 0
-363 -720 0
-414 -465 0
-414 -516 0
-414 -567 0
-414 -618 0
-414 -669 0
-414 -720 0
-465 -516 0
-465 -567 0
-465 -618 0
-465 -669 0
-465 -720 0
-516 -567 0
-516 -618 0
-516 -669 0
-516 -720 0
-567 -618 0
-567 -669 0
-567 -720 0
-618 -669 0
-618 -720 0
-669 -720 0
-7 -58 0
-7 -109 0
-7 -160 0
-7 -211 0
-7 -262 0
-7 -313 0
-7 -364 0
-7 -415 0
-7 -466 0
-7 -517 0
-7 -568 0
-7 -619 0
-7 -670 0
-7 -721 0
-58 -109 0
-58 -160 0
-58 -211 0
-58 -262 0
-58 -313 0
-58 -364 0
-58 -415 0
-58 -466 0
-58 -517 0
-58 -568 0
-58 -619 0
-58 -670 0
-58 -721 0
-109 -160 0
-109 -211 0
-109 -262 0
-109 -313 0
-109 -364 0
-109 -415 0
-109 -466 0
-109 -517 0
-109 -568 0
-109 -619 0
-109 -670 0
-109 -721 0
-160 -211 0
-160 -262 0
-160 -313 0
-160 -364 0
-160 -415 0
-160 -466 0
-160 -517 0
-160 -568 0
-160 -619 0
-160 -670 0
-160 -721 0
-211 -262 0
-211 -313 0
-211 -364 0
-211 -415 0
-211 -466 0
-211 -517 0
-211 -568 0
-211 -619 0
-211 -670 0
-211 -721 0
-262 -313 0
-262 -364 0
-262 -415 0
-262 -466 0
-262 -517 0
-262 -568 0
-262 -619 0
-262 -670 0
-262 -721 0
-313 -364 0
-313 -415 0
-313 -466 0
-313 -517 0
-313 -568 0
-313 -619 0
-313 -670 0
-313 -721 0
-364 -415 0
-364 -466 0
-364 -517 0
-364 -568 0
-364 -619 0
-364 -670 0
-364 -721 0
-415 -466 0
-415 -517 0
-415 -568 0
-415 -619 0
-415 -670 0
-415 -721 0
-466 -517 0
-466 -568 0
-466 -619 0
-466 -670 0
-466 -721 0
-517 -568 0
-517 -619 0
-517 -670 0
-517 -721 0
-568 -619 0
-568 -670 0
-568 -721 0
-619 -670 0
-619 -721 0
-670 -721 0
-8 -59 0
-8 -110 0
-8 -161 0
-8 -212 0
-8 -263 0
-8 -314 0
-8 -365 0
-8 -416 0
-8 -467 0
-8 -518 0
-8 -569 0
-8 -620 0
-8 -671 0
-8 -722 0
-59 -110 0
-59 -161 0
-59 -212 0
-59 -263 0
-59 -314 0
-59 -365 0
-59 -416 0
-59 -467 0
-59 -518 0
-59 -569 0
-59 -620 0
-59 -671 0
-59 -722 0
-110 -161 0
-110 -212 0
-110 -263 0
-110 -314 0
-110 -365 0
-110 -416 0
-110 -467 0
-110 -518 0
-110 -569 0
-110 -620 0
-110 -671 0
-110 -722 0
-161 -212 0
-161 -263 0
-161 -314 0
-161 -365 0
-161 -416 0
-161 -467 0
-161 -518 0
-161 -569 0
-161 -620 0
-161 -671 0
-161 -722 0
-212 -263 0
-212 -314 0
-212 -365 0
-212 -416 0
-212 -467 0
-212 -518 0
-212 -569 0
-212 -620 0
-212 -671 0
-212 -722 0
-263 -314 0
-263 -365 0
-263 -416 0
-263 -467 0
-263 -518 0
-263 -569 0
-263 -620 0
-263 -671 0
-263 -722 0
-314 -365 0
-314 -416 0
-314 -467 0
-314 -518 0
-314 -569 0
-314 -620 0
-314 -671 0
-314 -722 0
-365 -416 0
-365 -467 0
-365 -518 0
-365 -569 0
-365 -620 0
-365 -671 0
-365 -722 0
-416 -467 0
-416 -518 0
-416 -569 0
-416 -620 0
-416 -671 0
-416 -722 0
-467 -518 0
-467 -569 0
-467 -620 0
-467 -671 0
-467 -722 0
-518 -569 0
-518 -620 0
-518 -671 0
-518 -722 0
-569 -620 0
-569 -671 0
-569 -722 0
-620 -671 0
-620 -722 0
-671 -722 0
-9 -60 0
-9 -111 0
-9 -162 0
-9 -213 0
-9 -264 0
-9 -315 0
-9 -366 0
-9 -417 0
-9 -468 0
-9 -519 0
-9 -570 0
-9 -621 0
-9 -672 0
-9 -723 0
-60 -111 0
-60 -162 0
-60 -213 0
-60 -264 0
-60 -315 0
-60 -366 0
-60 -417 0
-60 -468 0
-60 -519 0
-60 -570 0
-60 -621 0
-60 -672 0
-60 -723 0
-111 -162 0
-111 -213 0
-111 -264 0
-111 -315 0
-111 -366 0
-111 -417 0
-111 -468 0
-111 -519 0
-111 -570 0
-111 -621 0
-111 -672 0
-111 -723 0
-162 -213 0
-162 -264 0
-162 -315 0
-162 -366 0
-162 -417 0
-162 -468 0
-162 -519 0
-162 -570 0
-162 -621 0
-162 -672 0
-162 -723 0
-213 -264 0
-213 -315 0
-213 -366 0
-213 -417 0
-213 -468 0
-213 -519 0
-213 -570 0
-213 -621 0
-213 -672 0
-213 -723 0
-264 -315 0
-264 -366 0
-264 -417 0
-264 -468 0
-264 -519 0
-264 -570 0
-264 -621 0
-264 -672 0
-264 -723 0
-315 -366 0
-315 -417 0
-315 -468 0
-315 -519 0
-315 -570 0
-315 -621 0
-315 -672 0
-315 -723 0
-366 -417 0
-366 -468 0
-366 -519 0
-366 -570 0
-366 -621 0
-366 -672 0
-366 -723 0
-417 -468 0
-417 -519 0
-417 -570 0
-417 -621 0
-417 -672 0
-417 -723 0
-468 -519 0
-468 -570 0
-468 -621 0
-468 -672 0
-468 -723 0
-519 -570 0
-519 -621 0
-519 -672 0
-519 -723 0
-570 -621 0
-570 -672 0
-570 -723 0
-621 -672 0
-621 -723 0
-672 -723 0
-10 -61 0
-10 -112 0
-10 -163 0
-10 -214 0
-10 -265 0
-10 -316 0
-10 -367 0
-10 -418 0
-10 -469 0
-10 -520 0
-10 -571 0
-10 -622 0
-10 -673 0
-10 -724 0
-61 -112 0
-61 -163 0
-61 -214 0
-61 -265 0
-61 -316 0
-61 -367 0
-61 -418 0
-61 -469 0
-61 -520 0
-61 -571 0
-61 -622 0
-61 -673 0
-61 -724 0
-112 -163 0
-112 -214 0
-112 -265 0
-112 -316 0
-112 -367 0
-112 -418 0
-112 -469 0
-112 -520 0
-112 -571 0
-112 -622 0
-112 -673 0
-112 -724 0
-163 -214 0
-163 -265 0
-163 -316 0
-163 -367 0
-163 -418 0
-163 -469 0
-163 -520 0
-163 -571 0
-163 -622 0
-163 -673 0
-163 -724 0
-214 -265 0
-214 -316 0
-214 -367 0
-214 -418 0
-214 -469 0
-214 -520 0
-214 -571 0
-214 -622 0
-214 -673 0
-214 -724 0
-265 -316 0
-265 -367 0
-265 -418 0
-265 -469 0
-265 -520 0
-265 -571 0
-265 -622 0
-265 -673 0
-265 -724 0
-316 -367 0
-316 -418 0
-316 -469 0
-316 -520 0
-316 -571 0
-316 -622 0
-316 -673 0
-316 -724 0
-367 -418 0
-367 -469 0
-367 -520 0
-367 -571 0
-367 -622 0
-367 -673 0
-367 -724 0
-418 -469 0
-418 -520 0
-418 -571 0
-418 -622 0
-418 -673 0
-418 -724 0
-469 -520 0
-469 -571 0
-469 -622 0
-469 -673 0
-469 -724 0
-520 -571 0
-520 -622 0
-520 -673 0
-520 -724 0
-571 -622 0
-571 -673 0
-571 -724 0
-622 -673 0
-622 -724 0
-673 -724 0
-11 -62 0
-11 -113 0
-11 -164 0
-11 -215 0
-11 -266 0
-11 -317 0
-11 -368 0
-11 -419 0
-11 -470 0
-11 -521 0
-11 -572 0
-11 -623 0
-11 -674 0
-11 -725 0
-62 -113 0
-62 -164 0
-62 -215 0
-62 -266 0
-62 -317 0
-62 -368 0
-62 -419 0
-62 -470 0
-62 -521 0
-62 -572 0
-62 -623 0
-62 -674 0
-62 -725 0
-113 -164 0
-113 -215 0
-113 -266 0
-113 -317 0
-113 -368 0
-113 -419 0
-113 -470 0
-113 -521 0
-113 -572 0
-113 -623 0
-113 -674 0
-113 -725 0
-164 -215 0
-164 -266 0
-164 -317 0
-164 -368 0
-164 -419 0
-164 -470 0
-164 -521 0
-164 -572 0
-164 -623 0
-164 -674 0
-164 -725 0
-215 -266 0
-215 -317 0
-215 -368 0
-215 -419 0
-215 -470 0
-215 -521 0
-215 -572 0
-215 -623 0
-215 -674 0
-215 -725 0
-266 -317 0
-266 -368 0
-266 -419 0
-266 -470 0
-266 -521 0
-266 -572 0
-266 -623 0
-266 -674 0
-266 -725 0
-317 -368 0
-317 -419 0
-317 -470 0
-317 -521 0
-317 -572 0
-317 -623 0
-317 -674 0
-317 -725 0
-368 -419 0
-368 -470 0
-368 -521 0
-368 -572 0
-368 -623 0
-368 -674 0
-368 -725 0
-419 -470 0
-419 -521 0
-419 -572 0
-419 -623 0
-419 -674 0
-419 -725 0
-470 -521 0
-470 -572 0
-470 -623 0
-470 -674 0
-470 -725 0
-521 -572 0
-521 -623 0
-521 -674 0
-521 -725 0
-572 -623 0
-572 -674 0
-572 -725 0
-623 -674 0
-623 -725 0
-674 -725 0
-12 -63 0
-12 -114 0
-12 -165 0
-12 -216 0
-12 -267 0
-12 -318 0
-12 -369 0
-12 -420 0
-12 -471 0
-12 -522 0
-12 -573 0
-12 -624 0
-12 -675 0
-12 -726 0
-63 -114 0
-63 -165 0
-63 -216 0
-63 -267 0
-63 -318 0
-63 -369 0
-63 -420 0
-63 -471 0
-63 -522 0
-63 -573 0
-63 -624 0
-63 -675 0
-63 -726 0
-114 -165 0
-114 -216 0
-114 -267 0
-114 -318 0
-114 -369 0
-114 -420 0
-114 -471 0
-114 -522 0
-114 -573 0
-114 -624 0
-114 -675 0
-114 -726 0
-165 -216 0
-165 -267 0
-165 -318 0
-165 -369 0
-165 -420 0
-165 -471 0
-165 -522 0
-165 -573 0
-165 -624 0
-165 -675 0
-165 -726 0
-216 -267 0
-216 -318 0
-216 -369 0
-216 -420 0
-216 -471 0
-216 -522 0
-216 -573 0
-216 -624 0
-216 -675 0
-216 -726 0
-267 -318 0
-267 -369 0
-267 -420 0
-267 -471 0
-267 -522 0
-267 -573 0
-267 -624 0
-267 -675 0
-267 -726 0
-318 -369 0
-318 -420 0
-318 -471 0
-318 -522 0
-318 -573 0
-318 -624 0
-318 -675 0
-318 -726 0
-369 -420 0
-369 -471 0
-369 -522 0
-369 -573 0
-369 -624 0
-369 -675 0
-369 -726 0
-420 -471 0
-420 -522 0
-420 -573 0
-420 -624 0
-420 -675 0
-420 -726 0
-471 -522 0
-471 -573 0
-471 -624 0
-471 -675 0
-471 -726 0
-522 -573 0
-522 -624 0
-522 -675 0
-522 -726 0
-573 -624 0
-573 -675 0
-573 -726 0
-624 -675 0
-624 -726 0
-675 -726 0
-13 -64 0
-13 -115 0
-13 -166 0
-13 -217 0
-13 -268 0
-13 -319 0
-13 -370 0
-13 -421 0
-13 -472 0
-13 -523 0
-13 -574 0
-13 -625 0
-13 -676 0
-13 -727 0
-64 -115 0
-64 -166 0
-64 -217 0
-64 -268 0
-64 -319 0
-64 -370 0
-64 -421 0
-64 -472 0
-64 -523 0
-64 -574 0
-64 -625 0
-64 -676 0
-64 -727 0
-115 -166 0
-115 -217 0
-115 -268 0
-115 -319 0
-115 -370 0
-115 -421 0
-115 -472 0
-115 -523 0
-115 -574 0
-115 -625 0
-115 -676 0
-115 -727 0
-166 -217 0
-166 -268 0
-166 -319 0
-166 -370 0
-166 -421 0
-166 -472 0
-166 -523 0
-166 -574 0
-166 -625 0
-166 -676 0
-166 -727 0
-217 -268 0
-217 -319 0
-217 -370 0
-217 -421 0
-217 -472 0
-217 -523 0
-217 -574 0
-217 -625 0
-217 -676 0
-217 -727 0
-268 -319 0
-268 -370 0
-268 -421 0
-268 -472 0
-268 -523 0
-268 -574 0
-268 -625 0
-268 -676 0
-268 -727 0
-319 -370 0
-319 -421 0
-319 -472 0
-319 -523 0
-319 -574 0
-319 -625 0
-319 -676 0
-319 -727 0
-370 -421 0
-370 -472 0
-370 -523 0
-370 -574 0
-370 -625 0
-370 -676 0
-370 -727 0
-421 -472 0
-421 -523 0
-421 -574 0
-421 -625 0
-421 -676 0
-421 -727 0
-472 -523 0
-472 -574 0
-472 -625 0
-472 -676 0
-472 -727 0
-523 -574 0
-523 -625 0
-523 -676 0
-523 -727 0
-574 -625 0
-574 -676 0
-574 -727 0
-625 -676 0
-625 -727 0
-676 -727 0
-14 -65 0
-14 -116 0
-14 -167 0
-14 -218 0
-14 -269 0
-14 -320 0
-14 -371 0
-14 -422 0
-14 -473 0
-14 -524 0
-14 -575 0
-14 -626 0
-14 -677 0
-14 -728 0
-65 -116 0
-65 -167 0
-65 -218 0
-65 -269 0
-65 -320 0
-65 -371 0
-65 -422 0
-65 -473 0
-65 -524 0
-65 -575 0
-65 -626 0
-65 -677 0
-65 -728 0
-116 -167 0
-116 -218 0
-116 -269 0
-116 -320 0
-116 -371 0
-116 -422 0
-116 -473 0
-116 -524 0
-116 -575 0
-116 -626 0
-116 -677 0
-116 -728 0
-167 -218 0
-167 -269 0
-167 -320 0
-167 -371 0
-167 -422 0
-167 -473 0
-167 -524 0
-167 -575 0
-167 -626 0
-167 -677 0
-167 -728 0
-218 -269 0
-218 -320 0
-218 -371 0
-218 -422 0
-218 -473 0
-218 -524 0
-218 -575 0
-218 -626 0
-218 -677 0
-218 -728 0
-269 -320 0
-269 -371 0
-269 -422 0
-269 -473 0
-269 -524 0
-269 -575 0
-269 -626 0
-269 -677 0
-269 -728 0
-320 -371 0
-320 -422 0
-320 -473 0
-320 -524 0
-320 -575 0
-320 -626 0
-320 -677 0
-320 -728 0
-371 -422 0
-371 -473 0
-371 -524 0
-371 -575 0
-371 -626 0
-371 -677 0
-371 -728 0
-422 -473 0
-422 -524 0
-422 -575 0
-422 -626 0
-422 -677 0
-422 -728 0
-473 -524 0
-473 -575 0
-473 -626 0
-473 -677 0
-473 -728 0
-524 -575 0
-524 -626 0
-524 -677 0
-524 -728 0
-575 -626 0
-575 -677 0
-575 -728 0
-626 -677 0
-626 -728 0
-677 -728 0
-15 -66 0
-15 -117 0
-15 -168 0
-15 -219 0
-15 -270 0
-15 -321 0
-15 -372 0
-15 -423 0
-15 -474 0
-15 -525 0
-15 -576 0
-15 -627 0
-15 -678 0
-15 -729 0
-66 -117 0
-66 -168 0
-66 -219 0
-66 -270 0
-66 -321 0
-66 -372 0
-66 -423 0
-66 -474 0
-66 -525 0
-66 -576 0
-66 -627 0
-66 -678 0
-66 -729 0
-117 -168 0
-117 -219 0
-117 -270 0
-117 -321 0
-117 -372 0
-117 -423 0
-117 -474 0
-117 -525 0
-117 -576 0
-117 -627 0
-117 -678 0
-117 -729 0
-168 -219 0
-168 -270 0
-168 -321 0
-168 -372 0
-168 -423 0
-168 -474 0
-168 -525 0
-168 -576 0
-168 -627 0
-168 -678 0
-168 -729 0
-219 -270 0
-219 -321 0
-219 -372 0
-219 -423 0
-219 -474 0
-219 -525 0
-219 -576 0
-219 -627 0
-219 -678 0
-219 -729 0
-270 -321 0
-270 -372 0
-270 -423 0
-270 -474 0
-270 -525 0
-270 -576 0
-270 -627 0
-270 -678 0
-270 -729 0
-321 -372 0
-321 -423 0
-321 -474 0
-321 -525 0
-321 -576 0
-321 -627 0
-321 -678 0
-321 -729 0
-372 -423 0
-372 -474 0
-372 -525 0
-372 -576 0
-372 -627 0
-372 -678 0
-372 -729 0
-423 -474 0
-423 -525 0
-423 -576 0
-423 -627 0
-423 -678 0
-423 -729 0
-474 -525 0
-474 -576 0
-474 -627 0
-474 -678 0
-474 -729 0
-525 -576 0
-525 -627 0
-525 -678 0
-525 -729 0
-576 -627 0
-576 -678 0
-576 -729 0
-627 -678 0
-627 -729 0
-678 -729 0
-16 -67 0
-16 -118 0
-16 -169 0
-16 -220 0
-16 -271 0
-16 -322 0
-16 -373 0
-16 -424 0
-16 -475 0
-16 -526 0
-16 -577 0
-16 -628 0
-16 -679 0
-16 -730 0
-67 -118 0
-67 -169 0
-67 -220 0
-67 -271 0
-67 -322 0
-67 -373 0
-67 -424 0
-67 -475 0
-67 -526 0
-67 -577 0
-67 -628 0
-67 -679 0
-67 -730 0
-118 -169 0
-118 -220 0
-118 -271 0
-118 -322 0
-118 -373 0
-118 -424 0
-118 -475 0
-118 -526 0
-118 -577 0
-118 -628 0
-118 -679 0
-118 -730 0
-169 -220 0
-169 -271 0
-169 -322 0
-169 -373 0
-169 -424 0
-169 -475 0
-169 -526 0
-169 -577 0
-169 -628 0
-169 -679 0
-169 -730 0
-220 -271 0
-220 -322 0
-220 -373 0
-220 -424 0
-220 -475 0
-220 -526 0
-220 -577 0
-220 -628 0
-220 -679 0
-220 -730 0
-271 -322 0
-271 -373 0
-271 -424 0
-271 -475 0
-271 -526 0
-271 -577 0
-271 -628 0
-271 -679 0
-271 -730 0
-322 -373 0
-322 -424 0
-322 -475 0
-322 -526 0
-322 -577 0
-322 -628 0
-322 -679 0
-322 -730 0
-373 -424 0
-373 -475 0
-373 -526 0
-373 -577 0
-373 -628 0
-373 -679 0
-373 -730 0
-424 -475 0
-424 -526 0
-424 -577 0
-424 -628 0
-424 -679 0
-424 -730 0
-475 -526 0
-475 -577 0
-475 -628 0
-475 -679 0
-475 -730 0
-526 -577 0
-526 -628 0
-526 -679 0
-526 -730 0
-577 -628 0
-577 -679 0
-577 -730 0
-628 -679 0
-628 -730 0
-679 -730 0
-17 -68 0
-17 -119 0
-17 -170 0
-17 -221 0
-17 -272 0
-17 -323 0
-17 -374 0
-17 -425 0
-17 -476 0
-17 -527 0
-17 -578 0
-17 -629 0
-17 -680 0
-17 -731 0
-68 -119 0
-68 -170 0
-68 -221 0
-68 -272 0
-68 -323 0
-68 -374 0
-68 -425 0
-68 -476 0
-68 -527 0
-68 -578 0
-68 -629 0
-68 -680 0
-68 -731 0
-119 -170 0
-119 -221 0
-119 -272 0
-119 -323 0
-119 -374 0
-119 -425 0
-119 -476 0
-119 -527 0
-119 -578 0
-119 -629 0
-119 -680 0
-119 -731 0
-170 -221 0
-170 -272 0
-170 -323 0
-170 -374 0
-170 -425 0
-170 -476 0
-170 -527 0
-170 -578 0
-170 -629 0
-170 -680 0
-170 -731 0
-221 -272 0
-221 -323 0
-221 -374 0
-221 -425 0
-221 -476 0
-221 -527 0
-221 -578 0
-221 -629 0
-221 -680 0
-221 -731 0
-272 -323 0
-272 -374 0
-272 -425 0
-272 -476 0
-272 -527 0
-272 -578 0
-272 -629 0
-272 -680 0
-272 -731 0
-323 -374 0
-323 -425 0
-323 -476 0
-323 -527 0
-323 -578 0
-323 -629 0
-323 -680 0
-323 -731 0
-374 -425 0
-374 -476 0
-374 -527 0
-374 -578 0
-374 -629 0
-374 -680 0
-374 -731 0
-425 -476 0
-425 -527 0
-425 -578 0
-425 -629 0
-425 -680 0
-425 -731 0
-476 -527 0
-476 -578 0
-476 -629 0
-476 -680 0
-476 -731 0
-527 -578 0
-527 -629 0
-527 -680 0
-527 -731 0
-578 -629 0
-578 -680 0
-578 -731 0
-629 -680 0
-629 -731 0
-680 -731 0
766 767 768 0
-766 -767 0
-766 -768 0
-767 -768 0
-1 766 0
-2 766 767 0
-3 766 767 768 0
-4 766 767 768 0
-5 766 767 768 0
-6 766 767 768 0
-7 766 767 768 0
-8 766 767 768 0
-9 766 767 768 0
-10 766 767 768 0
-11 766 767 768 0
-12 766 767 768 0
-13 766 767 768 0
-14 766 767 768 0
-15 766 767 768 0
-16 767 768 0
-17 768 0
-52 766 0
-53 766 767 0
-54 766 767 768 0
-55 766 767 768 0
-56 766 767 768 0
-57 766 767 768 0
-58 766 767 768 0
-59 766 767 768 0
-60 766 767 768 0
-61 766 767 768 0
-62 766 767 768 0
-63 766 767 768 0
-64 766 767 768 0
-65 766 767 768 0
-66 766 767 768 0
-67 767 768 0
-68 768 0
-103 766 0
-104 766 767 0
-105 766 767 768 0
-106 766 767 768 0
-107 766 767 768 0
-108 766 767 768 0
-109 766 767 768 0
-110 766 767 768 0
-111 766 767 768 0
-112 766 767 768 0
-113 766 767 768 0
-114 766 767 768 0
-115 766 767 768 0
-116 766 767 768 0
-117 766 767 768 0
-118 767 768 0
-119 768 0
-154 766 0
-155 766 767 0
-156 766 767 768 0
-157 766 767 768 0
-158 766 767 768 0
-159 766 767 768 0
-160 766 767 768 0
-161 766 767 768 0
-162 766 767 768 0
-163 766 767 768 0
-164 766 767 768 0
-165 766 767 768 0
-166 766 767 768 0
-167 766 767 768 0
-168 766 767 768 0
-169 767 768 0
-170 768 0
-205 766 0
-206 766 767 0
-207 766 767 768 0
-208 766 767 768 0
-209 766 767 768 0
-210 766 767 768 0
-211 766 767 768 0
-212 766 767 768 0
-213 766 767 768 0
-214 766 767 768 0
-215 766 767 768 0
-216 766 767 768 0
-217 766 767 768 0
-218 766 767 768 0
-219 766 767 768 0
-220 767 768 0
-221 768 0
-256 766 0
-257 766 767 0
-258 766 767 768 0
-259 766 767 768 0
-260 766 767 768 0
-261 766 767 768 0
-262 766 767 768 0
-263 766 767 768 0
-264 766 767 768 0
-265 766 767 768 0
-266 766 767 768 0
-267 766 767 768 0
-268 766 767 768 0
-269 766 767 768 0
-270 766 767 768 0
-271 767 768 0
-272 768 0
-307 766 0
-308 766 767 0
-309 766 767 768 0
-310 766 767 768 0
-311 766 767 768 0
-312 766 767 768 0
-313 766 767 768 0
-314 766 767 768 0
-315 766 767 768 0
-316 766 767 768 0
-317 766 767 768 0
-318 766 767 768 0
-319 766 767 768 0
-320 766 767 768 0
-321 766 767 768 0
-322 767 768 0
-323 768 0
-358 766 0
-359 766 767 0
-360 766 767 768 0
-361 766 767 768 0
-362 766 767 768 0
-363 766 767 768 0
-364 766 767 768 0
-365 766 767 768 0
-366 766 767 768 0
-367 766 767 768 0
-368 766 767 768 0
-369 766 767 768 0
-370 766 767 768 0
-371 766 767 768 0
-372 766 767 768 0
-373 767 768 0
-374 768 0
-409 766 0
-410 766 767 0
-411 766 767 768 0
-412 766 767 768 0
-413 766 767 768 0
-414 766 767 768 0
-415 766 767 768 0
-416 766 767 768 0
-417 766 767 768 0
-418 766 767 768 0
-419 766 767 768 0
-420 766 767 768 0
-421 766 767 768 0
-422 766 767 768 0
-423 766 767 768 0
-424 767 768 0
-425 768 0
-460 766 0
-461 766 767 0
-462 766 767 768 0
-463 766 767 768 0
-464 766 767 768 0
-465 766 767 768 0
-466 766 767 768 0
-467 766 767 768 0
-468 766 767 768 0
-469 766 767 768 0
-470 766 767 768 0
-471 766 767 768 0
-472 766 767 768 0
-473 766 767 768 0
-474 766 767 768 0
-475 767 768 0
-476 768 0
-511 766 0
-512 766 767 0
-513 766 767 768 0
-514 766 767 768 0
-515 766 767 768 0
-516 766 767 768 0
-517 766 767 768 0
-518 766 767 768 0
-519 766 767 768 0
-520 766 767 768 0
-521 766 767 768 0
-522 766 767 768 0
-523 766 767 768 0
-524 766 767 768 0
-525 766 767 768 0
-526 767 768 0
-527 768 0
-562 766 0
-563 766 767 0
-564 766 767 768 0
-565 766 767 768 0
-566 766 767 768 0
-567 766 767 768 0
-568 766 767 768 0
-569 766 767 768 0
-570 766 767 768 0
-571 766 767 768 0
-572 766 767 768 0
-573 766 767 768 0
-574 766 767 768 0
-575 766 767 768 0
-576 766 767 768 0
-577 767 768 0
-578 768 0
-613 766 0
-614 766 767 0
-615 766 767 768 0
-616 766 767 768 0
-617 766 767 768 0
-618 766 767 768 0
-619 766 767 768 0
-620 766 767 768 0
-621 766 767 768 0
-622 766 767 768 0
-623 766 767 768 0
-624 766 767 768 0
-625 766 767 768 0
-626 766 767 768 0
-627 766 767 768 0
-628 767 768 0
-629 768 0
-664 766 0
-665 766 767 0
-666 766 767 768 0
-667 766 767 768 0
-668 766 767 768 0
-669 766 767 768 0
-670 766 767 768 0
-671 766 767 768 0
-672 766 767 768 0
-673 766 767 768 0
-674 766 767 768 0
-675 766 767 768 0
-676 766 767 768 0
-677 766 767 768 0
-678 766 767 768 0
-679 767 768 0
-680 768 0
-715 766 0
-716 766 767 0
-717 766 767 768 0
-718 766 767 768 0
-719 766 767 768 0
-720 766 767 768 0
-721 766 767 768 0
-722 766 767 768 0
-723 766 767 768 0
-724 766 767 768 0
-725 766 767 768 0
-726 766 767 768 0
-727 766 767 768 0
-728 766 767 768 0
-729 766 767 768 0
-730 767 768 0
-731 768 0
-766 -16 0
-766 -17 0
-766 -67 0
-766 -68 0
-766 -118 0
-766 -119 0
-766 -169 0
-766 -170 0
-766 -220 0
-766 -221 0
-766 -271 0
-766 -272 0
-766 -322 0
-766 -323 0
-766 -373 0
-766 -374 0
-766 -424 0
-766 -425 0
-766 -475 0
-766 -476 0
-766 -526 0
-766 -527 0
-766 -577 0
-766 -578 0
-766 -628 0
-766 -629 0
-766 -679 0
-766 -680 0
-766 -730 0
-766 -731 0
-767 -1 0
-767 -17 0
-767 -52 0
-767 -68 0
-767 -103 0
-767 -119 0
-767 -154 0
-767 -170 0
-767 -205 0
-767 -221 0
-767 -256 0
-767 -272 0
-767 -307 0
-767 -323 0
-767 -358 0
-767 -374 0
-767 -409 0
-767 -425 0
-767 -460 0
-767 -476 0
-767 -511 0
-767 -527 0
-767 -562 0
-767 -578 0
-767 -613 0
-767 -629 0
-767 -664 0
-767 -680 0
-767 -715 0
-767 -731 0
-768 -1 0
-768 -2 0
-768 -52 0
-768 -53 0
-768 -103 0
-768 -104 0
-768 -154 0
-768 -155 0
-768 -205 0
-768 -206 0
-768 -256 0
-768 -257 0
-768 -307 0
-768 -308 0
-768 -358 0
-768 -359 0
-768 -409 0
-768 -410 0
-768 -460 0
-768 -461 0
-768 -511 0
-768 -512 0
-768 -562 0
-768 -563 0
-768 -613 0
-768 -614 0
-768 -664 0
-768 -665 0
-768 -715 0
-768 -716 0
-18 -69 0
-18 -120 0
-18 -171 0
-18 -222 0
-18 -273 0
-18 -324 0
-18 -375 0
-18 -426 0
-18 -477 0
-69 -120 0
-69 -171 0
-69 -222 0
-69 -273 0
-69 -324 0
-69 -375 0
-69 -426 0
-69 -477 0
-120 -171 0
-120 -222 0
-120 -273 0
-120 -324 0
-120 -375 0
-120 -426 0
-120 -477 0
-171 -222 0
-171 -273 0
-171 -324 0
-171 -375 0
-171 -426 0
-171 -477 0
-222 -273 0
-222 -324 0
-222 -375 0
-222 -426 0
-222 -477 0
-273 -324 0
-273 -375 0
-273 -426 0
-273 -477 0
-324 -375 0
-324 -426 0
-324 -477 0
-375 -426 0
-375 -477 0
-426 -477 0
-19 -70 0
-19 -121 0
-19 -172 0
-19 -223 0
-19 -274 0
-19 -325 0
-19 -376 0
-19 -427 0
-19 -478 0
-70 -121 0
-70 -172 0
-70 -223 0
-70 -274 0
-70 -325 0
-70 -376 0
-70 -427 0
-70 -478 0
-121 -172 0
-121 -223 0
-121 -274 0
-121 -325 0
-121 -376 0
-121 -427 0
-121 -478 0
-172 -223 0
-172 -274 0
-172 -325 0
-172 -376 0
-172 -427 0
-172 -478 0
-223 -274 0
-223 -325 0
-223 -376 0
-223 -427 0
-223 -478 0
-274 -325 0
-274 -376 0
-274 -427 0
-274 -478 0
-325 -376 0
-325 -427 0
-325 -478 0
-376 -427 0
-376 -478 0
-427 -478 0
-20 -71 0
-20 -122 0
-20 -173 0
-20 -224 0
-20 -275 0
-20 -326 0
-20 -377 0
-20 -428 0
-20 -479 0
-71 -122 0
-71 -173 0
-71 -224 0
-71 -275 0
-71 -326 0
-71 -377 0
-71 -428 0
-71 -479 0
-122 -173 0
-122 -224 0
-122 -275 0
-122 -326 0
-122 -377 0
-122 -428 0
-122 -479 0
-173 -224 0
-173 -275 0
-173 -326 0
-173 -377 0
-173 -428 0
-173 -479 0
-224 -275 0
-224 -326 0
-224 -377 0
-224 -428 0
-224 -479 0
-275 -326 0
-275 -377 0
-275 -428 0
-275 -479 0
-326 -377 0
-326 -428 0
-326 -479 0
-377 -428 0
-377 -479 0
-428 -479 0
-21 -72 0
-21 -123 0
-21 -174 0
-21 -225 0
-21 -276 0
-21 -327 0
-21 -378 0
-21 -429 0
-21 -480 0
-72 -123 0
-72 -174 0
-72 -225 0
-72 -276 0
-72 -327 0
-72 -378 0
-72 -429 0
-72 -480 0
-123 -174 0
-123 -225 0
-123 -276 0
-123 -327 0
-123 -378 0
-123 -429 0
-123 -480 0
-174 -225 0
-174 -276 0
-174 -327 0
-174 -378 0
-174 -429 0
-174 -480 0
-225 -276 0
-225 -327 0
-225 -378 0
-225 -429 0
-225 -480 0
-276 -327 0
-276 -378 0
-276 -429 0
-276 -480 0
-327 -378 0
-327 -429 0
-327 -480 0
-378 -429 0
-378 -480 0
-429 -480 0
-22 -73 0
-22 -124 0
-22 -175 0
-22 -226 0
-22 -277 0
-22 -328 0
-22 -379 0
-22 -430 0
-22 -481 0
-73 -124 0
-73 -175 0
-73 -226 0
-73 -277 0
-73 -328 0
-73 -379 0
-73 -430 0
-73 -481 0
-124 -175 0
-124 -226 0
-124 -277 0
-124 -328 0
-124 -379 0
-124 -430 0
-124 -481 0
-175 -226 0
-175 -277 0
-175 -328 0
-175 -379 0
-175 -430 0
-175 -481 0
-226 -277 0
-226 -328 0
-226 -379 0
-226 -430 0
-226 -481 0
-277 -328 0
-277 -379 0
-277 -430 0
-277 -481 0
-328 -379 0
-328 -430 0
-328 -481 0
-379 -430 0
-379 -481 0
-430 -481 0
-23 -74 0
-23 -125 0
-23 -176 0
-23 -227 0
-23 -278 0
-23 -329 0
-23 -380 0
-23 -431 0
-23 -482 0
-74 -125 0
-74 -176 0
-74 -227 0
-74 -278 0
-74 -329 0
-74 -380 0
-74 -431 0
-74 -482 0
-125 -176 0
-125 -227 0
-125 -278 0
-125 -329 0
-125 -380 0
-125 -431 0
-125 -482 0
-176 -227 0
-176 -278 0
-176 -329 0
-176 -380 0
-176 -431 0
-176 -482 0
-227 -278 0
-227 -329 0
-227 -380 0
-227 -431 0
-227 -482 0
-278 -329 0
-278 -380 0
-278 -431 0
-278 -482 0
-329 -380 0
-329 -431 0
-329 -482 0
-380 -431 0
-380 -482 0
-431 -482 0
-24 -75 0
-24 -126 0
-24 -177 0
-24 -228 0
-24 -279 0
-24 -330 0
-24 -381 0
-24 -432 0
-24 -483 0
-75 -126 0
-75 -177 0
-75 -228 0
-75 -279 0
-75 -330 0
-75 -381 0
-75 -432 0
-75 -483 0
-126 -177 0
-126 -228 0
-126 -279 0
-126 -330 0
-126 -381 0
-126 -432 0
-126 -483 0
-177 -228 0
-177 -279 0
-177 -330 0
-177 -381 0
-177 -432 0
-177 -483 0
-228 -279 0
-228 -330 0
-228 -381 0
-228 -432 0
-228 -483 0
-279 -330 0
-279 -381 0
-279 -432 0
-279 -483 0
-330 -381 0
-330 -432 0
-330 -483 0
-381 -432 0
-381 -483 0
-432 -483 0
-25 -76 0
-25 -127 0
-25 -178 0
-25 -229 0
-25 -280 0
-25 -331 0
-25 -382 0
-25 -433 0
-25 -484 0
-76 -127 0
-76 -178 0
-76 -229 0
-76 -280 0
-76 -331 0
-76 -382 0
-76 -433 0
-76 -484 0
-127 -178 0
-127 -229 0
-127 -280 0
-127 -331 0
-127 -382 0
-127 -433 0
-127 -484 0
-178 -229 0
-178 -280 0
-178 -331 0
-178 -382 0
-178 -433 0
-178 -484 0
-229 -280 0
-229 -331 0
-229 -382 0
-229 -433 0
-229 -484 0
-280 -331 0
-280 -382 0
-280 -433 0
-280 -484 0
-331 -382 0
-331 -433 0
-331 -484 0
-382 -433 0
-382 -484 0
-433 -484 0
-26 -77 0
-26 -128 0
-26 -179 0
-26 -230 0
-26 -281 0
-26 -332 0
-26 -383 0
-26 -434 0
-26 -485 0
-77 -128 0
-77 -179 0
-77 -230 0
-77 -281 0
-77 -332 0
-77 -383 0
-77 -434 0
-77 -485 0
-128 -179 0
-128 -230 0
-128 -281 0
-128 -332 0
-128 -383 0
-128 -434 0
-128 -485 0
-179 -230 0
-179 -281 0
-179 -332 0
-179 -383 0
-179 -434 0
-179 -485 0
-230 -281 0
-230 -332 0
-230 -383 0
-230 -434 0
-230 -485 0
-281 -332 0
-281 -383 0
-281 -434 0
-281 -485 0
-332 -383 0
-332 -434 0
-332 -485 0
-383 -434 0
-383 -485 0
-434 -485 0
-27 -78 0
-27 -129 0
-27 -180 0
-27 -231 0
-27 -282 0
-27 -333 0
-27 -384 0
-27 -435 0
-27 -486 0
-78 -129 0
-78 -180 0
-78 -231 0
-78 -282 0
-78 -333 0
-78 -384 0
-78 -435 0
-78 -486 0
-129 -180 0
-129 -231 0
-129 -282 0
-129 -333 0
-129 -384 0
-129 -435 0
-129 -486 0
-180 -231 0
-180 -282 0
-180 -333 0
-180 -384 0
-180 -435 0
-180 -486 0
-231 -282 0
-231 -333 0
-231 -384 0
-231 -435 0
-231 -486 0
-282 -333 0
-282 -384 0
-282 -435 0
-282 -486 0
-333 -384 0
-333 -435 0
-333 -486 0
-384 -435 0
-384 -486 0
-435 -486 0
-28 -79 0
-28 -130 0
-28 -181 0
-28 -232 0
-28 -283 0
-28 -334 0
-28 -385 0
-28 -436 0
-28 -487 0
-79 -130 0
-79 -181 0
-79 -232 0
-79 -283 0
-79 -334 0
-79 -385 0
-79 -436 0
-79 -487 0
-130 -181 0
-130 -232 0
-130 -283 0
-130 -334 0
-130 -385 0
-130 -436 0
-130 -487 0
-181 -232 0
-181 -283 0
-181 -334 0
-181 -385 0
-181 -436 0
-181 -487 0
-232 -283 0
-232 -334 0
-232 -385 0
-232 -436 0
-232 -487 0
-283 -334 0
-283 -385 0
-283 -436 0
-283 -487 0
-334 -385 0
-334 -436 0
-334 -487 0
-385 -436 0
-385 -487 0
-436 -487 0
-29 -80 0
-29 -131 0
-29 -182 0
-29 -233 0
-29 -284 0
-29 -335 0
-29 -386 0
-29 -437 0
-29 -488 0
-80 -131 0
-80 -182 0
-80 -233 0
-80 -284 0
-80 -335 0
-80 -386 0
-80 -437 0
-80 -488 0
-131 -182 0
-131 -233 0
-131 -284 0
-131 -335 0
-131 -386 0
-131 -437 0
-131 -488 0
-182 -233 0
-182 -284 0
-182 -335 0
-182 -386 0
-182 -437 0
-182 -488 0
-233 -284 0
-233 -335 0
-233 -386 0
-233 -437 0
-233 -488 0
-284 -335 0
-284 -386 0
-284 -437 0
-284 -488 0
-335 -386 0
-335 -437 0
-335 -488 0
-386 -437 0
-386 -488 0
-437 -488 0
-30 -81 0
-30 -132 0
-30 -183 0
-30 -234 0
-30 -285 0
-30 -336 0
-30 -387 0
-30 -438 0
-30 -489 0
-81 -132 0
-81 -183 0
-81 -234 0
-81 -285 0
-81 -336 0
-81 -387 0
-81 -438 0
-81 -489 0
-132 -183 0
-132 -234 0
-132 -285 0
-132 -336 0
-132 -387 0
-132 -438 0
-132 -489 0
-183 -234 0
-183 -285 0
-183 -336 0
-183 -387 0
-183 -438 0
-183 -489 0
-234 -285 0
-234 -336 0
-234 -387 0
-234 -438 0
-234 -489 0
-285 -336 0
-285 -387 0
-285 -438 0
-285 -489 0
-336 -387 0
-336 -438 0
-336 -489 0
-387 -438 0
-387 -489 0
-438 -489 0
-31 -82 0
-31 -133 0
-31 -184 0
-31 -235 0
-31 -286 0
-31 -337 0
-31 -388 0
-31 -439 0
-31 -490 0
-82 -133 0
-82 -184 0
-82 -235 0
-82 -286 0
-82 -337 0
-82 -388 0
-82 -439 0
-82 -490 0
-133 -184 0
-133 -235 0
-133 -286 0
-133 -337 0
-133 -388 0
-133 -439 0
-133 -490 0
-184 -235 0
-184 -286 0
-184 -337 0
-184 -388 0
-184 -439 0
-184 -490 0
-235 -286 0
-235 -337 0
-235 -388 0
-235 -439 0
-235 -490 0
-286 -337 0
-286 -388 0
-286 -439 0
-286 -490 0
-337 -388 0
-337 -439 0
-337 -490 0
-388 -439 0
-388 -490 0
-439 -490 0
-32 -83 0
-32 -134 0
-32 -185 0
-32 -236 0
-32 -287 0
-32 -338 0
-32 -389 0
-32 -440 0
-32 -491 0
-83 -134 0
-83 -185 0
-83 -236 0
-83 -287 0
-83 -338 0
-83 -389 0
-83 -440 0
-83 -491 0
-134 -185 0
-134 -236 0
-134 -287 0
-134 -338 0
-134 -389 0
-134 -440 0
-134 -491 0
-185 -236 0
-185 -287 0
-185 -338 0
-185 -389 0
-185 -440 0
-185 -491 0
-236 -287 0
-236 -338 0
-236 -389 0
-236 -440 0
-236 -491 0
-287 -338 0
-287 -389 0
-287 -440 0
-287 -491 0
-338 -389 0
-338 -440 0
-338 -491 0
-389 -440 0
-389 -491 0
-440 -491 0
-33 -84 0
-33 -135 0
-33 -186 0
-33 -237 0
-33 -288 0
-33 -339 0
-33 -390 0
-33 -441 0
-33 -492 0
-84 -135 0
-84 -186 0
-84 -237 0
-84 -288 0
-84 -339 0
-84 -390 0
-84 -441 0
-84 -492 0
-135 -186 0
-135 -237 0
-135 -288 0
-135 -339 0
-135 -390 0
-135 -441 0
-135 -492 0
-186 -237 0
-186 -288 0
-186 -339 0
-186 -390 0
-186 -441 0
-186 -492 0
-237 -288 0
-237 -339 0
-237 -390 0
-237 -441 0
-237 -492 0
-288 -339 0
-288 -390 0
-288 -441 0
-288 -492 0
-339 -390 0
-339 -441 0
-339 -492 0
-390 -441 0
-390 -492 0
-441 -492 0
-34 -85 0
-34 -136 0
-34 -187 0
-34 -238 0
-34 -289 0
-34 -340 0
-34 -391 0
-34 -442 0
-34 -493 0
-85 -136 0
-85 -187 0
-85 -238 0
-85 -289 0
-85 -340 0
-85 -391 0
-85 -442 0
-85 -493 0
-136 -187 0
-136 -238 0
-136 -289 0
-136 -340 0
-136 -391 0
-136 -442 0
-136 -493 0
-187 -238 0
-187 -289 0
-187 -340 0
-187 -391 0
-187 -442 0
-187 -493 0
-238 -289 0
-238 -340 0
-238 -391 0
-238 -442 0
-238 -493 0
-289 -340 0
-289 -391 0
-289 -442 0
-289 -493 0
-340 -391 0
-340 -442 0
-340 -493 0
-391 -442 0
-391 -493 0
-442 -493 0
769 770 771 772 773 774 775 776 0
-769 -770 0
-769 -771 0
-769 -772 0
-769 -773 0
-769 -774 0
-769 -775 0
-769 -776 0
-770 -771 0
-770 -772 0
-770 -773 0
-770 -774 0
-770 -775 0
-770 -776 0
-771 -772 0
-771 -773 0
-771 -774 0
-771 -775 0
-771 -776 0
-772 -773 0
-772 -774 0
-772 -775 0
-772 -776 0
-773 -774 0
-773 -775 0
-773 -776 0
-774 -775 0
-774 -776 0
-775 -776 0
-18 769 0
-19 769 770 0
-20 769 770 771 0
-21 769 770 771 772 0
-22 769 770 771 772 773 0
-23 769 770 771 772 773 774 0
-24 769 770 771 772 773 774 775 0
-25 769 770 771 772 773 774 775 776 0
-26 769 770 771 772 773 774 775 776 0
-27 769 770 771 772 773 774 775 776 0
-28 770 771 772 773 774 775 776 0
-29 771 772 773 774 775 776 0
-30 772 773 774 775 776 0
-31 773 774 775 776 0
-32 774 775 776 0
-33 775 776 0
-34 776 0
-69 769 0
-70 769 770 0
-71 769 770 771 0
-72 769 770 771 772 0
-73 769 770 771 772 773 0
-74 769 770 771 772 773 774 0
-75 769 770 771 772 773 774 775 0
-76 769 770 771 772 773 774 775 776 0
-77 769 770 771 772 773 774 775 776 0
-78 769 770 771 772 773 774 775 776 0
-79 770 771 772 773 774 775 776 0
-80 771 772 773 774 775 776 0
-81 772 773 774 775 776 0
-82 773 774 775 776 0
-83 774 775 776 0
-84 775 776 0
-85 776 0
-120 769 0
-121 769 770 0
-122 769 770 771 0
-123 769 770 771 772 0
-124 769 770 771 772 773 0
-125 769 770 771 772 773 774 0
-126 769 770 771 772 773 774 775 0
-127 769 770 771 772 773 774 775 776 0
-128 769 770 771 772 773 774 775 776 0
-129 769 770 771 772 773 774 775 776 0
-130 770 771 772 773 774 775 776 0
-131 771 772 773 774 775 776 0
-132 772 773 774 775 776 0
-133 773 774 775 776 0
-134 774 775 776 0
-135 775 776 0
-136 776 0
-171 769 0
-172 769 770 0
-173 769 770 771 0
-174 769 770 771 772 0
-175 769 770 771 772 773 0
-176 769 770 771 772 773 774 0
-177 769 770 771 772 773 774 775 0
-178 769 770 771 772 773 774 775 776 0
-179 769 770 771 772 773 774 775 776 0
-180 769 770 771 772 773 774 775 776 0
-181 770 771 772 773 774 775 776 0
-182 771 772 773 774 775 776 0
-183 772 773 774 775 776 0
-184 773 774 775 776 0
-185 774 775 776 0
-186 775 776 0
-187 776 0
-222 769 0
-223 769 770 0
-224 769 770 771 0
-225 769 770 771 772 0
-226 769 770 771 772 773 0
-227 769 770 771 772 773 774 0
-228 769 770 771 772 773 774 775 0
-229 769 770 771 772 773 774 775 776 0
-230 769 770 771 772 773 774 775 776 0
-231 769 770 771 772 773 774 775 776 0
-232 770 771 772 773 774 775 776 0
-233 771 772 773 774 775 776 0
-234 772 773 774 775 776 0
-235 773 774 775 776 0
-236 774 775 776 0
-237 775 776 0
-238 776 0
-273 769 0
-274 769 770 0
-275 769 770 771 0
-276 769 770 771 772 0
-277 769 770 771 772 773 0
-278 769 770 771 772 773 774 0
-279 769 770 771 772 773 774 775 0
-280 769 770 771 772 773 774 775 776 0
-281 769 770 771 772 773 774 775 776 0
-282 769 770 771 772 773 774 775 776 0
-283 770 771 772 773 774 775 776 0
-284 771 772 773 774 775 776 0
-285 772 773 774 775 776 0
-286 773 774 775 776 0
-287 774 775 776 0
-288 775 776 0
-289 776 0
-324 769 0
-325 769 770 0
-326 769 770 771 0
-327 769 770 771 772 0
-328 769 770 771 772 773 0
-329 769 770 771 772 773 774 0
-330 769 770 771 772 773 774 775 0
-331 769 770 771 772 773 774 775 776 0
-332 769 770 771 772 773 774 775 776 0
-333 769 770 771 772 773 774 775 776 0
-334 770 771 772 773 774 775 776 0
-335 771 772 773 774 775 776 0
-336 772 773 774 775 776 0
-337 773 774 775 776 0
-338 774 775 776 0
-339 775 776 0
-340 776 0
-375 769 0
-376 769 770 0
-377 769 770 771 0
-378 769 770 771 772 0
-379 769 770 771 772 773 0
-380 769 770 771 772 773 774 0
-381 769 770 771 772 773 774 775 0
-382 769 770 771 772 773 774 775 776 0
-383 769 770 771 772 773 774 775 776 0
-384 769 770 771 772 773 774 775 776 0
-385 770 771 772 773 774 775 776 0
-386 771 772 773 774 775 776 0
-387 772 773 774 775 776 0
-388 773 774 775 776 0
-389 774 775 776 0
-390 775 776 0
-391 776 0
-426 769 0
-427 769 770 0
-428 769 770 771 0
-429 769 770 771 772 0
-430 769 770 771 772 773 0
-431 769 770 771 772 773 774 0
-432 769 770 771 772 773 774 775 0
-433 769 770 771 772 773 774 775 776 0
-434 769 770 771 772 773 774 775 776 0
-435 769 770 771 772 773 774 775 776 0
-436 770 771 772 773 774 775 776 0
-437 771 772 773 774 775 776 0
-438 772 773 774 775 776 0
-439 773 774 775 776 0
-440 774 775 776 0
-441 775 776 0
-442 776 0
-477 769 0
-478 769 770 0
-479 769 770 771 0
-480 769 770 771 772 0
-481 769 770 771 772 773 0
-482 769 770 771 772 773 774 0
-483 769 770 771 772 773 774 775 0
-484 769 770 771 772 773 774 775 776 0
-485 769 770 771 772 773 774 775 776 0
-486 769 770 771 772 773 774 775 776 0
-487 770 771 772 773 774 775 776 0
-488 771 772 773 774 775 776 0
-489 772 773 774 775 776 0
-490 773 774 775 776 0
-491 774 775 776 0
-492 775 776 0
-493 776 0
-769 -28 0
-769 -29 0
-769 -30 0
-769 -31 0
-769 -32 0
-769 -33 0
-769 -34 0
-769 -79 0
-769 -80 0
-769 -81 0
-769 -82 0
-769 -83 0
-769 -84 0
-769 -85 0
-769 -130 0
-769 -131 0
-769 -132 0
-769 -133 0
-769 -134 0
-769 -135 0
-769 -136 0
-769 -181 0
-769 -182 0
-769 -183 0
-769 -184 0
-769 -185 0
-769 -186 0
-769 -187 0
-769 -232 0
-769 -233 0
-769 -234 0
-769 -235 0
-769 -236 0
-769 -237 0
-769 -238 0
-769 -283 0
-769 -284 0
-769 -285 0
-769 -286 0
-769 -287 0
-769 -288 0
-769 -289 0
-769 -334 0
-769 -335 0
-769 -336 0
-769 -337 0
-769 -338 0
-769 -339 0
-769 -340 0
-769 -385 0
-769 -386 0
-769 -387 0
-769 -388 0
-769 -389 0
-769 -390 0
-769 -391 0
-769 -436 0
-769 -437 0
-769 -438 0
-769 -439 0
-769 -440 0
-769 -441 0
-769 -442 0
-769 -487 0
-769 -488 0
-769 -489 0
-769 -490 0
-769 -491 0
-769 -492 0
-769 -493 0
-770 -18 0
-770 -29 0
-770 -30 0
-770 -31 0
-770 -32 0
-770 -33 0
-770 -34 0
-770 -69 0
-770 -80 0
-770 -81 0
-770 -82 0
-770 -83 0
-770 -84 0
-770 -85 0
-770 -120 0
-770 -131 0
-770 -132 0
-770 -133 0
-770 -134 0
-770 -135 0
-770 -136 0
-770 -171 0
-770 -182 0
-770 -183 0
-770 -184 0
-770 -185 0
-770 -186 0
-770 -187 0
-770 -222 0
-770 -233 0
-770 -234 0
-770 -235 0
-770 -236 0
-770 -237 0
-770 -238 0
-770 -273 0
-770 -284 0
-770 -285 0
-770 -286 0
-770 -287 0
-770 -288 0
-770 -289 0
-770 -324 0
-770 -335 0
-770 -336 0
-770 -337 0
-770 -338 0
-770 -339 0
-770 -340 0
-770 -375 0
-770 -386 0
-770 -387 0
-770 -388 0
-770 -389 0
-770 -390 0
-770 -391 0
-770 -426 0
-770 -437 0
-770 -438 0
-770 -439 0
-770 -440 0
-770 -441 0
-770 -442 0
-770 -477 0
-770 -488 0
-770 -489 0
-770 -490 0
-770 -491 0
-770 -492 0
-770 -493 0
-771 -18 0
-771 -19 0
-771 -30 0
-771 -31 0
-771 -32 0
-771 -33 0
-771 -34 0
-771 -69 0
-771 -70 0
-771 -81 0
-771 -82 0
-771 -83 0
-771 -84 0
-771 -85 0
-771 -120 0
-771 -121 0
-771 -132 0
-771 -133 0
-771 -134 0
-771 -135 0
-771 -136 0
-771 -171 0
-771 -172 0
-771 -183 0
-771 -184 0
-771 -185 0
-771 -186 0
-771 -187 0
-771 -222 0
-771 -223 0
-771 -234 0
-771 -235 0
-771 -236 0
-771 -237 0
-771 -238 0
-771 -273 0
-771 -274 0
-771 -285 0
-771 -286 0
-771 -287 0
-771 -288 0
-771 -289 0
-771 -324 0
-771 -325 0
-771 -336 0
-771 -337 0
-771 -338 0
-771 -339 0
-771 -340 0
-771 -375 0
-771 -376 0
-771 -387 0
-771 -388 0
-771 -389 0
-771 -390 0
-771 -391 0
-771 -426 0
-771 -427 0
-771 -438 0
-771 -439 0
-771 -440 0
-771 -441 0
-771 -442 0
-771 -477 0
-771 -478 0
-771 -489 0
-771 -490 0
-771 -491 0
-771 -492 0
-771 -493 0
-772 -18 0
-772 -19 0
-772 -20 0
-772 -31 0
-772 -32 0
-772 -33 0
-772 -34 0
-772 -69 0
-772 -70 0
-772 -71 0
-772 -82 0
-772 -83 0
-772 -84 0
-772 -85 0
-772 -120 0
-772 -121 0
-772 -122 0
-772 -133 0
-772 -134 0
-772 -135 0
-772 -136 0
-772 -171 0
-772 -172 0
-772 -173 0
-772 -184 0
-772 -185 0
-772 -186 0
-772 -187 0
-772 -222 0
-772 -223 0
-772 -224 0
-772 -235 0
-772 -236 0
-772 -237 0
-772 -238 0
-772 -273 0
-772 -274 0
-772 -275 0
-772 -286 0
-772 -287 0
-772 -288 0
-772 -289 0
-772 -324 0
-772 -325 0
-772 -326 0
-772 -337 0
-772 -338 0
-772 -339 0
-772 -340 0
-772 -375 0
-772 -376 0
-772 -377 0
-772 -388 0
-772 -389 0
-772 -390 0
-772 -391 0
-772 -426 0
-772 -427 0
-772 -428 0
-772 -439 0
-772 -440 0
-772 -441 0
-772 -442 0
-772 -477 0
-772 -478 0
-772 -479 0
-772 -490 0
-772 -491 0
-772 -492 0
-772 -493 0
-773 -18 0
-773 -19 0
-773 -20 0
-773 -21 0
-773 -32 0
-773 -33 0
-773 -34 0
-773 -69 0
-773 -70 0
-773 -71 0
-773 -72 0
-773 -83 0
-773 -84 0
-773 -85 0
-773 -120 0
-773 -121 0
-773 -122 0
-773 -123 0
-773 -134 0
-773 -135 0
-773 -136 0
-773 -171 0
-773 -172 0
-773 -173 0
-773 -174 0
-773 -185 0
-773 -186 0
-773 -187 0
-773 -222 0
-773 -223 0
-773 -224 0
-773 -225 0
-773 -236 0
-773 -237 0
-773 -238 0
-773 -273 0
-773 -274 0
-773 -275 0
-773 -276 0
-773 -287 0
-773 -288 0
-773 -289 0
-773 -324 0
-773 -325 0
-773 -326 0
-773 -327 0
-773 -338 0
-773 -339 0
-773 -340 0
-773 -375 0
-773 -376 0
-773 -377 0
-773 -378 0
-773 -389 0
-773 -390 0
-773 -391 0
-773 -426 0
-773 -427 0
-773 -428 0
-773 -429 0
-773 -440 0
-773 -441 0
-773 -442 0
-773 -477 0
-773 -478 0
-773 -479 0
-773 -480 0
-773 -491 0
-773 -492 0
-773 -493 0
-774 -18 0
-774 -19 0
-774 -20 0
-774 -21 0
-774 -22 0
-774 -33 0
-774 -34 0
-774 -69 0
-774 -70 0
-774 -71 0
-774 -72 0
-774 -73 0
-774 -84 0
-774 -85 0
-774 -120 0
-774 -121 0
-774 -122 0
-774 -123 0
-774 -124 0
-774 -135 0
-774 -136 0
-774 -171 0
-774 -172 0
-774 -173 0
-774 -174 0
-774 -175 0
-774 -186 0
-774 -187 0
-774 -222 0
-774 -223 0
-774 -224 0
-774 -225 0
-774 -226 0
-774 -237 0
-774 -238 0
-774 -273 0
-774 -274 0
-774 -275 0
-774 -276 0
-774 -277 0
-774 -288 0
-774 -289 0
-774 -324 0
-774 -325 0
-774 -326 0
-774 -327 0
-774 -328 0
-774 -339 0
-774 -340 0
-774 -375 0
-774 -376 0
-774 -377 0
-774 -378 0
-774 -379 0
-774 -390 0
-774 -391 0
-774 -426 0
-774 -427 0
-774 -428 0
-774 -429 0
-774 -430 0
-774 -441 0
-774 -442 0
-774 -477 0
-774 -478 0
-774 -479 0
-774 -480 0
-774 -481 0
-774 -492 0
-774 -493 0
-775 -18 0
-775 -19 0
-775 -20 0
-775 -21 0
-775 -22 0
-775 -23 0
-775 -34 0
-775 -69 0
-775 -70 0
-775 -71 0
-775 -72 0
-775 -73 0
-775 -74 0
-775 -85 0
-775 -120 0
-775 -121 0
-775 -122 0
-775 -123 0
-775 -124 0
-775 -125 0
-775 -136 0
-775 -171 0
-775 -172 0
-775 -173 0
-775 -174 0
-775 -175 0
-775 -176 0
-775 -187 0
-775 -222 0
-775 -223 0
-775 -224 0
-775 -225 0
-775 -226 0
-775 -227 0
-775 -238 0
-775 -273 0
-775 -274 0
-775 -275 0
-775 -276 0
-775 -277 0
-775 -278 0
-775 -289 0
-775 -324 0
-775 -325 0
-775 -326 0
-775 -327 0
-775 -328 0
-775 -329 0
-775 -340 0
-775 -375 0
-775 -376 0
-775 -377 0
-775 -378 0
-775 -379 0
-775 -380 0
-775 -391 0
-775 -426 0
-775 -427 0
-775 -428 0
-775 -429 0
-775 -430 0
-775 -431 0
-775 -442 0
-775 -477 0
-775 -478 0
-775 -479 0
-775 -480 0
-775 -481 0
-775 -482 0
-775 -493 0
-776 -18 0
-776 -19 0
-776 -20 0
-776 -21 0
-776 -22 0
-776 -23 0
-776 -24 0
-776 -69 0
-776 -70 0
-776 -71 0
-776 -72 0
-776 -73 0
-776 -74 0
-776 -75 0
-776 -120 0
-776 -121 0
-776 -122 0
-776 -123 0
-776 -124 0
-776 -125 0
-776 -126 0
-776 -171 0
-776 -172 0
-776 -173 0
-776 -174 0
-776 -175 0
-776 -176 0
-776 -177 0
-776 -222 0
-776 -223 0
-776 -224 0
-776 -225 0
-776 -226 0
-776 -227 0
-776 -228 0
-776 -273 0
-776 -274 0
-776 -275 0
-776 -276 0
-776 -277 0
-776 -278 0
-776 -279 0
-776 -324 0
-776 -325 0
-776 -326 0
-776 -327 0
-776 -328 0
-776 -329 0
-776 -330 0
-776 -375 0
-776 -376 0
-776 -377 0
-776 -378 0
-776 -379 0
-776 -380 0
-776 -381 0
-776 -426 0
-776 -427 0
-776 -428 0
-776 -429 0
-776 -430 0
-776 -431 0
-776 -432 0
-776 -477 0
-776 -478 0
-776 -479 0
-776 -480 0
-776 -481 0
-776 -482 0
-776 -483 0
-35 -86 0
-35 -137 0
-35 -188 0
-35 -239 0
-35 -528 0
-35 -579 0
-35 -630 0
-35 -681 0
-35 -732 0
-86 -137 0
-86 -188 0
-86 -239 0
-86 -528 0
-86 -579 0
-86 -630 0
-86 -681 0
-86 -732 0
-137 -188 0
-137 -239 0
-137 -528 0
-137 -579 0
-137 -630 0
-137 -681 0
-137 -732 0
-188 -239 0
-188 -528 0
-188 -579 0
-188 -630 0
-188 -681 0
-188 -732 0
-239 -528 0
-239 -579 0
-239 -630 0
-239 -681 0
-239 -732 0
-528 -579 0
-528 -630 0
-528 -681 0
-528 -732 0
-579 -630 0
-579 -681 0
-579 -732 0
-630 -681 0
-630 -732 0
-681 -732 0
-36 -87 0
-36 -138 0
-36 -189 0
-36 -240 0
-36 -529 0
-36 -580 0
-36 -631 0
-36 -682 0
-36 -733 0
-87 -138 0
-87 -189 0
-87 -240 0
-87 -529 0
-87 -580 0
-87 -631 0
-87 -682 0
-87 -733 0
-138 -189 0
-138 -240 0
-138 -529 0
-138 -580 0
-138 -631 0
-138 -682 0
-138 -733 0
-189 -240 0
-189 -529 0
-189 -580 0
-189 -631 0
-189 -682 0
-189 -733 0
-240 -529 0
-240 -580 0
-240 -631 0
-240 -682 0
-240 -733 0
-529 -580 0
-529 -631 0
-529 -682 0
-529 -733 0
-580 -631 0
-580 -682 0
-580 -733 0
-631 -682 0
-631 -733 0
-682 -733 0
-37 -88 0
-37 -139 0
-37 -190 0
-37 -241 0
-37 -530 0
-37 -581 0
-37 -632 0
-37 -683 0
-37 -734 0
-88 -139 0
-88 -190 0
-88 -241 0
-88 -530 0
-88 -581 0
-88 -632 0
-88 -683 0
-88 -734 0
-139 -190 0
-139 -241 0
-139 -530 0
-139 -581 0
-139 -632 0
-139 -683 0
-139 -734 0
-190 -241 0
-190 -530 0
-190 -581 0
-190 -632 0
-190 -683 0
-190 -734 0
-241 -530 0
-241 -581 0
-241 -632 0
-241 -683 0
-241 -734 0
-530 -581 0
-530 -632 0
-530 -683 0
-530 -734 0
-581 -632 0
-581 -683 0
-581 -734 0
-632 -683 0
-632 -734 0
-683 -734 0
-38 -89 0
-38 -140 0
-38 -191 0
-38 -242 0
-38 -531 0
-38 -582 0
-38 -633 0
-38 -684 0
-38 -735 0
-89 -140 0
-89 -191 0
-89 -242 0
-89 -531 0
-89 -582 0
-89 -633 0
-89 -684 0
-89 -735 0
-140 -191 0
-140 -242 0
-140 -531 0
-140 -582 0
-140 -633 0
-140 -684 0
-140 -735 0
-191 -242 0
-191 -531 0
-191 -582 0
-191 -633 0
-191 -684 0
-191 -735 0
-242 -531 0
-242 -582 0
-242 -633 0
-242 -684 0
-242 -735 0
-531 -582 0
-531 -633 0
-531 -684 0
-531 -735 0
-582 -633 0
-582 -684 0
-582 -735 0
-633 -684 0
-633 -735 0
-684 -735 0
-39 -90 0
-39 -141 0
-39 -192 0
-39 -243 0
-39 -532 0
-39 -583 0
-39 -634 0
-39 -685 0
-39 -736 0
-90 -141 0
-90 -192 0
-90 -243 0
-90 -532 0
-90 -583 0
-90 -634 0
-90 -685 0
-90 -736 0
-141 -192 0
-141 -243 0
-141 -532 0
-141 -583 0
-141 -634 0
-141 -685 0
-141 -736 0
-192 -243 0
-192 -532 0
-192 -583 0
-192 -634 0
-192 -685 0
-192 -736 0
-243 -532 0
-243 -583 0
-243 -634 0
-243 -685 0
-243 -736 0
-532 -583 0
-532 -634 0
-532 -685 0
-532 -736 0
-583 -634 0
-583 -685 0
-583 -736 0
-634 -685 0
-634 -736 0
-685 -736 0
-40 -91 0
-40 -142 0
-40 -193 0
-40 -244 0
-40 -533 0
-40 -584 0
-40 -635 0
-40 -686 0
-40 -737 0
-91 -142 0
-91 -193 0
-91 -244 0
-91 -533 0
-91 -584 0
-91 -635 0
-91 -686 0
-91 -737 0
-142 -193 0
-142 -244 0
-142 -533 0
-142 -584 0
-142 -635 0
-142 -686 0
-142 -737 0
-193 -244 0
-193 -533 0
-193 -584 0
-193 -635 0
-193 -686 0
-193 -737 0
-244 -533 0
-244 -584 0
-244 -635 0
-244 -686 0
-244 -737 0
-533 -584 0
-533 -635 0
-533 -686 0
-533 -737 0
-584 -635 0
-584 -686 0
-584 -737 0
-635 -686 0
-635 -737 0
-686 -737 0
-41 -92 0
-41 -143 0
-41 -194 0
-41 -245 0
-41 -534 0
-41 -585 0
-41 -636 0
-41 -687 0
-41 -738 0
-92 -143 0
-92 -194 0
-92 -245 0
-92 -534 0
-92 -585 0
-92 -636 0
-92 -687 0
-92 -738 0
-143 -194 0
-143 -245 0
-143 -534 0
-143 -585 0
-143 -636 0
-143 -687 0
-143 -738 0
-194 -245 0
-194 -534 0
-194 -585 0
-194 -636 0
-194 -687 0
-194 -738 0
-245 -534 0
-245 -585 0
-245 -636 0
-245 -687 0
-245 -738 0
-534 -585 0
-534 -636 0
-534 -687 0
-534 -738 0
-585 -636 0
-585 -687 0
-585 -738 0
-636 -687 0
-636 -738 0
-687 -738 0
-42 -93 0
-42 -144 0
-42 -195 0
-42 -246 0
-42 -535 0
-42 -586 0
-42 -637 0
-42 -688 0
-42 -739 0
-93 -144 0
-93 -195 0
-93 -246 0
-93 -535 0
-93 -586 0
-93 -637 0
-93 -688 0
-93 -739 0
-144 -195 0
-144 -246 0
-144 -535 0
-144 -586 0
-144 -637 0
-144 -688 0
-144 -739 0
-195 -246 0
-195 -535 0
-195 -586 0
-195 -637 0
-195 -688 0
-195 -739 0
-246 -535 0
-246 -586 0
-246 -637 0
-246 -688 0
-246 -739 0
-535 -586 0
-535 -637 0
-535 -688 0
-535 -739 0
-586 -637 0
-586 -688 0
-586 -739 0
-637 -688 0
-637 -739 0
-688 -739 0
-43 -94 0
-43 -145 0
-43 -196 0
-43 -247 0
-43 -536 0
-43 -587 0
-43 -638 0
-43 -689 0
-43 -740 0
-94 -145 0
-94 -196 0
-94 -247 0
-94 -536 0
-94 -587 0
-94 -638 0
-94 -689 0
-94 -740 0
-145 -196 0
-145 -247 0
-145 -536 0
-145 -587 0
-145 -638 0
-145 -689 0
-145 -740 0
-196 -247 0
-196 -536 0
-196 -587 0
-196 -638 0
-196 -689 0
-196 -740 0
-247 -536 0
-247 -587 0
-247 -638 0
-247 -689 0
-247 -740 0
-536 -587 0
-536 -638 0
-536 -689 0
-536 -740 0
-587 -638 0
-587 -689 0
-587 -740 0
-638 -689 0
-638 -740 0
-689 -740 0
-44 -95 0
-44 -146 0
-44 -197 0
-44 -248 0
-44 -537 0
-44 -588 0
-44 -639 0
-44 -690 0
-44 -741 0
-95 -146 0
-95 -197 0
-95 -248 0
-95 -537 0
-95 -588 0
-95 -639 0
-95 -690 0
-95 -741 0
-146 -197 0
-146 -248 0
-146 -537 0
-146 -588 0
-146 -639 0
-146 -690 0
-146 -741 0
-197 -248 0
-197 -537 0
-197 -588 0
-197 -639 0
-197 -690 0
-197 -741 0
-248 -537 0
-248 -588 0
-248 -639 0
-248 -690 0
-248 -741 0
-537 -588 0
-537 -639 0
-537 -690 0
-537 -741 0
-588 -639 0
-588 -690 0
-588 -741 0
-639 -690 0
-639 -741 0
-690 -741 0
-45 -96 0
-45 -147 0
-45 -198 0
-45 -249 0
-45 -538 0
-45 -589 0
-45 -640 0
-45 -691 0
-45 -742 0
-96 -147 0
-96 -198 0
-96 -249 0
-96 -538 0
-96 -589 0
-96 -640 0
-96 -691 0
-96 -742 0
-147 -198 0
-147 -249 0
-147 -538 0
-147 -589 0
-147 -640 0
-147 -691 0
-147 -742 0
-198 -249 0
-198 -538 0
-198 -589 0
-198 -640 0
-198 -691 0
-198 -742 0
-249 -538 0
-249 -589 0
-249 -640 0
-249 -691 0
-249 -742 0
-538 -589 0
-538 -640 0
-538 -691 0
-538 -742 0
-589 -640 0
-589 -691 0
-589 -742 0
-640 -691 0
-640 -742 0
-691 -742 0
-46 -97 0
-46 -148 0
-46 -199 0
-46 -250 0
-46 -539 0
-46 -590 0
-46 -641 0
-46 -692 0
-46 -743 0
-97 -148 0
-97 -199 0
-97 -250 0
-97 -539 0
-97 -590 0
-97 -641 0
-97 -692 0
-97 -743 0
-148 -199 0
-148 -250 0
-148 -539 0
-148 -590 0
-148 -641 0
-148 -692 0
-148 -743 0
-199 -250 0
-199 -539 0
-199 -590 0
-199 -641 0
-199 -692 0
-199 -743 0
-250 -539 0
-250 -590 0
-250 -641 0
-250 -692 0
-250 -743 0
-539 -590 0
-539 -641 0
-539 -692 0
-539 -743 0
-590 -641 0
-590 -692 0
-590 -743 0
-641 -692 0
-641 -743 0
-692 -743 0
-47 -98 0
-47 -149 0
-47 -200 0
-47 -251 0
-47 -540 0
-47 -591 0
-47 -642 0
-47 -693 0
-47 -744 0
-98 -149 0
-98 -200 0
-98 -251 0
-98 -540 0
-98 -591 0
-98 -642 0
-98 -693 0
-98 -744 0
-149 -200 0
-149 -251 0
-149 -540 0
-149 -591 0
-149 -642 0
-149 -693 0
-149 -744 0
-200 -251 0
-200 -540 0
-200 -591 0
-200 -642 0
-200 -693 0
-200 -744 0
-251 -540 0
-251 -591 0
-251 -642 0
-251 -693 0
-251 -744 0
-540 -591 0
-540 -642 0
-540 -693 0
-540 -744 0
-591 -642 0
-591 -693 0
-591 -744 0
-642 -693 0
-642 -744 0
-693 -744 0
-48 -99 0
-48 -150 0
-48 -201 0
-48 -252 0
-48 -541 0
-48 -592 0
-48 -643 0
-48 -694 0
-48 -745 0
-99 -150 0
-99 -201 0
-99 -252 0
-99 -541 0
-99 -592 0
-99 -643 0
-99 -694 0
-99 -745 0
-150 -201 0
-150 -252 0
-150 -541 0
-150 -592 0
-150 -643 0
-150 -694 0
-150 -745 0
-201 -252 0
-201 -541 0
-201 -592 0
-201 -643 0
-201 -694 0
-201 -745 0
-252 -541 0
-252 -592 0
-252 -643 0
-252 -694 0
-252 -745 0
-541 -592 0
-541 -643 0
-541 -694 0
-541 -745 0
-592 -643 0
-592 -694 0
-592 -745 0
-643 -694 0
-643 -745 0
-694 -745 0
-49 -100 0
-49 -151 0
-49 -202 0
-49 -253 0
-49 -542 0
-49 -593 0
-49 -644 0
-49 -695 0
-49 -746 0
-100 -151 0
-100 -202 0
-100 -253 0
-100 -542 0
-100 -593 0
-100 -644 0
-100 -695 0
-100 -746 0
-151 -202 0
-151 -253 0
-151 -542 0
-151 -593 0
-151 -644 0
-151 -695 0
-151 -746 0
-202 -253 0
-202 -542 0
-202 -593 0
-202 -644 0
-202 -695 0
-202 -746 0
-253 -542 0
-253 -593 0
-253 -644 0
-253 -695 0
-253 -746 0
-542 -593 0
-542 -644 0
-542 -695 0
-542 -746 0
-593 -644 0
-593 -695 0
-593 -746 0
-644 -695 0
-644 -746 0
-695 -746 0
-50 -101 0
-50 -152 0
-50 -203 0
-50 -254 0
-50 -543 0
-50 -594 0
-50 -645 0
-50 -696 0
-50 -747 0
-101 -152 0
-101 -203 0
-101 -254 0
-101 -543 0
-101 -594 0
-101 -645 0
-101 -696 0
-101 -747 0
-152 -203 0
-152 -254 0
-152 -543 0
-152 -594 0
-152 -645 0
-152 -696 0
-152 -747 0
-203 -254 0
-203 -543 0
-203 -594 0
-203 -645 0
-203 -696 0
-203 -747 0
-254 -543 0
-254 -594 0
-254 -645 0
-254 -696 0
-254 -747 0
-543 -594 0
-543 -645 0
-543 -696 0
-543 -747 0
-594 -645 0
-594 -696 0
-594 -747 0
-645 -696 0
-645 -747 0
-696 -747 0
-51 -102 0
-51 -153 0
-51 -204 0
-51 -255 0
-51 -544 0
-51 -595 0
-51 -646 0
-51 -697 0
-51 -748 0
-102 -153 0
-102 -204 0
-102 -255 0
-102 -544 0
-102 -595 0
-102 -646 0
-102 -697 0
-102 -748 0
-153 -204 0
-153 -255 0
-153 -544 0
-153 -595 0
-153 -646 0
-153 -697 0
-153 -748 0
-204 -255 0
-204 -544 0
-204 -595 0
-204 -646 0
-204 -697 0
-204 -748 0
-255 -544 0
-255 -595 0
-255 -646 0
-255 -697 0
-255 -748 0
-544 -595 0
-544 -646 0
-544 -697 0
-544 -748 0
-595 -646 0
-595 -697 0
-595 -748 0
-646 -697 0
-646 -748 0
-697 -748 0
777 778 779 780 781 782 783 784 0
-777 -778 0
-777 -779 0
-777 -780 0
-777 -781 0
-777 -782 0
-777 -783 0
-777 -784 0
-778 -779 0
-778 -780 0
-778 -781 0
-778 -782 0
-778 -783 0
-778 -784 0
-779 -780 0
-779 -781 0
-779 -782 0
-779 -783 0
-779 -784 0
-780 -781 0
-780 -782 0
-780 -783 0
-780 -784 0
-781 -782 0
-781 -783 0
-781 -784 0
-782 -783 0
-782 -784 0
-783 -784 0
-35 777 0
-36 777 778 0
-37 777 778 779 0
-38 777 778 779 780 0
-39 777 778 779 780 781 0
-40 777 778 779 780 781 782 0
-41 777 778 779 780 781 782 783 0
-42 777 778 779 780 781 782 783 784 0
-43 777 778 779 780 781 782 783 784 0
-44 777 778 779 780 781 782 783 784 0
-45 778 779 780 781 782 783 784 0
-46 779 780 781 782 783 784 0
-47 780 781 782 783 784 0
-48 781 782 783 784 0
-49 782 783 784 0
-50 783 784 0
-51 784 0
-86 777 0
-87 777 778 0
-88 777 778 779 0
-89 777 778 779 780 0
-90 777 778 779 780 781 0
-91 777 778 779 780 781 782 0
-92 777 778 779 780 781 782 783 0
-93 777 778 779 780 781 782 783 784 0
-94 777 778 779 780 781 782 783 784 0
-95 777 778 779 780 781 782 783 784 0
-96 778 779 780 781 782 783 784 0
-97 779 780 781 782 783 784 0
-98 780 781 782 783 784 0
-99 781 782 783 784 0
-100 782 783 784 0
-101 783 784 0
-102 784 0
-137 777 0
-138 777 778 0
-139 777 778 779 0
-140 777 778 779 780 0
-141 777 778 779 780 781 0
-142 777 778 779 780 781 782 0
-143 777 778 779 780 781 782 783 0
-144 777 778 779 780 781 782 783 784 0
-145 777 778 779 780 781 782 783 784 0
-146 777 778 779 780 781 782 783 784 0
-147 778 779 780 781 782 783 784 0
-148 779 780 781 782 783 784 0
-149 780 781 782 783 784 0
-150 781 782 783 784 0
-151 782 783 784 0
-152 783 784 0
-153 784 0
-188 777 0
-189 777 778 0
-190 777 778 779 0
-191 777 778 779 780 0
-192 777 778 779 780 781 0
-193 777 778 779 780 781 782 0
-194 777 778 779 780 781 782 783 0
-195 777 778 779 780 781 782 783 784 0
-196 777 778 779 780 781 782 783 784 0
-197 777 778 779 780 781 782 783 784 0
-198 778 779 780 781 782 783 784 0
-199 779 780 781 782 783 784 0
-200 780 781 782 783 784 0
-201 781 782 783 784 0
-202 782 783 784 0
-203 783 784 0
-204 784 0
-239 777 0
-240 777 778 0
-241 777 778 779 0
-242 777 778 779 780 0
-243 777 778 779 780 781 0
-244 777 778 779 780 781 782 0
-245 777 778 779 780 781 782 783 0
-246 777 778 779 780 781 782 783 784 0
-247 777 778 779 780 781 782 783 784 0
-248 777 778 779 780 781 782 783 784 0
-249 778 779 780 781 782 783 784 0
-250 779 780 781 782 783 784 0
-251 780 781 782 783 784 0
-252 781 782 783 784 0
-253 782 783 784 0
-254 783 784 0
-255 784 0
-528 777 0
-529 777 778 0
-530 777 778 779 0
-531 777 778 779 780 0
-532 777 778 779 780 781 0
-533 777 778 779 780 781 782 0
-534 777 778 779 780 781 782 783 0
-535 777 778 779 780 781 782 783 784 0
-536 777 778 779 780 781 782 783 784 0
-537 777 778 779 780 781 782 783 784 0
-538 778 779 780 781 782 783 784 0
-539 779 780 781 782 783 784 0
-540 780 781 782 783 784 0
-541 781 782 783 784 0
-542 782 783 784 0
-543 783 784 0
-544 784 0
-579 777 0
-580 777 778 0
-581 777 778 779 0
-582 777 778 779 780 0
-583 777 778 779 780 781 0
-584 777 778 779 780 781 782 0
-585 777 778 779 780 781 782 783 0
-586 777 778 779 780 781 782 783 784 0
-587 777 778 779 780 781 782 783 784 0
-588 777 778 779 780 781 782 783 784 0
-589 778 779 780 781 782 783 784 0
-590 779 780 781 782 783 784 0
-591 780 781 782 783 784 0
-592 781 782 783 784 0
-593 782 783 784 0
-594 783 784 0
-595 784 0
-630 777 0
-631 777 778 0
-632 777 778 779 0
-633 777 778 779 780 0
-634 777 778 779 780 781 0
-635 777 778 779 780 781 782 0
-636 777 778 779 780 781 782 783 0
-637 777 778 779 780 781 782 783 784 0
-638 777 778 779 780 781 782 783 784 0
-639 777 778 779 780 781 782 783 784 0
-640 778 779 780 781 782 783 784 0
-641 779 780 781 782 783 784 0
-642 780 781 782 783 784 0
-643 781 782 783 784 0
-644 782 783 784 0
-645 783 784 0
-646 784 0
-681 777 0
-682 777 778 0
-683 777 778 779 0
-684 777 778 779 780 0
-685 777 778 779 780 781 0
-686 777 778 779 780 781 782 0
-687 777 778 779 780 781 782 783 0
-688 777 778 779 780 781 782 783 784 0
-689 777 778 779 780 781 782 783 784 0
-690 777 778 779 780 781 782 783 784 0
-691 778 779 780 781 782 783 784 0
-692 779 780 781 782 783 784 0
-693 780 781 782 783 784 0
-694 781 782 783 784 0
-695 782 783 784 0
-696 783 784 0
-697 784 0
-732 777 0
-733 777 778 0
-734 777 778 779 0
-735 777 778 779 780 0
-736 777 778 779 780 781 0
-737 777 778 779 780 781 782 0
-738 777 778 779 780 781 782 783 0
-739 777 778 779 780 781 782 783 784 0
-740 777 778 779 780 781 782 783 784 0
-741 777 778 779 780 781 782 783 784 0
-742 778 779 780 781 782 783 784 0
-743 779 780 781 782 783 784 0
-744 780 781 782 783 784 0
-745 781 782 783 784 0
-746 782 783 784 0
-747 783 784 0
-748 784 0
-777 -45 0
-777 -46 0
-777 -47 0
-777 -48 0
-777 -49 0
-777 -50 0
-777 -51 0
-777 -96 0
-777 -97 0
-777 -98 0
-777 -99 0
-777 -100 0
-777 -101 0
-777 -102 0
-777 -147 0
-777 -148 0
-777 -149 0
-777 -150 0
-777 -151 0
-777 -152 0
-777 -153 0
-777 -198 0
-777 -199 0
-777 -200 0
-777 -201 0
-777 -202 0
-777 -203 0
-777 -204 0
-777 -249 0
-777 -250 0
-777 -251 0
-777 -252 0
-777 -253 0
-777 -254 0
-777 -255 0
-777 -538 0
-777 -539 0
-777 -540 0
-777 -541 0
-777 -542 0
-777 -543 0
-777 -544 0
-777 -589 0
-777 -590 0
-777 -591 0
-777 -592 0
-777 -593 0
-777 -594 0
-777 -595 0
-777 -640 0
-777 -641 0
-777 -642 0
-777 -643 0
-777 -644 0
-777 -645 0
-777 -646 0
-777 -691 0
-777 -692 0
-777 -693 0
-777 -694 0
-777 -695 0
-777 -696 0
-777 -697 0
-777 -742 0
-777 -743 0
-777 -744 0
-777 -745 0
-777 -746 0
-777 -747 0
-777 -748 0
-778 -35 0
-778 -46 0
-778 -47 0
-778 -48 0
-778 -49 0
-778 -50 0
-778 -51 0
-778 -86 0
-778 -97 0
-778 -98 0
-778 -99 0
-778 -100 0
-778 -101 0
-778 -102 0
-778 -137 0
-778 -148 0
-778 -149 0
-778 -150 0
-778 -151 0
-778 -152 0
-778 -153 0
-778 -188 0
-778 -199 0
-778 -200 0
-778 -201 0
-778 -202 0
-778 -203 0
-778 -204 0
-778 -239 0
-778 -250 0
-778 -251 0
-778 -252 0
-778 -253 0
-778 -254 0
-778 -255 0
-778 -528 0
-778 -539 0
-778 -540 0
-778 -541 0
-778 -542 0
-778 -543 0
-778 -544 0
-778 -579 0
-778 -590 0
-778 -591 0
-778 -592 0
-778 -593 0
-778 -594 0
-778 -595 0
-778 -630 0
-778 -641 0
-778 -642 0
-778 -643 0
-778 -644 0
-778 -645 0
-778 -646 0
-778 -681 0
-778 -692 0
-778 -693 0
-778 -694 0
-778 -695 0
-778 -696 0
-778 -697 0
-778 -732 0
-778 -743 0
-778 -744 0
-778 -745 0
-778 -746 0
-778 -747 0
-778 -748 0
-779 -35 0
-779 -36 0
-779 -47 0
-779 -48 0
-779 -49 0
-779 -50 0
-779 -51 0
-779 -86 0
-779 -87 0
-779 -98 0
-779 -99 0
-779 -100 0
-779 -101 0
-779 -102 0
-779 -137 0
-779 -138 0
-779 -149 0
-779 -150 0
-779 -151 0
-779 -152 0
-779 -153 0
-779 -188 0
-779 -189 0
-779 -200 0
-779 -201 0
-779 -202 0
-779 -203 0
-779 -204 0
-779 -239 0
-779 -240 0
-779 -251 0
-779 -252 0
-779 -253 0
-779 -254 0
-779 -255 0
-779 -528 0
-779 -529 0
-779 -540 0
-779 -541 0
-779 -542 0
-779 -543 0
-779 -544 0
-779 -579 0
-779 -580 0
-779 -591 0
-779 -592 0
-779 -593 0
-779 -594 0
-779 -595 0
-779 -630 0
-779 -631 0
-779 -642 0
-779 -643 0
-779 -644 0
-779 -645 0
-779 -646 0
-779 -681 0
-779 -682 0
-779 -693 0
-779 -694 0
-779 -695 0
-779 -696 0
-779 -697 0
-779 -732 0
-779 -733 0
-779 -744 0
-779 -745 0
-779 -746 0
-779 -747 0
-779 -748 0
-780 -35 0
-780 -36 0
-780 -37 0
-780 -48 0
-780 -49 0
-780 -50 0
-780 -51 0
-780 -86 0
-780 -87 0
-780 -88 0
-780 -99 0
-780 -100 0
-780 -101 0
-780 -102 0
-780 -137 0
-780 -138 0
-780 -139 0
-780 -150 0
-780 -151 0
-780 -152 0
-780 -153 0
-780 -188 0
-780 -189 0
-780 -190 0
-780 -201 0
-780 -202 0
-780 -203 0
-780 -204 0
-780 -239 0
-780 -240 0
-780 -241 0
-780 -252 0
-780 -253 0
-780 -254 0
-780 -255 0
-780 -528 0
-780 -529 0
-780 -530 0
-780 -541 0
-780 -542 0
-780 -543 0
-780 -544 0
-780 -579 0
-780 -580 0
-780 -581 0
-780 -592 0
-780 -593 0
-780 -594 0
-780 -595 0
-780 -630 0
-780 -631 0
-780 -632 0
-780 -643 0
-780 -644 0
-780 -645 0
-780 -646 0
-780 -681 0
-780 -682 0
-780 -683 0
-780 -694 0
-780 -695 0
-780 -696 0
-780 -697 0
-780 -732 0
-780 -733 0
-780 -734 0
-780 -745 0
-780 -746 0
-780 -747 0
-780 -748 0
-781 -35 0
-781 -36 0
-781 -37 0
-781 -38 0
-781 -49 0
-781 -50 0
-781 -51 0
-781 -86 0
-781 -87 0
-781 -88 0
-781 -89 0
-781 -100 0
-781 -101 0
-781 -102 0
-781 -137 0
-781 -138 0
-781 -139 0
-781 -140 0
-781 -151 0
-781 -152 0
-781 -153 0
-781 -188 0
-781 -189 0
-781 -190 0
-781 -191 0
-781 -202 0
-781 -203 0
-781 -204 0
-781 -239 0
-781 -240 0
-781 -241 0
-781 -242 0
-781 -253 0
-781 -254 0
-781 -255 0
-781 -528 0
-781 -529 0
-781 -530 0
-781 -531 0
-781 -542 0
-781 -543 0
-781 -544 0
-781 -579 0
-781 -580 0
-781 -581 0
-781 -582 0
-781 -593 0
-781 -594 0
-781 -595 0
-781 -630 0
-781 -631 0
-781 -632 0
-781 -633 0
-781 -644 0
-781 -645 0
-781 -646 0
-781 -681 0
-781 -682 0
-781 -683 0
-781 -684 0
-781 -695 0
-781 -696 0
-781 -697 0
-781 -732 0
-781 -733 0
-781 -734 0
-781 -735 0
-781 -746 0
-781 -747 0
-781 -748 0
-782 -35 0
-782 -36 0
-782 -37 0
-782 -38 0
-782 -39 0
-782 -50 0
-782 -51 0
-782 -86 0
-782 -87 0
-782 -88 0
-782 -89 0
-782 -90 0
-782 -101 0
-782 -102 0
-782 -137 0
-782 -138 0
-782 -139 0
-782 -140 0
-782 -141 0
-782 -152 0
-782 -153 0
-782 -188 0
-782 -189 0
-782 -190 0
-782 -191 0
-782 -192 0
-782 -203 0
-782 -204 0
-782 -239 0
-782 -240 0
-782 -241 0
-782 -242 0
-782 -243 0
-782 -254 0
-782 -255 0
-782 -528 0
-782 -529 0
-782 -530 0
-782 -531 0
-782 -532 0
-782 -543 0
-782 -544 0
-782 -579 0
-782 -580 0
-782 -581 0
-782 -582 0
-782 -583 0
-782 -594 0
-782 -595 0
-782 -630 0
-782 -631 0
-782 -632 0
-782 -633 0
-782 -634 0
-782 -645 0
-782 -646 0
-782 -681 0
-782 -682 0
-782 -683 0
-782 -684 0
-782 -685 0
-782 -696 0
-782 -697 0
-782 -732 0
-782 -733 0
-782 -734 0
-782 -735 0
-782 -736 0
-782 -747 0
-782 -748 0
-783 -35 0
-783 -36 0
-783 -37 0
-783 -38 0
-783 -39 0
-783 -40 0
-783 -51 0
-783 -86 0
-783 -87 0
-783 -88 0
-783 -89 0
-783 -90 0
-783 -91 0
-783 -102 0
-783 -137 0
-783 -138 0
-783 -139 0
-783 -140 0
-783 -141 0
-783 -142 0
-783 -153 0
-783 -188 0
-783 -189 0
-783 -190 0
-783 -191 0
-783 -192 0
-783 -193 0
-783 -204 0
-783 -239 0
-783 -240 0
-783 -241 0
-783 -242 0
-783 -243 0
-783 -244 0
-783 -255 0
-783 -528 0
-783 -529 0
-783 -530 0
-783 -531 0
-783 -532 0
-783 -533 0
-783 -544 0
-783 -579 0
-783 -580 0
-783 -581 0
-783 -582 0
-783 -583 0
-783 -584 0
-783 -595 0
-783 -630 0
-783 -631 0
-783 -632 0
-783 -633 0
-783 -634 0
-783 -635 0
-783 -646 0
-783 -681 0
-783 -682 0
-783 -683 0
-783 -684 0
-783 -685 0
-783 -686 0
-783 -697 0
-783 -732 0
-783 -733 0
-783 -734 0
-783 -735 0
-783 -736 0
-783 -737 0
-783 -748 0
-784 -35 0
-784 -36 0
-784 -37 0
-784 -38 0
-784 -39 0
-784 -40 0
-784 -41 0
-784 -86 0
-784 -87 0
-784 -88 0
-784 -89 0
-784 -90 0
-784 -91 0
-784 -92 0
-784 -137 0
-784 -138 0
-784 -139 0
-784 -140 0
-784 -141 0
-784 -142 0
-784 -143 0
-784 -188 0
-784 -189 0
-784 -190 0
-784 -191 0
-784 -192 0
-784 -193 0
-784 -194 0
-784 -239 0
-784 -240 0
-784 -241 0
-784 -242 0
-784 -243 0
-784 -244 0
-784 -245 0
-784 -528 0
-784 -529 0
-784 -530 0
-784 -531 0
-784 -532 0
-784 -533 0
-784 -534 0
-784 -579 0
-784 -580 0
-784 -581 0
-784 -582 0
-784 -583 0
-784 -584 0
-784 -585 0
-784 -630 0
-784 -631 0
-784 -632 0
-784 -633 0
-784 -634 0
-784 -635 0
-784 -636 0
-784 -681 0
-784 -682 0
-784 -683 0
-784 -684 0
-784 -685 0
-784 -686 0
-784 -687 0
-784 -732 0
-784 -733 0
-784 -734 0
-784 -735 0
-784 -736 0
-784 -737 0
-784 -738 0
-290 -341 0
-290 -392 0
-290 -443 0
-290 -494 0
-290 -545 0
-290 -596 0
-290 -647 0
-290 -698 0
-290 -749 0
-341 -392 0
-341 -443 0
-341 -494 0
-341 -545 0
-341 -596 0
-341 -647 0
-341 -698 0
-341 -749 0
-392 -443 0
-392 -494 0
-392 -545 0
-392 -596 0
-392 -647 0
-392 -698 0
-392 -749 0
-443 -494 0
-443 -545 0
-443 -596 0
-443 -647 0
-443 -698 0
-443 -749 0
-494 -545 0
-494 -596 0
-494 -647 0
-494 -698 0
-494 -749 0
-545 -596 0
-545 -647 0
-545 -698 0
-545 -749 0
-596 -647 0
-596 -698 0
-596 -749 0
-647 -698 0
-647 -749 0
-698 -749 0
-291 -342 0
-291 -393 0
-291 -444 0
-291 -495 0
-291 -546 0
-291 -597 0
-291 -648 0
-291 -699 0
-291 -750 0
-342 -393 0
-342 -444 0
-342 -495 0
-342 -546 0
-342 -597 0
-342 -648 0
-342 -699 0
-342 -750 0
-393 -444 0
-393 -495 0
-393 -546 0
-393 -597 0
-393 -648 0
-393 -699 0
-393 -750 0
-444 -495 0
-444 -546 0
-444 -597 0
-444 -648 0
-444 -699 0
-444 -750 0
-495 -546 0
-495 -597 0
-495 -648 0
-495 -699 0
-495 -750 0
-546 -597 0
-546 -648 0
-546 -699 0
-546 -750 0
-597 -648 0
-597 -699 0
-597 -750 0
-648 -699 0
-648 -750 0
-699 -750 0
-292 -343 0
-292 -394 0
-292 -445 0
-292 -496 0
-292 -547 0
-292 -598 0
-292 -649 0
-292 -700 0
-292 -751 0
-343 -394 0
-343 -445 0
-343 -496 0
-343 -547 0
-343 -598 0
-343 -649 0
-343 -700 0
-343 -751 0
-394 -445 0
-394 -496 0
-394 -547 0
-394 -598 0
-394 -649 0
-394 -700 0
-394 -751 0
-445 -496 0
-445 -547 0
-445 -598 0
-445 -649 0
-445 -700 0
-445 -751 0
-496 -547 0
-496 -598 0
-496 -649 0
-496 -700 0
-496 -751 0
-547 -598 0
-547 -649 0
-547 -700 0
-547 -751 0
-598 -649 0
-598 -700 0
-598 -751 0
-649 -700 0
-649 -751 0
-700 -751 0
-293 -344 0
-293 -395 0
-293 -446 0
-293 -497 0
-293 -548 0
-293 -599 0
-293 -650 0
-293 -701 0
-293 -752 0
-344 -395 0
-344 -446 0
-344 -497 0
-344 -548 0
-344 -599 0
-344 -650 0
-344 -701 0
-344 -752 0
-395 -446 0
-395 -497 0
-395 -548 0
-395 -599 0
-395 -650 0
-395 -701 0
-395 -752 0
-446 -497 0
-446 -548 0
-446 -599 0
-446 -650 0
-446 -701 0
-446 -752 0
-497 -548 0
-497 -599 0
-497 -650 0
-497 -701 0
-497 -752 0
-548 -599 0
-548 -650 0
-548 -701 0
-548 -752 0
-599 -650 0
-599 -701 0
-599 -752 0
-650 -701 0
-650 -752 0
-701 -752 0
-294 -345 0
-294 -396 0
-294 -447 0
-294 -498 0
-294 -549 0
-294 -600 0
-294 -651 0
-294 -702 0
-294 -753 0
-345 -396 0
-345 -447 0
-345 -498 0
-345 -549 0
-345 -600 0
-345 -651 0
-345 -702 0
-345 -753 0
-396 -447 0
-396 -498 0
-396 -549 0
-396 -600 0
-396 -651 0
-396 -702 0
-396 -753 0
-447 -498 0
-447 -549 0
-447 -600 0
-447 -651 0
-447 -702 0
-447 -753 0
-498 -549 0
-498 -600 0
-498 -651 0
-498 -702 0
-498 -753 0
-549 -600 0
-549 -651 0
-549 -702 0
-549 -753 0
-600 -651 0
-600 -702 0
-600 -753 0
-651 -702 0
-651 -753 0
-702 -753 0
-295 -346 0
-295 -397 0
-295 -448 0
-295 -499 0
-295 -550 0
-295 -601 0
-295 -652 0
-295 -703 0
-295 -754 0
-346 -397 0
-346 -448 0
-346 -499 0
-346 -550 0
-346 -601 0
-346 -652 0
-346 -703 0
-346 -754 0
-397 -448 0
-397 -499 0
-397 -550 0
-397 -601 0
-397 -652 0
-397 -703 0
-397 -754 0
-448 -499 0
-448 -550 0
-448 -601 0
-448 -652 0
-448 -703 0
-448 -754 0
-499 -550 0
-499 -601 0
-499 -652 0
-499 -703 0
-499 -754 0
-550 -601 0
-550 -652 0
-550 -703 0
-550 -754 0
-601 -652 0
-601 -703 0
-601 -754 0
-652 -703 0
-652 -754 0
-703 -754 0
-296 -347 0
-296 -398 0
-296 -449 0
-296 -500 0
-296 -551 0
-296 -602 0
-296 -653 0
-296 -704 0
-296 -755 0
-347 -398 0
-347 -449 0
-347 -500 0
-347 -551 0
-347 -602 0
-347 -653 0
-347 -704 0
-347 -755 0
-398 -449 0
-398 -500 0
-398 -551 0
-398 -602 0
-398 -653 0
-398 -704 0
-398 -755 0
-449 -500 0
-449 -551 0
-449 -602 0
-449 -653 0
-449 -704 0
-449 -755 0
-500 -551 0
-500 -602 0
-500 -653 0
-500 -704 0
-500 -755 0
-551 -602 0
-551 -653 0
-551 -704 0
-551 -755 0
-602 -653 0
-602 -704 0
-602 -755 0
-653 -704 0
-653 -755 0
-704 -755 0
-297 -348 0
-297 -399 0
-297 -450 0
-297 -501 0
-297 -552 0
-297 -603 0
-297 -654 0
-297 -705 0
-297 -756 0
-348 -399 0
-348 -450 0
-348 -501 0
-348 -552 0
-348 -603 0
-348 -654 0
-348 -705 0
-348 -756 0
-399 -450 0
-399 -501 0
-399 -552 0
-399 -603 0
-399 -654 0
-399 -705 0
-399 -756 0
-450 -501 0
-450 -552 0
-450 -603 0
-450 -654 0
-450 -705 0
-450 -756 0
-501 -552 0
-501 -603 0
-501 -654 0
-501 -705 0
-501 -756 0
-552 -603 0
-552 -654 0
-552 -705 0
-552 -756 0
-603 -654 0
-603 -705 0
-603 -756 0
-654 -705 0
-654 -756 0
-705 -756 0
-298 -349 0
-298 -400 0
-298 -451 0
-298 -502 0
-298 -553 0
-298 -604 0
-298 -655 0
-298 -706 0
-298 -757 0
-349 -400 0
-349 -451 0
-349 -502 0
-349 -553 0
-349 -604 0
-349 -655 0
-349 -706 0
-349 -757 0
-400 -451 0
-400 -502 0
-400 -553 0
-400 -604 0
-400 -655 0
-400 -706 0
-400 -757 0
-451 -502 0
-451 -553 0
-451 -604 0
-451 -655 0
-451 -706 0
-451 -757 0
-502 -553 0
-502 -604 0
-502 -655 0
-502 -706 0
-502 -757 0
-553 -604 0
-553 -655 0
-553 -706 0
-553 -757 0
-604 -655 0
-604 -706 0
-604 -757 0
-655 -706 0
-655 -757 0
-706 -757 0
-299 -350 0
-299 -401 0
-299 -452 0
-299 -503 0
-299 -554 0
-299 -605 0
-299 -656 0
-299 -707 0
-299 -758 0
-350 -401 0
-350 -452 0
-350 -503 0
-350 -554 0
-350 -605 0
-350 -656 0
-350 -707 0
-350 -758 0
-401 -452 0
-401 -503 0
-401 -554 0
-401 -605 0
-401 -656 0
-401 -707 0
-401 -758 0
-452 -503 0
-452 -554 0
-452 -605 0
-452 -656 0
-452 -707 0
-452 -758 0
-503 -554 0
-503 -605 0
-503 -656 0
-503 -707 0
-503 -758 0
-554 -605 0
-554 -656 0
-554 -707 0
-554 -758 0
-605 -656 0
-605 -707 0
-605 -758 0
-656 -707 0
-656 -758 0
-707 -758 0
-300 -351 0
-300 -402 0
-300 -453 0
-300 -504 0
-300 -555 0
-300 -606 0
-300 -657 0
-300 -708 0
-300 -759 0
-351 -402 0
-351 -453 0
-351 -504 0
-351 -555 0
-351 -606 0
-351 -657 0
-351 -708 0
-351 -759 0
-402 -453 0
-402 -504 0
-402 -555 0
-402 -606 0
-402 -657 0
-402 -708 0
-402 -759 0
-453 -504 0
-453 -555 0
-453 -606 0
-453 -657 0
-453 -708 0
-453 -759 0
-504 -555 0
-504 -606 0
-504 -657 0
-504 -708 0
-504 -759 0
-555 -606 0
-555 -657 0
-555 -708 0
-555 -759 0
-606 -657 0
-606 -708 0
-606 -759 0
-657 -708 0
-657 -759 0
-708 -759 0
-301 -352 0
-301 -403 0
-301 -454 0
-301 -505 0
-301 -556 0
-301 -607 0
-301 -658 0
-301 -709 0
-301 -760 0
-352 -403 0
-352 -454 0
-352 -505 0
-352 -556 0
-352 -607 0
-352 -658 0
-352 -709 0
-352 -760 0
-403 -454 0
-403 -505 0
-403 -556 0
-403 -607 0
-403 -658 0
-403 -709 0
-403 -760 0
-454 -505 0
-454 -556 0
-454 -607 0
-454 -658 0
-454 -709 0
-454 -760 0
-505 -556 0
-505 -607 0
-505 -658 0
-505 -709 0
-505 -760 0
-556 -607 0
-556 -658 0
-556 -709 0
-556 -760 0
-607 -658 0
-607 -709 0
-607 -760 0
-658 -709 0
-658 -760 0
-709 -760 0
-302 -353 0
-302 -404 0
-302 -455 0
-302 -506 0
-302 -557 0
-302 -608 0
-302 -659 0
-302 -710 0
-302 -761 0
-353 -404 0
-353 -455 0
-353 -506 0
-353 -557 0
-353 -608 0
-353 -659 0
-353 -710 0
-353 -761 0
-404 -455 0
-404 -506 0
-404 -557 0
-404 -608 0
-404 -659 0
-404 -710 0
-404 -761 0
-455 -506 0
-455 -557 0
-455 -608 0
-455 -659 0
-455 -710 0
-455 -761 0
-506 -557 0
-506 -608 0
-506 -659 0
-506 -710 0
-506 -761 0
-557 -608 0
-557 -659 0
-557 -710 0
-557 -761 0
-608 -659 0
-608 -710 0
-608 -761 0
-659 -710 0
-659 -761 0
-710 -761 0
-303 -354 0
-303 -405 0
-303 -456 0
-303 -507 0
-303 -558 0
-303 -609 0
-303 -660 0
-303 -711 0
-303 -762 0
-354 -405 0
-354 -456 0
-354 -507 0
-354 -558 0
-354 -609 0
-354 -660 0
-354 -711 0
-354 -762 0
-405 -456 0
-405 -507 0
-405 -558 0
-405 -609 0
-405 -660 0
-405 -711 0
-405 -762 0
-456 -507 0
-456 -558 0
-456 -609 0
-456 -660 0
-456 -711 0
-456 -762 0
-507 -558 0
-507 -609 0
-507 -660 0
-507 -711 0
-507 -762 0
-558 -609 0
-558 -660 0
-558 -711 0
-558 -762 0
-609 -660 0
-609 -711 0
-609 -762 0
-660 -711 0
-660 -762 0
-711 -762 0
-304 -355 0
-304 -406 0
-304 -457 0
-304 -508 0
-304 -559 0
-304 -610 0
-304 -661 0
-304 -712 0
-304 -763 0
-355 -406 0
-355 -457 0
-355 -508 0
-355 -559 0
-355 -610 0
-355 -661 0
-355 -712 0
-355 -763 0
-406 -457 0
-406 -508 0
-406 -559 0
-406 -610 0
-406 -661 0
-406 -712 0
-406 -763 0
-457 -508 0
-457 -559 0
-457 -610 0
-457 -661 0
-457 -712 0
-457 -763 0
-508 -559 0
-508 -610 0
-508 -661 0
-508 -712 0
-508 -763 0
-559 -610 0
-559 -661 0
-559 -712 0
-559 -763 0
-610 -661 0
-610 -712 0
-610 -763 0
-661 -712 0
-661 -763 0
-712 -763 0
-305 -356 0
-305 -407 0
-305 -458 0
-305 -509 0
-305 -560 0
-305 -611 0
-305 -662 0
-305 -713 0
-305 -764 0
-356 -407 0
-356 -458 0
-356 -509 0
-356 -560 0
-356 -611 0
-356 -662 0
-356 -713 0
-356 -764 0
-407 -458 0
-407 -509 0
-407 -560 0
-407 -611 0
-407 -662 0
-407 -713 0
-407 -764 0
-458 -509 0
-458 -560 0
-458 -611 0
-458 -662 0
-458 -713 0
-458 -764 0
-509 -560 0
-509 -611 0
-509 -662 0
-509 -713 0
-509 -764 0
-560 -611 0
-560 -662 0
-560 -713 0
-560 -764 0
-611 -662 0
-611 -713 0
-611 -764 0
-662 -713 0
-662 -764 0
-713 -764 0
-306 -357 0
-306 -408 0
-306 -459 0
-306 -510 0
-306 -561 0
-306 -612 0
-306 -663 0
-306 -714 0
-306 -765 0
-357 -408 0
-357 -459 0
-357 -510 0
-357 -561 0
-357 -612 0
-357 -663 0
-357 -714 0
-357 -765 0
-408 -459 0
-408 -510 0
-408 -561 0
-408 -612 0
-408 -663 0
-408 -714 0
-408 -765 0
-459 -510 0
-459 -561 0
-459 -612 0
-459 -663 0
-459 -714 0
-459 -765 0
-510 -561 0
-510 -612 0
-510 -663 0
-510 -714 0
-510 -765 0
-561 -612 0
-561 -663 0
-561 -714 0
-561 -765 0
-612 -663 0
-612 -714 0
-612 -765 0
-663 -714 0
-663 -765 0
-714 -765 0
785 786 787 788 789 790 791 792 0
-785 -786 0
-785 -787 0
-785 -788 0
-785 -789 0
-785 -790 0
-785 -791 0
-785 -792 0
-786 -787 0
-786 -788 0
-786 -789 0
-786 -790 0
-786 -791 0
-786 -792 0
-787 -788 0
-787 -789 0
-787 -790 0
-787 -791 0
-787 -792 0
-788 -789 0
-788 -790 0
-788 -791 0
-788 -792 0
-789 -790 0
-789 -791 0
-789 -792 0
-790 -791 0
-790 -792 0
-791 -792 0
-290 785 0
-291 785 786 0
-292 785 786 787 0
-293 785 786 787 788 0
-294 785 786 787 788 789 0
-295 785 786 787 788 789 790 0
-296 785 786 787 788 789 790 791 0
-297 785 786 787 788 789 790 791 792 0
-298 785 786 787 788 789 790 791 792 0
-299 785 786 787 788 789 790 791 792 0
-300 786 787 788 789 790 791 792 0
-301 787 788 789 790 791 792 0
-302 788 789 790 791 792 0
-303 789 790 791 792 0
-304 790 791 792 0
-305 791 792 0
-306 792 0
-341 785 0
-342 785 786 0
-343 785 786 787 0
-344 785 786 787 788 0
-345 785 786 787 788 789 0
-346 785 786 787 788 789 790 0
-347 785 786 787 788 789 790 791 0
-348 785 786 787 788 789 790 791 792 0
-349 785 786 787 788 789 790 791 792 0
-350 785 786 787 788 789 790 791 792 0
-351 786 787 788 789 790 791 792 0
-352 787 788 789 790 791 792 0
-353 788 789 790 791 792 0
-354 789 790 791 792 0
-355 790 791 792 0
-356 791 792 0
-357 792 0
-392 785 0
-393 785 786 0
-394 785 786 787 0
-395 785 786 787 788 0
-396 785 786 787 788 789 0
-397 785 786 787 788 789 790 0
-398 785 786 787 788 789 790 791 0
-399 785 786 787 788 789 790 791 792 0
-400 785 786 787 788 789 790 791 792 0
-401 785 786 787 788 789 790 791 792 0
-402 786 787 788 789 790 791 792 0
-403 787 788 789 790 791 792 0
-404 788 789 790 791 792 0
-405 789 790 791 792 0
-406 790 791 792 0
-407 791 792 0
-408 792 0
-443 785 0
-444 785 786 0
-445 785 786 787 0
-446 785 786 787 788 0
-447 785 786 787 788 789 0
-448 785 786 787 788 789 790 0
-449 785 786 787 788 789 790 791 0
-450 785 786 787 788 789 790 791 792 0
-451 785 786 787 788 789 790 791 792 0
-452 785 786 787 788 789 790 791 792 0
-453 786 787 788 789 790 791 792 0
-454 787 788 789 790 791 792 0
-455 788 789 790 791 792 0
-456 789 790 791 792 0
-457 790 791 792 0
-458 791 792 0
-459 792 0
-494 785 0
-495 785 786 0
-496 785 786 787 0
-497 785 786 787 788 0
-498 785 786 787 788 789 0
-499 785 786 787 788 789 790 0
-500 785 786 787 788 789 790 791 0
-501 785 786 787 788 789 790 791 792 0
-502 785 786 787 788 789 790 791 792 0
-503 785 786 787 788 789 790 791 792 0
-504 786 787 788 789 790 791 792 0
-505 787 788 789 790 791 792 0
-506 788 789 790 791 792 0
-507 789 790 791 792 0
-508 790 791 792 0
-509 791 792 0
-510 792 0
-545 785 0
-546 785 786 0
-547 785 786 787 0
-548 785 786 787 788 0
-549 785 786 787 788 789 0
-550 785 786 787 788 789 790 0
-551 785 786 787 788 789 790 791 0
-552 785 786 787 788 789 790 791 792 0
-553 785 786 787 788 789 790 791 792 0
-554 785 786 787 788 789 790 791 792 0
-555 786 787 788 789 790 791 792 0
-556 787 788 789 790 791 792 0
-557 788 789 790 791 792 0
-558 789 790 791 792 0
-559 790 791 792 0
-560 791 792 0
-561 792 0
-596 785 0
-597 785 786 0
-598 785 786 787 0
-599 785 786 787 788 0
-600 785 786 787 788 789 0
-601 785 786 787 788 789 790 0
-602 785 786 787 788 789 790 791 0
-603 785 786 787 788 789 790 791 792 0
-604 785 786 787 788 789 790 791 792 0
-605 785 786 787 788 789 790 791 792 0
-606 786 787 788 789 790 791 792 0
-607 787 788 789 790 791 792 0
-608 788 789 790 791 792 0
-609 789 790 791 792 0
-610 790 791 792 0
-611 791 792 0
-612 792 0
-647 785 0
-648 785 786 0
-649 785 786 787 0
-650 785 786 787 788 0
-651 785 786 787 788 789 0
-652 785 786 787 788 789 790 0
-653 785 786 787 788 789 790 791 0
-654 785 786 787 788 789 790 791 792 0
-655 785 786 787 788 789 790 791 792 0
-656 785 786 787 788 789 790 791 792 0
-657 786 787 788 789 790 791 792 0
-658 787 788 789 790 791 792 0
-659 788 789 790 791 792 0
-660 789 790 791 792 0
-661 790 791 792 0
-662 791 792 0
-663 792 0
-698 785 0
-699 785 786 0
-700 785 786 787 0
-701 785 786 787 788 0
-702 785 786 787 788 789 0
-703 785 786 787 788 789 790 0
-704 785 786 787 788 789 790 791 0
-705 785 786 787 788 789 790 791 792 0
-706 785 786 787 788 789 790 791 792 0
-707 785 786 787 788 789 790 791 792 0
-708 786 787 788 789 790 791 792 0
-709 787 788 789 790 791 792 0
-710 788 789 790 791 792 0
-711 789 790 791 792 0
-712 790 791 792 0
-713 791 792 0
-714 792 0
-749 785 0
-750 785 786 0
-751 785 786 787 0
-752 785 786 787 788 0
-753 785 786 787 788 789 0
-754 785 786 787 788 789 790 0
-755 785 786 787 788 789 790 791 0
-756 785 786 787 788 789 790 791 792 0
-757 785 786 787 788 789 790 791 792 0
-758 785 786 787 788 789 790 791 792 0
-759 786 787 788 789 790 791 792 0
-760 787 788 789 790 791 792 0
-761 788 789 790 791 792 0
-762 789 790 791 792 0
-763 790 791 792 0
-764 791 792 0
-765 792 0
-785 -300 0
-785 -301 0
-785 -302 0
-785 -303 0
-785 -304 0
-785 -305 0
-785 -306 0
-785 -351 0
-785 -352 0
-785 -353 0
-785 -354 0
-785 -355 0
-785 -356 0
-785 -357 0
-785 -402 0
-785 -403 0
-785 -404 0
-785 -405 0
-785 -406 0
-785 -407 0
-785 -408 0
-785 -453 0
-785 -454 0
-785 -455 0
-785 -456 0
-785 -457 0
-785 -458 0
-785 -459 0
-785 -504 0
-785 -505 0
-785 -506 0
-785 -507 0
-785 -508 0
-785 -509 0
-785 -510 0
-785 -555 0
-785 -556 0
-785 -557 0
-785 -558 0
-785 -559 0
-785 -560 0
-785 -561 0
-785 -606 0
-785 -607 0
-785 -608 0
-785 -609 0
-785 -610 0
-785 -611 0
-785 -612 0
-785 -657 0
-785 -658 0
-785 -659 0
-785 -660 0
-785 -661 0
-785 -662 0
-785 -663 0
-785 -708 0
-785 -709 0
-785 -710 0
-785 -711 0
-785 -712 0
-785 -713 0
-785 -714 0
-785 -759 0
-785 -760 0
-785 -761 0
-785 -762 0
-785 -763 0
-785 -764 0
-785 -765 0
-786 -290 0
-786 -301 0
-786 -302 0
-786 -303 0
-786 -304 0
-786 -305 0
-786 -306 0
-786 -341 0
-786 -352 0
-786 -353 0
-786 -354 0
-786 -355 0
-786 -356 0
-786 -357 0
-786 -392 0
-786 -403 0
-786 -404 0
-786 -405 0
-786 -406 0
-786 -407 0
-786 -408 0
-786 -443 0
-786 -454 0
-786 -455 0
-786 -456 0
-786 -457 0
-786 -458 0
-786 -459 0
-786 -494 0
-786 -505 0
-786 -506 0
-786 -507 0
-786 -508 0
-786 -509 0
-786 -510 0
-786 -545 0
-786 -556 0
-786 -557 0
-786 -558 0
-786 -559 0
-786 -560 0
-786 -561 0
-786 -596 0
-786 -607 0
-786 -608 0
-786 -609 0
-786 -610 0
-786 -611 0
-786 -612 0
-786 -647 0
-786 -658 0
-786 -659 0
-786 -660 0
-786 -661 0
-786 -662 0
-786 -663 0
-786 -698 0
-786 -709 0
-786 -710 0
-786 -711 0
-786 -712 0
-786 -713 0
-786 -714 0
-786 -749 0
-786 -760 0
-786 -761 0
-786 -762 0
-786 -763 0
-786 -764 0
-786 -765 0
-787 -290 0
-787 -291 0
-787 -302 0
-787 -303 0
-787 -304 0
-787 -305 0
-787 -306 0
-787 -341 0
-787 -342 0
-787 -353 0
-787 -354 0
-787 -355 0
-787 -356 0
-787 -357 0
-787 -392 0
-787 -393 0
-787 -404 0
-787 -405 0
-787 -406 0
-787 -407 0
-787 -408 0
-787 -443 0
-787 -444 0
-787 -455 0
-787 -456 0
-787 -457 0
-787 -458 0
-787 -459 0
-787 -494 0
-787 -495 0
-787 -506 0
-787 -507 0
-787 -508 0
-787 -509 0
-787 -510 0
-787 -545 0
-787 -546 0
-787 -557 0
-787 -558 0
-787 -559 0
-787 -560 0
-787 -561 0
-787 -596 0
-787 -597 0
-787 -608 0
-787 -609 0
-787 -610 0
-787 -611 0
-787 -612 0
-787 -647 0
-787 -648 0
-787 -659 0
-787 -660 0
-787 -661 0
-787 -662 0
-787 -663 0
-787 -698 0
-787 -699 0
-787 -710 0
-787 -711 0
-787 -712 0
-787 -713 0
-787 -714 0
-787 -749 0
-787 -750 0
-787 -761 0
-787 -762 0
-787 -763 0
-787 -764 0
-787 -765 0
-788 -290 0
-788 -291 0
-788 -292 0
-788 -303 0
-788 -304 0
-788 -305 0
-788 -306 0
-788 -341 0
-788 -342 0
-788 -343 0
-788 -354 0
-788 -355 0
-788 -356 0
-788 -357 0
-788 -392 0
-788 -393 0
-788 -394 0
-788 -405 0
-788 -406 0
-788 -407 0
-788 -408 0
-788 -443 0
-788 -444 0
-788 -445 0
-788 -456 0
-788 -457 0
-788 -458 0
-788 -459 0
-788 -494 0
-788 -495 0
-788 -496 0
-788 -507 0
-788 -508 0
-788 -509 0
-788 -510 0
-788 -545 0
-788 -546 0
-788 -547 0
-788 -558 0
-788 -559 0
-788 -560 0
-788 -561 0
-788 -596 0
-788 -597 0
-788 -598 0
-788 -609 0
-788 -610 0
-788 -611 0
-788 -612 0
-788 -647 0
-788 -648 0
-788 -649 0
-788 -660 0
-788 -661 0
-788 -662 0
-788 -663 0
-788 -698 0
-788 -699 0
-788 -700 0
-788 -711 0
-788 -712 0
-788 -713 0
-788 -714 0
-788 -749 0
-788 -750 0
-788 -751 0
-788 -762 0
-788 -763 0
-788 -764 0
-788 -765 0
-789 -290 0
-789 -291 0
-789 -292 0
-789 -293 0
-789 -304 0
-789 -305 0
-789 -306 0
-789 -341 0
-789 -342 0
-789 -343 0
-789 -344 0
-789 -355 0
-789 -356 0
-789 -357 0
-789 -392 0
-789 -393 0
-789 -394 0
-789 -395 0
-789 -406 0
-789 -407 0
-789 -408 0
-789 -443 0
-789 -444 0
-789 -445 0
-789 -446 0
-789 -457 0
-789 -458 0
-789 -459 0
-789 -494 0
-789 -495 0
-789 -496 0
-789 -497 0
-789 -508 0
-789 -509 0
-789 -510 0
-789 -545 0
-789 -546 0
-789 -547 0
-789 -548 0
-789 -559 0
-789 -560 0
-789 -561 0
-789 -596 0
-789 -597 0
-789 -598 0
-789 -599 0
-789 -610 0
-789 -611 0
-789 -612 0
-789 -647 0
-789 -648 0
-789 -649 0
-789 -650 0
-789 -661 0
-789 -662 0
-789 -663 0
-789 -698 0
-789 -699 0
-789 -700 0
-789 -701 0
-789 -712 0
-789 -713 0
-789 -714 0
-789 -749 0
-789 -750 0
-789 -751 0
-789 -752 0
-789 -763 0
-789 -764 0
-789 -765 0
-790 -290 0
-790 -291 0
-790 -292 0
-790 -293 0
-790 -294 0
-790 -305 0
-790 -306 0
-790 -341 0
-790 -342 0
-790 -343 0
-790 -344 0
-790 -345 0
-790 -356 0
-790 -357 0
-790 -392 0
-790 -393 0
-790 -394 0
-790 -395 0
-790 -396 0
-790 -407 0
-790 -408 0
-790 -443 0
-790 -444 0
-790 -445 0
-790 -446 0
-790 -447 0
-790 -458 0
-790 -459 0
-790 -494 0
-790 -495 0
-790 -496 0
-790 -497 0
-790 -498 0
-790 -509 0
-790 -510 0
-790 -545 0
-790 -546 0
-790 -547 0
-790 -548 0
-790 -549 0
-790 -560 0
-790 -561 0
-790 -596 0
-790 -597 0
-790 -598 0
-790 -599 0
-790 -600 0
-790 -611 0
-790 -612 0
-790 -647 0
-790 -648 0
-790 -649 0
-790 -650 0
-790 -651 0
-790 -662 0
-790 -663 0
-790 -698 0
-790 -699 0
-790 -700 0
-790 -701 0
-790 -702 0
-790 -713 0
-790 -714 0
-790 -749 0
-790 -750 0
-790 -751 0
-790 -752 0
-790 -753 0
-790 -764 0
-790 -765 0
-791 -290 0
-791 -291 0
-791 -292 0
-791 -293 0
-791 -294 0
-791 -295 0
-791 -306 0
-791 -341 0
-791 -342 0
-791 -343 0
-791 -344 0
-791 -345 0
-791 -346 0
-791 -357 0
-791 -392 0
-791 -393 0
-791 -394 0
-791 -395 0
-791 -396 0
-791 -397 0
-791 -408 0
-791 -443 0
-791 -444 0
-791 -445 0
-791 -446 0
-791 -447 0
-791 -448 0
-791 -459 0
-791 -494 0
-791 -495 0
-791 -496 0
-791 -497 0
-791 -498 0
-791 -499 0
-791 -510 0
-791 -545 0
-791 -546 0
-791 -547 0
-791 -548 0
-791 -549 0
-791 -550 0
-791 -561 0
-791 -596 0
-791 -597 0
-791 -598 0
-791 -599 0
-791 -600 0
-791 -601 0
-791 -612 0
-791 -647 0
-791 -648 0
-791 -649 0
-791 -650 0
-791 -651 0
-791 -652 0
-791 -663 0
-791 -698 0
-791 -699 0
-791 -700 0
-791 -701 0
-791 -702 0
-791 -703 0
-791 -714 0
-791 -749 0
-791 -750 0
-791 -751 0
-791 -752 0
-791 -753 0
-791 -754 0
-791 -765 0
-792 -290 0
-792 -291 0
-792 -292 0
-792 -293 0
-792 -294 0
-792 -295 0
-792 -296 0
-792 -341 0
-792 -342 0
-792 -343 0
-792 -344 0
-792 -345 0
-792 -346 0
-792 -347 0
-792 -392 0
-792 -393 0
-792 -394 0
-792 -395 0
-792 -396 0
-792 -397 0
-792 -398 0
-792 -443 0
-792 -444 0
-792 -445 0
-792 -446 0
-792 -447 0
-792 -448 0
-792 -449 0
-792 -494 0
-792 -495 0
-792 -496 0
-792 -497 0
-792 -498 0
-792 -499 0
-792 -500 0
-792 -545 0
-792 -546 0
-792 -547 0
-792 -548 0
-792 -549 0
-792 -550 0
-792 -551 0
-792 -596 0
-792 -597 0
-792 -598 0
-792 -599 0
-792 -600 0
-792 -601 0
-792 -602 0
-792 -647 0
-792 -648 0
-792 -649 0
-792 -650 0
-792 -651 0
-792 -652 0
-792 -653 0
-792 -698 0
-792 -699 0
-792 -700 0
-792 -701 0
-792 -702 0
-792 -703 0
-792 -704 0
-792 -749 0
-792 -750 0
-792 -751 0
-792 -752 0
-792 -753 0
-792 -754 0
-792 -755 0
-1 -18 0
-1 -35 0
-18 -35 0
-2 -19 0
-2 -36 0
-19 -36 0
-3 -20 0
-3 -37 0
-20 -37 0
-4 -21 0
-4 -38 0
-21 -38 0
-5 -22 0
-5 -39 0
-22 -39 0
-6 -23 0
-6 -40 0
-23 -40 0
-7 -24 0
-7 -41 0
-24 -41 0
-8 -25 0
-8 -42 0
-25 -42 0
-9 -26 0
-9 -43 0
-26 -43 0
-10 -27 0
-10 -44 0
-27 -44 0
-11 -28 0
-11 -45 0
-28 -45 0
-12 -29 0
-12 -46 0
-29 -46 0
-13 -30 0
-13 -47 0
-30 -47 0
-14 -31 0
-14 -48 0
-31 -48 0
-15 -32 0
-15 -49 0
-32 -49 0
-16 -33 0
-16 -50 0
-33 -50 0
-17 -34 0
-17 -51 0
-34 -51 0
793 794 795 796 797 798 799 800 801 802 803 804 805 806 807 0
-793 -794 0
-793 -795 0
-793 -796 0
-793 -797 0
-793 -798 0
-793 -799 0
-793 -800 0
-793 -801 0
-793 -802 0
-793 -803 0
-793 -804 0
-793 -805 0
-793 -806 0
-793 -807 0
-794 -795 0
-794 -796 0
-794 -797 0
-794 -798 0
-794 -799 0
-794 -800 0
-794 -801 0
-794 -802 0
-794 -803 0
-794 -804 0
-794 -805 0
-794 -806 0
-794 -807 0
-795 -796 0
-795 -797 0
-795 -798 0
-795 -799 0
-795 -800 0
-795 -801 0
-795 -802 0
-795 -803 0
-795 -804 0
-795 -805 0
-795 -806 0
-795 -807 0
-796 -797 0
-796 -798 0
-796 -799 0
-796 -800 0
-796 -801 0
-796 -802 0
-796 -803 0
-796 -804 0
-796 -805 0
-796 -806 0
-796 -807 0
-797 -798 0
-797 -799 0
-797 -800 0
-797 -801 0
-797 -802 0
-797 -803 0
-797 -804 0
-797 -805 0
-797 -806 0
-797 -807 0
-798 -799 0
-798 -800 0
-798 -801 0
-798 -802 0
-798 -803 0
-798 -804 0
-798 -805 0
-798 -806 0
-798 -807 0
-799 -800 0
-799 -801 0
-799 -802 0
-799 -803 0
-799 -804 0
-799 -805 0
-799 -806 0
-799 -807 0
-800 -801 0
-800 -802 0
-800 -803 0
-800 -804 0
-800 -805 0
-800 -806 0
-800 -807 0
-801 -802 0
-801 -803 0
-801 -804 0
-801 -805 0
-801 -806 0
-801 -807 0
-802 -803 0
-802 -804 0
-802 -805 0
-802 -806 0
-802 -807 0
-803 -804 0
-803 -805 0
-803 -806 0
-803 -807 0
-804 -805 0
-804 -806 0
-804 -807 0
-805 -806 0
-805 -807 0
-806 -807 0
-1 793 0
-2 793 794 0
-3 793 794 795 0
-4 794 795 796 0
-5 795 796 797 0
-6 796 797 798 0
-7 797 798 799 0
-8 798 799 800 0
-9 799 800 801 0
-10 800 801 802 0
-11 801 802 803 0
-12 802 803 804 0
-13 803 804 805 0
-14 804 805 806 0
-15 805 806 807 0
-16 806 807 0
-17 807 0
-18 793 0
-19 793 794 0
-20 793 794 795 0
-21 794 795 796 0
-22 795 796 797 0
-23 796 797 798 0
-24 797 798 799 0
-25 798 799 800 0
-26 799 800 801 0
-27 800 801 802 0
-28 801 802 803 0
-29 802 803 804 0
-30 803 804 805 0
-31 804 805 806 0
-32 805 806 807 0
-33 806 807 0
-34 807 0
-35 793 0
-36 793 794 0
-37 793 794 795 0
-38 794 795 796 0
-39 795 796 797 0
-40 796 797 798 0
-41 797 798 799 0
-42 798 799 800 0
-43 799 800 801 0
-44 800 801 802 0
-45 801 802 803 0
-46 802 803 804 0
-47 803 804 805 0
-48 804 805 806 0
-49 805 806 807 0
-50 806 807 0
-51 807 0
-793 -4 0
-793 -5 0
-793 -6 0
-793 -7 0
-793 -8 0
-793 -9 0
-793 -10 0
-793 -11 0
-793 -12 0
-793 -13 0
-793 -14 0
-793 -15 0
-793 -16 0
-793 -17 0
-793 -21 0
-793 -22 0
-793 -23 0
-793 -24 0
-793 -25 0
-793 -26 0
-793 -27 0
-793 -28 0
-793 -29 0
-793 -30 0
-793 -31 0
-793 -32 0
-793 -33 0
-793 -34 0
-793 -38 0
-793 -39 0
-793 -40 0
-793 -41 0
-793 -42 0
-793 -43 0
-793 -44 0
-793 -45 0
-793 -46 0
-793 -47 0
-793 -48 0
-793 -49 0
-793 -50 0
-793 -51 0
-794 -1 0
-794 -5 0
-794 -6 0
-794 -7 0
-794 -8 0
-794 -9 0
-794 -10 0
-794 -11 0
-794 -12 0
-794 -13 0
-794 -14 0
-794 -15 0
-794 -16 0
-794 -17 0
-794 -18 0
-794 -22 0
-794 -23 0
-794 -24 0
-794 -25 0
-794 -26 0
-794 -27 0
-794 -28 0
-794 -29 0
-794 -30 0
-794 -31 0
-794 -32 0
-794 -33 0
-794 -34 0
-794 -35 0
-794 -39 0
-794 -40 0
-794 -41 0
-794 -42 0
-794 -43 0
-794 -44 0
-794 -45 0
-794 -46 0
-794 -47 0
-794 -48 0
-794 -49 0
-794 -50 0
-794 -51 0
-795 -1 0
-795 -2 0
-795 -6 0
-795 -7 0
-795 -8 0
-795 -9 0
-795 -10 0
-795 -11 0
-795 -12 0
-795 -13 0
-795 -14 0
-795 -15 0
-795 -16 0
-795 -17 0
-795 -18 0
-795 -19 0
-795 -23 0
-795 -24 0
-795 -25 0
-795 -26 0
-795 -27 0
-795 -28 0
-795 -29 0
-795 -30 0
-795 -31 0
-795 -32 0
-795 -33 0
-795 -34 0
-795 -35 0
-795 -36 0
-795 -40 0
-795 -41 0
-795 -42 0
-795 -43 0
-795 -44 0
-795 -45 0
-795 -46 0
-795 -47 0
-795 -48 0
-795 -49 0
-795 -50 0
-795 -51 0
-796 -1 0
-796 -2 0
-796 -3 0
-796 -7 0
-796 -8 0
-796 -9 0
-796 -10 0
-796 -11 0
-796 -12 0
-796 -13 0
-796 -14 0
-796 -15 0
-796 -16 0
-796 -17 0
-796 -18 0
-796 -19 0
-796 -20 0
-796 -24 0
-796 -25 0
-796 -26 0
-796 -27 0
-796 -28 0
-796 -29 0
-796 -30 0
-796 -31 0
-796 -32 0
-796 -33 0
-796 -34 0
-796 -35 0
-796 -36 0
-796 -37 0
-796 -41 0
-796 -42 0
-796 -43 0
-796 -44 0
-796 -45 0
-796 -46 0
-796 -47 0
-796 -48 0
-796 -49 0
-796 -50 0
-796 -51 0
-797 -1 0
-797 -2 0
-797 -3 0
-797 -4 0
-797 -8 0
-797 -9 0
-797 -10 0
-797 -11 0
-797 -12 0
-797 -13 0
-797 -14 0
-797 -15 0
-797 -16 0
-797 -17 0
-797 -18 0
-797 -19 0
-797 -20 0
-797 -21 0
-797 -25 0
-797 -26 0
-797 -27 0
-797 -28 0
-797 -29 0
-797 -30 0
-797 -31 0
-797 -32 0
-797 -33 0
-797 -34 0
-797 -35 0
-797 -36 0
-797 -37 0
-797 -38 0
-797 -42 0
-797 -43 0
-797 -44 0
-797 -45 0
-797 -46 0
-797 -47 0
-797 -48 0
-797 -49 0
-797 -50 0
-797 -51 0
-798 -1 0
-798 -2 0
-798 -3 0
-798 -4 0
-798 -5 0
-798 -9 0
-798 -10 0
-798 -11 0
-798 -12 0
-798 -13 0
-798 -14 0
-798 -15 0
-798 -16 0
-798 -17 0
-798 -18 0
-798 -19 0
-798 -20 0
-798 -21 0
-798 -22 0
-798 -26 0
-798 -27 0
-798 -28 0
-798 -29 0
-798 -30 0
-798 -31 0
-798 -32 0
-798 -33 0
-798 -34 0
-798 -35 0
-798 -36 0
-798 -37 0
-798 -38 0
-798 -39 0
-798 -43 0
-798 -44 0
-798 -45 0
-798 -46 0
-798 -47 0
-798 -48 0
-798 -49 0
-798 -50 0
-798 -51 0
-799 -1 0
-799 -2 0
-799 -3 0
-799 -4 0
-799 -5 0
-799 -6 0
-799 -10 0
-799 -11 0
-799 -12 0
-799 -13 0
-799 -14 0
-799 -15 0
-799 -16 0
-799 -17 0
-799 -18 0
-799 -19 0
-799 -20 0
-799 -21 0
-799 -22 0
-799 -23 0
-799 -27 0
-799 -28 0
-799 -29 0
-799 -30 0
-799 -31 0
-799 -32 0
-799 -33 0
-799 -34 0
-799 -35 0
-799 -36 0
-799 -37 0
-799 -38 0
-799 -39 0
-799 -40 0
-799 -44 0
-799 -45 0
-799 -46 0
-799 -47 0
-799 -48 0
-799 -49 0
-799 -50 0
-799 -51 0
-800 -1 0
-800 -2 0
-800 -3 0
-800 -4 0
-800 -5 0
-800 -6 0
-800 -7 0
-800 -11 0
-800 -12 0
-800 -13 0
-800 -14 0
-800 -15 0
-800 -16 0
-800 -17 0
-800 -18 0
-800 -19 0
-800 -20 0
-800 -21 0
-800 -22 0
-800 -23 0
-800 -24 0
-800 -28 0
-800 -29 0
-800 -30 0
-800 -31 0
-800 -32 0
-800 -33 0
-800 -34 0
-800 -35 0
-800 -36 0
-800 -37 0
-800 -38 0
-800 -39 0
-800 -40 0
-800 -41 0
-800 -45 0
-800 -46 0
-800 -47 0
-800 -48 0
-800 -49 0
-800 -50 0
-800 -51 0
-801 -1 0
-801 -2 0
-801 -3 0
-801 -4 0
-801 -5 0
-801 -6 0
-801 -7 0
-801 -8 0
-801 -12 0
-801 -13 0
-801 -14 0
-801 -15 0
-801 -16 0
-801 -17 0
-801 -18 0
-801 -19 0
-801 -20 0
-801 -21 0
-801 -22 0
-801 -23 0
-801 -24 0
-801 -25 0
-801 -29 0
-801 -30 0
-801 -31 0
-801 -32 0
-801 -33 0
-801 -34 0
-801 -35 0
-801 -36 0
-801 -37 0
-801 -38 0
-801 -39 0
-801 -40 0
-801 -41 0
-801 -42 0
-801 -46 0
-801 -47 0
-801 -48 0
-801 -49 0
-801 -50 0
-801 -51 0
-802 -1 0
-802 -2 0
-802 -3 0
-802 -4 0
-802 -5 0
-802 -6 0
-802 -7 0
-802 -8 0
-802 -9 0
-802 -13 0
-802 -14 0
-802 -15 0
-802 -16 0
-802 -17 0
-802 -18 0
-802 -19 0
-802 -20 0
-802 -21 0
-802 -22 0
-802 -23 0
-802 -24 0
-802 -25 0
-802 -26 0
-802 -30 0
-802 -31 0
-802 -32 0
-802 -33 0
-802 -34 0
-802 -35 0
-802 -36 0
-802 -37 0
-802 -38 0
-802 -39 0
-802 -40 0
-802 -41 0
-802 -42 0
-802 -43 0
-802 -47 0
-802 -48 0
-802 -49 0
-802 -50 0
-802 -51 0
-803 -1 0
-803 -2 0
-803 -3 0
-803 -4 0
-803 -5 0
-803 -6 0
-803 -7 0
-803 -8 0
-803 -9 0
-803 -10 0
-803 -14 0
-803 -15 0
-803 -16 0
-803 -17 0
-803 -18 0
-803 -19 0
-803 -20 0
-803 -21 0
-803 -22 0
-803 -23 0
-803 -24 0
-803 -25 0
-803 -26 0
-803 -27 0
-803 -31 0
-803 -32 0
-803 -33 0
-803 -34 0
-803 -35 0
-803 -36 0
-803 -37 0
-803 -38 0
-803 -39 0
-803 -40 0
-803 -41 0
-803 -42 0
-803 -43 0
-803 -44 0
-803 -48 0
-803 -49 0
-803 -50 0
-803 -51 0
-804 -1 0
-804 -2 0
-804 -3 0
-804 -4 0
-804 -5 0
-804 -6 0
-804 -7 0
-804 -8 0
-804 -9 0
-804 -10 0
-804 -11 0
-804 -15 0
-804 -16 0
-804 -17 0
-804 -18 0
-804 -19 0
-804 -20 0
-804 -21 0
-804 -22 0
-804 -23 0
-804 -24 0
-804 -25 0
-804 -26 0
-804 -27 0
-804 -28 0
-804 -32 0
-804 -33 0
-804 -34 0
-804 -35 0
-804 -36 0
-804 -37 0
-804 -38 0
-804 -39 0
-804 -40 0
-804 -41 0
-804 -42 0
-804 -43 0
-804 -44 0
-804 -45 0
-804 -49 0
-804 -50 0
-804 -51 0
-805 -1 0
-805 -2 0
-805 -3 0
-805 -4 0
-805 -5 0
-805 -6 0
-805 -7 0
-805 -8 0
-805 -9 0
-805 -10 0
-805 -11 0
-805 -12 0
-805 -16 0
-805 -17 0
-805 -18 0
-805 -19 0
-805 -20 0
-805 -21 0
-805 -22 0
-805 -23 0
-805 -24 0
-805 -25 0
-805 -26 0
-805 -27 0
-805 -28 0
-805 -29 0
-805 -33 0
-805 -34 0
-805 -35 0
-805 -36 0
-805 -37 0
-805 -38 0
-805 -39 0
-805 -40 0
-805 -41 0
-805 -42 0
-805 -43 0
-805 -44 0
-805 -45 0
-805 -46 0
-805 -50 0
-805 -51 0
-806 -1 0
-806 -2 0
-806 -3 0
-806 -4 0
-806 -5 0
-806 -6 0
-806 -7 0
-806 -8 0
-806 -9 0
-806 -10 0
-806 -11 0
-806 -12 0
-806 -13 0
-806 -17 0
-806 -18 0
-806 -19 0
-806 -20 0
-806 -21 0
-806 -22 0
-806 -23 0
-806 -24 0
-806 -25 0
-806 -26 0
-806 -27 0
-806 -28 0
-806 -29 0
-806 -30 0
-806 -34 0
-806 -35 0
-806 -36 0
-806 -37 0
-806 -38 0
-806 -39 0
-806 -40 0
-806 -41 0
-806 -42 0
-806 -43 0
-806 -44 0
-806 -45 0
-806 -46 0
-806 -47 0
-806 -51 0
-807 -1 0
-807 -2 0
-807 -3 0
-807 -4 0
-807 -5 0
-807 -6 0
-807 -7 0
-807 -8 0
-807 -9 0
-807 -10 0
-807 -11 0
-807 -12 0
-807 -13 0
-807 -14 0
-807 -18 0
-807 -19 0
-807 -20 0
-807 -21 0
-807 -22 0
-807 -23 0
-807 -24 0
-807 -25 0
-807 -26 0
-807 -27 0
-807 -28 0
-807 -29 0
-807 -30 0
-807 -31 0
-807 -35 0
-807 -36 0
-807 -37 0
-807 -38 0
-807 -39 0
-807 -40 0
-807 -41 0
-807 -42 0
-807 -43 0
-807 -44 0
-807 -45 0
-807 -46 0
-807 -47 0
-807 -48 0
-52 -69 0
-52 -86 0
-69 -86 0
-53 -70 0
-53 -87 0
-70 -87 0
-54 -71 0
-54 -88 0
-71 -88 0
-55 -72 0
-55 -89 0
-72 -89 0
-56 -73 0
-56 -90 0
-73 -90 0
-57 -74 0
-57 -91 0
-74 -91 0
-58 -75 0
-58 -92 0
-75 -92 0
-59 -76 0
-59 -93 0
-76 -93 0
-60 -77 0
-60 -94 0
-77 -94 0
-61 -78 0
-61 -95 0
-78 -95 0
-62 -79 0
-62 -96 0
-79 -96 0
-63 -80 0
-63 -97 0
-80 -97 0
-64 -81 0
-64 -98 0
-81 -98 0
-65 -82 0
-65 -99 0
-82 -99 0
-66 -83 0
-66 -100 0
-83 -100 0
-67 -84 0
-67 -101 0
-84 -101 0
-68 -85 0
-68 -102 0
-85 -102 0
808 809 810 811 812 813 814 815 816 817 818 819 820 821 822 0
-808 -809 0
-808 -810 0
-808 -811 0
-808 -812 0
-808 -813 0
-808 -814 0
-808 -815 0
-808 -816 0
-808 -817 0
-808 -818 0
-808 -819 0
-808 -820 0
-808 -821 0
-808 -822 0
-809 -810 0
-809 -811 0
-809 -812 0
-809 -813 0
-809 -814 0
-809 -815 0
-809 -816 0
-809 -817 0
-809 -818 0
-809 -819 0
-809 -820 0
-809 -821 0
-809 -822 0
-810 -811 0
-810 -812 0
-810 -813 0
-810 -814 0
-810 -815 0
-810 -816 0
-810 -817 0
-810 -818 0
-810 -819 0
-810 -820 0
-810 -821 0
-810 -822 0
-811 -812 0
-811 -813 0
-811 -814 0
-811 -815 0
-811 -816 0
-811 -817 0
-811 -818 0
-811 -819 0
-811 -820 0
-811 -821 0
-811 -822 0
-812 -813 0
-812 -814 0
-812 -815 0
-812 -816 0
-812 -817 0
-812 -818 0
-812 -819 0
-812 -820 0
-812 -821 0
-812 -822 0
-813 -814 0
-813 -815 0
-813 -816 0
-813 -817 0
-813 -818 0
-813 -819 0
-813 -820 0
-813 -821 0
-813 -822 0
-814 -815 0
-814 -816 0
-814 -817 0
-814 -818 0
-814 -819 0
-814 -820 0
-814 -821 0
-814 -822 0
-815 -816 0
-815 -817 0
-815 -818 0
-815 -819 0
-815 -820 0
-815 -821 0
-815 -822 0
-816 -817 0
-816 -818 0
-816 -819 0
-816 -820 0
-816 -821 0
-816 -822 0
-817 -818 0
-817 -819 0
-817 -820 0
-817 -821 0
-817 -822 0
-818 -819 0
-818 -820 0
-818 -821 0
-818 -822 0
-819 -820 0
-819 -821 0
-819 -822 0
-820 -821 0
-820 -822 0
-821 -822 0
-52 808 0
-53 808 809 0
-54 808 809 810 0
-55 809 810 811 0
-56 810 811 812 0
-57 811 812 813 0
-58 812 813 814 0
-59 813 814 815 0
-60 814 815 816 0
-61 815 816 817 0
-62 816 817 818 0
-63 817 818 819 0
-64 818 819 820 0
-65 819 820 821 0
-66 820 821 822 0
-67 821 822 0
-68 822 0
-69 808 0
-70 808 809 0
-71 808 809 810 0
-72 809 810 811 0
-73 810 811 812 0
-74 811 812 813 0
-75 812 813 814 0
-76 813 814 815 0
-77 814 815 816 0
-78 815 816 817 0
-79 816 817 818 0
-80 817 818 819 0
-81 818 819 820 0
-82 819 820 821 0
-83 820 821 822 0
-84 821 822 0
-85 822 0
-86 808 0
-87 808 809 0
-88 808 809 810 0
-89 809 810 811 0
-90 810 811 812 0
-91 811 812 813 0
-92 812 813 814 0
-93 813 814 815 0
-94 814 815 816 0
-95 815 816 817 0
-96 816 817 818 0
-97 817 818 819 0
-98 818 819 820 0
-99 819 820 821 0
-100 820 821 822 0
-101 821 822 0
-102 822 0
-808 -55 0
-808 -56 0
-808 -57 0
-808 -58 0
-808 -59 0
-808 -60 0
-808 -61 0
-808 -62 0
-808 -63 0
-808 -64 0
-808 -65 0
-808 -66 0
-808 -67 0
-808 -68 0
-808 -72 0
-808 -73 0
-808 -74 0
-808 -75 0
-808 -76 0
-808 -77 0
-808 -78 0
-808 -79 0
-808 -80 0
-808 -81 0
-808 -82 0
-808 -83 0
-808 -84 0
-808 -85 0
-808 -89 0
-808 -90 0
-808 -91 0
-808 -92 0
-808 -93 0
-808 -94 0
-808 -95 0
-808 -96 0
-808 -97 0
-808 -98 0
-808 -99 0
-808 -100 0
-808 -101 0
-808 -102 0
-809 -52 0
-809 -56 0
-809 -57 0
-809 -58 0
-809 -59 0
-809 -60 0
-809 -61 0
-809 -62 0
-809 -63 0
-809 -64 0
-809 -65 0
-809 -66 0
-809 -67 0
-809 -68 0
-809 -69 0
-809 -73 0
-809 -74 0
-809 -75 0
-809 -76 0
-809 -77 0
-809 -78 0
-809 -79 0
-809 -80 0
-809 -81 0
-809 -82 0
-809 -83 0
-809 -84 0
-809 -85 0
-809 -86 0
-809 -90 0
-809 -91 0
-809 -92 0
-809 -93 0
-809 -94 0
-809 -95 0
-809 -96 0
-809 -97 0
-809 -98 0
-809 -99 0
-809 -100 0
-809 -101 0
-809 -102 0
-810 -52 0
-810 -53 0
-810 -57 0
-810 -58 0
-810 -59 0
-810 -60 0
-810 -61 0
-810 -62 0
-810 -63 0
-810 -64 0
-810 -65 0
-810 -66 0
-810 -67 0
-810 -68 0
-810 -69 0
-810 -70 0
-810 -74 0
-810 -75 0
-810 -76 0
-810 -77 0
-810 -78 0
-810 -79 0
-810 -80 0
-810 -81 0
-810 -82 0
-810 -83 0
-810 -84 0
-810 -85 0
-810 -86 0
-810 -87 0
-810 -91 0
-810 -92 0
-810 -93 0
-810 -94 0
-810 -95 0
-810 -96 0
-810 -97 0
-810 -98 0
-810 -99 0
-810 -100 0
-810 -101 0
-810 -102 0
-811 -52 0
-811 -53 0
-811 -54 0
-811 -58 0
-811 -59 0
-811 -60 0
-811 -61 0
-811 -62 0
-811 -63 0
-811 -64 0
-811 -65 0
-811 -66 0
-811 -67 0
-811 -68 0
-811 -69 0
-811 -70 0
-811 -71 0
-811 -75 0
-811 -76 0
-811 -77 0
-811 -78 0
-811 -79 0
-811 -80 0
-811 -81 0
-811 -82 0
-811 -83 0
-811 -84 0
-811 -85 0
-811 -86 0
-811 -87 0
-811 -88 0
-811 -92 0
-811 -93 0
-811 -94 0
-811 -95 0
-811 -96 0
-811 -97 0
-811 -98 0
-811 -99 0
-811 -100 0
-811 -101 0
-811 -102 0
-812 -52 0
-812 -53 0
-812 -54 0
-812 -55 0
-812 -59 0
-812 -60 0
-812 -61 0
-812 -62 0
-812 -63 0
-812 -64 0
-812 -65 0
-812 -66 0
-812 -67 0
-812 -68 0
-812 -69 0
-812 -70 0
-812 -71 0
-812 -72 0
-812 -76 0
-812 -77 0
-812 -78 0
-812 -79 0
-812 -80 0
-812 -81 0
-812 -82 0
-812 -83 0
-812 -84 0
-812 -85 0
-812 -86 0
-812 -87 0
-812 -88 0
-812 -89 0
-812 -93 0
-812 -94 0
-812 -95 0
-812 -96 0
-812 -97 0
-812 -98 0
-812 -99 0
-812 -100 0
-812 -101 0
-812 -102 0
-813 -52 0
-813 -53 0
-813 -54 0
-813 -55 0
-813 -56 0
-813 -60 0
-813 -61 0
-813 -62 0
-813 -63 0
-813 -64 0
-813 -65 0
-813 -66 0
-813 -67 0
-813 -68 0
-813 -69 0
-813 -70 0
-813 -71 0
-813 -72 0
-813 -73 0
-813 -77 0
-813 -78 0
-813 -79 0
-813 -80 0
-813 -81 0
-813 -82 0
-813 -83 0
-813 -84 0
-813 -85 0
-813 -86 0
-813 -87 0
-813 -88 0
-813 -89 0
-813 -90 0
-813 -94 0
-813 -95 0
-813 -96 0
-813 -97 0
-813 -98 0
-813 -99 0
-813 -100 0
-813 -101 0
-813 -102 0
-814 -52 0
-814 -53 0
-814 -54 0
-814 -55 0
-814 -56 0
-814 -57 0
-814 -61 0
-814 -62 0
-814 -63 0
-814 -64 0
-814 -65 0
-814 -66 0
-814 -67 0
-814 -68 0
-814 -69 0
-814 -70 0
-814 -71 0
-814 -72 0
-814 -73 0
-814 -74 0
-814 -78 0
-814 -79 0
-814 -80 0
-814 -81 0
-814 -82 0
-814 -83 0
-814 -84 0
-814 -85 0
-814 -86 0
-814 -87 0
-814 -88 0
-814 -89 0
-814 -90 0
-814 -91 0
-814 -95 0
-814 -96 0
-814 -97 0
-814 -98 0
-814 -99 0
-814 -100 0
-814 -101 0
-814 -102 0
-815 -52 0
-815 -53 0
-815 -54 0
-815 -55 0
-815 -56 0
-815 -57 0
-815 -58 0
-815 -62 0
-815 -63 0
-815 -64 0
-815 -65 0
-815 -66 0
-815 -67 0
-815 -68 0
-815 -69 0
-815 -70 0
-815 -71 0
-815 -72 0
-815 -73 0
-815 -74 0
-815 -75 0
-815 -79 0
-815 -80 0
-815 -81 0
-815 -82 0
-815 -83 0
-815 -84 0
-815 -85 0
-815 -86 0
-815 -87 0
-815 -88 0
-815 -89 0
-815 -90 0
-815 -91 0
-815 -92 0
-815 -96 0
-815 -97 0
-815 -98 0
-815 -99 0
-815 -100 0
-815 -101 0
-815 -102 0
-816 -52 0
-816 -53 0
-816 -54 0
-816 -55 0
-816 -56 0
-816 -57 0
-816 -58 0
-816 -59 0
-816 -63 0
-816 -64 0
-816 -65 0
-816 -66 0
-816 -67 0
-816 -68 0
-816 -69 0
-816 -70 0
-816 -71 0
-816 -72 0
-816 -73 0
-816 -74 0
-816 -75 0
-816 -76 0
-816 -80 0
-816 -81 0
-816 -82 0
-816 -83 0
-816 -84 0
-816 -85 0
-816 -86 0
-816 -87 0
-816 -88 0
-816 -89 0
-816 -90 0
-816 -91 0
-816 -92 0
-816 -93 0
-816 -97 0
-816 -98 0
-816 -99 0
-816 -100 0
-816 -101 0
-816 -102 0
-817 -52 0
-817 -53 0
-817 -54 0
-817 -55 0
-817 -56 0
-817 -57 0
-817 -58 0
-817 -59 0
-817 -60 0
-817 -64 0
-817 -65 0
-817 -66 0
-817 -67 0
-817 -68 0
-817 -69 0
-817 -70 0
-817 -71 0
-817 -72 0
-817 -73 0
-817 -74 0
-817 -75 0
-817 -76 0
-817 -77 0
-817 -81 0
-817 -82 0
-817 -83 0
-817 -84 0
-817 -85 0
-817 -86 0
-817 -87 0
-817 -88 0
-817 -89 0
-817 -90 0
-817 -91 0
-817 -92 0
-817 -93 0
-817 -94 0
-817 -98 0
-817 -99 0
-817 -100 0
-817 -101 0
-817 -102 0
-818 -52 0
-818 -53 0
-818 -54 0
-818 -55 0
-818 -56 0
-818 -57 0
-818 -58 0
-818 -59 0
-818 -60 0
-818 -61 0
-818 -65 0
-818 -66 0
-818 -67 0
-818 -68 0
-818 -69 0
-818 -70 0
-818 -71 0
-818 -72 0
-818 -73 0
-818 -74 0
-818 -75 0
-818 -76 0
-818 -77 0
-818 -78 0
-818 -82 0
-818 -83 0
-818 -84 0
-818 -85 0
-818 -86 0
-818 -87 0
-818 -88 0
-818 -89 0
-818 -90 0
-818 -91 0
-818 -92 0
-818 -93 0
-818 -94 0
-818 -95 0
-818 -99 0
-818 -100 0
-818 -101 0
-818 -102 0
-819 -52 0
-819 -53 0
-819 -54 0
-819 -55 0
-819 -56 0
-819 -57 0
-819 -58 0
-819 -59 0
-819 -60 0
-819 -61 0
-819 -62 0
-819 -66 0
-819 -67 0
-819 -68 0
-819 -69 0
-819 -70 0
-819 -71 0
-819 -72 0
-819 -73 0
-819 -74 0
-819 -75 0
-819 -76 0
-819 -77 0
-819 -78 0
-819 -79 0
-819 -83 0
-819 -84 0
-819 -85 0
-819 -86 0
-819 -87 0
-819 -88 0
-819 -89 0
-819 -90 0
-819 -91 0
-819 -92 0
-819 -93 0
-819 -94 0
-819 -95 0
-819 -96 0
-819 -100 0
-819 -101 0
-819 -102 0
-820 -52 0
-820 -53 0
-820 -54 0
-820 -55 0
-820 -56 0
-820 -57 0
-820 -58 0
-820 -59 0
-820 -60 0
-820 -61 0
-820 -62 0
-820 -63 0
-820 -67 0
-820 -68 0
-820 -69 0
-820 -70 0
-820 -71 0
-820 -72 0
-820 -73 0
-820 -74 0
-820 -75 0
-820 -76 0
-820 -77 0
-820 -78 0
-820 -79 0
-820 -80 0
-820 -84 0
-820 -85 0
-820 -86 0
-820 -87 0
-820 -88 0
-820 -89 0
-820 -90 0
-820 -91 0
-820 -92 0
-820 -93 0
-820 -94 0
-820 -95 0
-820 -96 0
-820 -97 0
-820 -101 0
-820 -102 0
-821 -52 0
-821 -53 0
-821 -54 0
-821 -55 0
-821 -56 0
-821 -57 0
-821 -58 0
-821 -59 0
-821 -60 0
-821 -61 0
-821 -62 0
-821 -63 0
-821 -64 0
-821 -68 0
-821 -69 0
-821 -70 0
-821 -71 0
-821 -72 0
-821 -73 0
-821 -74 0
-821 -75 0
-821 -76 0
-821 -77 0
-821 -78 0
-821 -79 0
-821 -80 0
-821 -81 0
-821 -85 0
-821 -86 0
-821 -87 0
-821 -88 0
-821 -89 0
-821 -90 0
-821 -91 0
-821 -92 0
-821 -93 0
-821 -94 0
-821 -95 0
-821 -96 0
-821 -97 0
-821 -98 0
-821 -102 0
-822 -52 0
-822 -53 0
-822 -54 0
-822 -55 0
-822 -56 0
-822 -57 0
-822 -58 0
-822 -59 0
-822 -60 0
-822 -61 0
-822 -62 0
-822 -63 0
-822 -64 0
-822 -65 0
-822 -69 0
-822 -70 0
-822 -71 0
-822 -72 0
-822 -73 0
-822 -74 0
-822 -75 0
-822 -76 0
-822 -77 0
-822 -78 0
-822 -79 0
-822 -80 0
-822 -81 0
-822 -82 0
-822 -86 0
-822 -87 0
-822 -88 0
-822 -89 0
-822 -90 0
-822 -91 0
-822 -92 0
-822 -93 0
-822 -94 0
-822 -95 0
-822 -96 0
-822 -97 0
-822 -98 0
-822 -99 0
-103 -120 0
-103 -137 0
-120 -137 0
-104 -121 0
-104 -138 0
-121 -138 0
-105 -122 0
-105 -139 0
-122 -139 0
-106 -123 0
-106 -140 0
-123 -140 0
-107 -124 0
-107 -141 0
-124 -141 0
-108 -125 0
-108 -142 0
-125 -142 0
-109 -126 0
-109 -143 0
-126 -143 0
-110 -127 0
-110 -144 0
-127 -144 0
-111 -128 0
-111 -145 0
-128 -145 0
-112 -129 0
-112 -146 0
-129 -146 0
-113 -130 0
-113 -147 0
-130 -147 0
-114 -131 0
-114 -148 0
-131 -148 0
-115 -132 0
-115 -149 0
-132 -149 0
-116 -133 0
-116 -150 0
-133 -150 0
-117 -134 0
-117 -151 0
-134 -151 0
-118 -135 0
-118 -152 0
-135 -152 0
-119 -136 0
-119 -153 0
-136 -153 0
823 824 825 826 827 828 829 830 831 832 833 834 835 836 837 0
-823 -824 0
-823 -825 0
-823 -826 0
-823 -827 0
-823 -828 0
-823 -829 0
-823 -830 0
-823 -831 0
-823 -832 0
-823 -833 0
-823 -834 0
-823 -835 0
-823 -836 0
-823 -837 0
-824 -825 0
-824 -826 0
-824 -827 0
-824 -828 0
-824 -829 0
-824 -830 0
-824 -831 0
-824 -832 0
-824 -833 0
-824 -834 0
-824 -835 0
-824 -836 0
-824 -837 0
-825 -826 0
-825 -827 0
-825 -828 0
-825 -829 0
-825 -830 0
-825 -831 0
-825 -832 0
-825 -833 0
-825 -834 0
-825 -835 0
-825 -836 0
-825 -837 0
-826 -827 0
-826 -828 0
-826 -829 0
-826 -830 0
-826 -831 0
-826 -832 0
-826 -833 0
-826 -834 0
-826 -835 0
-826 -836 0
-826 -837 0
-827 -828 0
-827 -829 0
-827 -830 0
-827 -831 0
-827 -832 0
-827 -833 0
-827 -834 0
-827 -835 0
-827 -836 0
-827 -837 0
-828 -829 0
-828 -830 0
-828 -831 0
-828 -832 0
-828 -833 0
-828 -834 0
-828 -835 0
-828 -836 0
-828 -837 0
-829 -830 0
-829 -831 0
-829 -832 0
-829 -833 0
-829 -834 0
-829 -835 0
-829 -836 0
-829 -837 0
-830 -831 0
-830 -832 0
-830 -833 0
-830 -834 0
-830 -835 0
-830 -836 0
-830 -837 0
-831 -832 0
-831 -833 0
-831 -834 0
-831 -835 0
-831 -836 0
-831 -837 0
-832 -833 0
-832 -834 0
-832 -835 0
-832 -836 0
-832 -837 0
-833 -834 0
-833 -835 0
-833 -836 0
-833 -837 0
-834 -835 0
-834 -836 0
-834 -837 0
-835 -836 0
-835 -837 0
-836 -837 0
-103 823 0
-104 823 824 0
-105 823 824 825 0
-106 824 825 826 0
-107 825 826 827 0
-108 826 827 828 0
-109 827 828 829 0
-110 828 829 830 0
-111 829 830 831 0
-112 830 831 832 0
-113 831 832 833 0
-114 832 833 834 0
-115 833 834 835 0
-116 834 835 836 0
-117 835 836 837 0
-118 836 837 0
-119 837 0
-120 823 0
-121 823 824 0
-122 823 824 825 0
-123 824 825 826 0
-124 825 826 827 0
-125 826 827 828 0
-126 827 828 829 0
-127 828 829 830 0
-128 829 830 831 0
-129 830 831 832 0
-130 831 832 833 0
-131 832 833 834 0
-132 833 834 835 0
-133 834 835 836 0
-134 835 836 837 0
-135 836 837 0
-136 837 0
-137 823 0
-138 823 824 0
-139 823 824 825 0
-140 824 825 826 0
-141 825 826 827 0
-142 826 827 828 0
-143 827 828 829 0
-144 828 829 830 0
-145 829 830 831 0
-146 830 831 832 0
-147 831 832 833 0
-148 832 833 834 0
-149 833 834 835 0
-150 834 835 836 0
-151 835 836 837 0
-152 836 837 0
-153 837 0
-823 -106 0
-823 -107 0
-823 -108 0
-823 -109 0
-823 -110 0
-823 -111 0
-823 -112 0
-823 -113 0
-823 -114 0
-823 -115 0
-823 -116 0
-823 -117 0
-823 -118 0
-823 -119 0
-823 -123 0
-823 -124 0
-823 -125 0
-823 -126 0
-823 -127 0
-823 -128 0
-823 -129 0
-823 -130 0
-823 -131 0
-823 -132 0
-823 -133 0
-823 -134 0
-823 -135 0
-823 -136 0
-823 -140 0
-823 -141 0
-823 -142 0
-823 -143 0
-823 -144 0
-823 -145 0
-823 -146 0
-823 -147 0
-823 -148 0
-823 -149 0
-823 -150 0
-823 -151 0
-823 -152 0
-823 -153 0
-824 -103 0
-824 -107 0
-824 -108 0
-824 -109 0
-824 -110 0
-824 -111 0
-824 -112 0
-824 -113 0
-824 -114 0
-824 -115 0
-824 -116 0
-824 -117 0
-824 -118 0
-824 -119 0
-824 -120 0
-824 -124 0
-824 -125 0
-824 -126 0
-824 -127 0
-824 -128 0
-824 -129 0
-824 -130 0
-824 -131 0
-824 -132 0
-824 -133 0
-824 -134 0
-824 -135 0
-824 -136 0
-824 -137 0
-824 -141 0
-824 -142 0
-824 -143 0
-824 -144 0
-824 -145 0
-824 -146 0
-824 -147 0
-824 -148 0
-824 -149 0
-824 -150 0
-824 -151 0
-824 -152 0
-824 -153 0
-825 -103 0
-825 -104 0
-825 -108 0
-825 -109 0
-825 -110 0
-825 -111 0
-825 -112 0
-825 -113 0
-825 -114 0
-825 -115 0
-825 -116 0
-825 -117 0
-825 -118 0
-825 -119 0
-825 -120 0
-825 -121 0
-825 -125 0
-825 -126 0
-825 -127 0
-825 -128 0
-825 -129 0
-825 -130 0
-825 -131 0
-825 -132 0
-825 -133 0
-825 -134 0
-825 -135 0
-825 -136 0
-825 -137 0
-825 -138 0
-825 -142 0
-825 -143 0
-825 -144 0
-825 -145 0
-825 -146 0
-825 -147 0
-825 -148 0
-825 -149 0
-825 -150 0
-825 -151 0
-825 -152 0
-825 -153 0
-826 -103 0
-826 -104 0
-826 -105 0
-826 -109 0
-826 -110 0
-826 -111 0
-826 -112 0
-826 -113 0
-826 -114 0
-826 -115 0
-826 -116 0
-826 -117 0
-826 -118 0
-826 -119 0
-826 -120 0
-826 -121 0
-826 -122 0
-826 -126 0
-826 -127 0
-826 -128 0
-826 -129 0
-826 -130 0
-826 -131 0
-826 -132 0
-826 -133 0
-826 -134 0
-826 -135 0
-826 -136 0
-826 -137 0
-826 -138 0
-826 -139 0
-826 -143 0
-826 -144 0
-826 -145 0
-826 -146 0
-826 -147 0
-826 -148 0
-826 -149 0
-826 -150 0
-826 -151 0
-826 -152 0
-826 -153 0
-827 -103 0
-827 -104 0
-827 -105 0
-827 -106 0
-827 -110 0
-827 -111 0
-827 -112 0
-827 -113 0
-827 -114 0
-827 -115 0
-827 -116 0
-827 -117 0
-827 -118 0
-827 -119 0
-827 -120 0
-827 -121 0
-827 -122 0
-827 -123 0
-827 -127 0
-827 -128 0
-827 -129 0
-827 -130 0
-827 -131 0
-827 -132 0
-827 -133 0
-827 -134 0
-827 -135 0
-827 -136 0
-827 -137 0
-827 -138 0
-827 -139 0
-827 -140 0
-827 -144 0
-827 -145 0
-827 -146 0
-827 -147 0
-827 -148 0
-827 -149 0
-827 -150 0
-827 -151 0
-827 -152 0
-827 -153 0
-828 -103 0
-828 -104 0
-828 -105 0
-828 -106 0
-828 -107 0
-828 -111 0
-828 -112 0
-828 -113 0
-828 -114 0
-828 -115 0
-828 -116 0
-828 -117 0
-828 -118 0
-828 -119 0
-828 -120 0
-828 -121 0
-828 -122 0
-828 -123 0
-828 -124 0
-828 -128 0
-828 -129 0
-828 -130 0
-828 -131 0
-828 -132 0
-828 -133 0
-828 -134 0
-828 -135 0
-828 -136 0
-828 -137 0
-828 -138 0
-828 -139 0
-828 -140 0
-828 -141 0
-828 -145 0
-828 -146 0
-828 -147 0
-828 -148 0
-828 -149 0
-828 -150 0
-828 -151 0
-828 -152 0
-828 -153 0
-829 -103 0
-829 -104 0
-829 -105 0
-829 -106 0
-829 -107 0
-829 -108 0
-829 -112 0
-829 -113 0
-829 -114 0
-829 -115 0
-829 -116 0
-829 -117 0
-829 -118 0
-829 -119 0
-829 -120 0
-829 -121 0
-829 -122 0
-829 -123 0
-829 -124 0
-829 -125 0
-829 -129 0
-829 -130 0
-829 -131 0
-829 -132 0
-829 -133 0
-829 -134 0
-829 -135 0
-829 -136 0
-829 -137 0
-829 -138 0
-829 -139 0
-829 -140 0
-829 -141 0
-829 -142 0
-829 -146 0
-829 -147 0
-829 -148 0
-829 -149 0
-829 -150 0
-829 -151 0
-829 -152 0
-829 -153 0
-830 -103 0
-830 -104 0
-830 -105 0
-830 -106 0
-830 -107 0
-830 -108 0
-830 -109 0
-830 -113 0
-830 -114 0
-830 -115 0
-830 -116 0
-830 -117 0
-830 -118 0
-830 -119 0
-830 -120 0
-830 -121 0
-830 -122 0
-830 -123 0
-830 -124 0
-830 -125 0
-830 -126 0
-830 -130 0
-830 -131 0
-830 -132 0
-830 -133 0
-830 -134 0
-830 -135 0
-830 -136 0
-830 -137 0
-830 -138 0
-830 -139 0
-830 -140 0
-830 -141 0
-830 -142 0
-830 -143 0
-830 -147 0
-830 -148 0
-830 -149 0
-830 -150 0
-830 -151 0
-830 -152 0
-830 -153 0
-831 -103 0
-831 -104 0
-831 -105 0
-831 -106 0
-831 -107 0
-831 -108 0
-831 -109 0
-831 -110 0
-831 -114 0
-831 -115 0
-831 -116 0
-831 -117 0
-831 -118 0
-831 -119 0
-831 -120 0
-831 -121 0
-831 -122 0
-831 -123 0
-831 -124 0
-831 -125 0
-831 -126 0
-831 -127 0
-831 -131 0
-831 -132 0
-831 -133 0
-831 -134 0
-831 -135 0
-831 -136 0
-831 -137 0
-831 -138 0
-831 -139 0
-831 -140 0
-831 -141 0
-831 -142 0
-831 -143 0
-831 -144 0
-831 -148 0
-831 -149 0
-831 -150 0
-831 -151 0
-831 -152 0
-831 -153 0
-832 -103 0
-832 -104 0
-832 -105 0
-832 -106 0
-832 -107 0
-832 -108 0
-832 -109 0
-832 -110 0
-832 -111 0
-832 -115 0
-832 -116 0
-832 -117 0
-832 -118 0
-832 -119 0
-832 -120 0
-832 -121 0
-832 -122 0
-832 -123 0
-832 -124 0
-832 -125 0
-832 -126 0
-832 -127 0
-832 -128 0
-832 -132 0
-832 -133 0
-832 -134 0
-832 -135 0
-832 -136 0
-832 -137 0
-832 -138 0
-832 -139 0
-832 -140 0
-832 -141 0
-832 -142 0
-832 -143 0
-832 -144 0
-832 -145 0
-832 -149 0
-832 -150 0
-832 -151 0
-832 -152 0
-832 -153 0
-833 -103 0
-833 -104 0
-833 -105 0
-833 -106 0
-833 -107 0
-833 -108 0
-833 -109 0
-833 -110 0
-833 -111 0
-833 -112 0
-833 -116 0
-833 -117 0
-833 -118 0
-833 -119 0
-833 -120 0
-833 -121 0
-833 -122 0
-833 -123 0
-833 -124 0
-833 -125 0
-833 -126 0
-833 -127 0
-833 -128 0
-833 -129 0
-833 -133 0
-833 -134 0
-833 -135 0
-833 -136 0
-833 -137 0
-833 -138 0
-833 -139 0
-833 -140 0
-833 -141 0
-833 -142 0
-833 -143 0
-833 -144 0
-833 -145 0
-833 -146 0
-833 -150 0
-833 -151 0
-833 -152 0
-833 -153 0
-834 -103 0
-834 -104 0
-834 -105 0
-834 -106 0
-834 -107 0
-834 -108 0
-834 -109 0
-834 -110 0
-834 -111 0
-834 -112 0
-834 -113 0
-834 -117 0
-834 -118 0
-834 -119 0
-834 -120 0
-834 -121 0
-834 -122 0
-834 -123 0
-834 -124 0
-834 -125 0
-834 -126 0
-834 -127 0
-834 -128 0
-834 -129 0
-834 -130 0
-834 -134 0
-834 -135 0
-834 -136 0
-834 -137 0
-834 -138 0
-834 -139 0
-834 -140 0
-834 -141 0
-834 -142 0
-834 -143 0
-834 -144 0
-834 -145 0
-834 -146 0
-834 -147 0
-834 -151 0
-834 -152 0
-834 -153 0
-835 -103 0
-835 -104 0
-835 -105 0
-835 -106 0
-835 -107 0
-835 -108 0
-835 -109 0
-835 -110 0
-835 -111 0
-835 -112 0
-835 -113 0
-835 -114 0
-835 -118 0
-835 -119 0
-835 -120 0
-835 -121 0
-835 -122 0
-835 -123 0
-835 -124 0
-835 -125 0
-835 -126 0
-835 -127 0
-835 -128 0
-835 -129 0
-835 -130 0
-835 -131 0
-835 -135 0
-835 -136 0
-835 -137 0
-835 -138 0
-835 -139 0
-835 -140 0
-835 -141 0
-835 -142 0
-835 -143 0
-835 -144 0
-835 -145 0
-835 -146 0
-835 -147 0
-835 -148 0
-835 -152 0
-835 -153 0
-836 -103 0
-836 -104 0
-836 -105 0
-836 -106 0
-836 -107 0
-836 -108 0
-836 -109 0
-836 -110 0
-836 -111 0
-836 -112 0
-836 -113 0
-836 -114 0
-836 -115 0
-836 -119 0
-836 -120 0
-836 -121 0
-836 -122 0
-836 -123 0
-836 -124 0
-836 -125 0
-836 -126 0
-836 -127 0
-836 -128 0
-836 -129 0
-836 -130 0
-836 -131 0
-836 -132 0
-836 -136 0
-836 -137 0
-836 -138 0
-836 -139 0
-836 -140 0
-836 -141 0
-836 -142 0
-836 -143 0
-836 -144 0
-836 -145 0
-836 -146 0
-836 -147 0
-836 -148 0
-836 -149 0
-836 -153 0
-837 -103 0
-837 -104 0
-837 -105 0
-837 -106 0
-837 -107 0
-837 -108 0
-837 -109 0
-837 -110 0
-837 -111 0
-837 -112 0
-837 -113 0
-837 -114 0
-837 -115 0
-837 -116 0
-837 -120 0
-837 -121 0
-837 -122 0
-837 -123 0
-837 -124 0
-837 -125 0
-837 -126 0
-837 -127 0
-837 -128 0
-837 -129 0
-837 -130 0
-837 -131 0
-837 -132 0
-837 -133 0
-837 -137 0
-837 -138 0
-837 -139 0
-837 -140 0
-837 -141 0
-837 -142 0
-837 -143 0
-837 -144 0
-837 -145 0
-837 -146 0
-837 -147 0
-837 -148 0
-837 -149 0
-837 -150 0
-154 -171 0
-154 -188 0
-171 -188 0
-155 -172 0
-155 -189 0
-172 -189 0
-156 -173 0
-156 -190 0
-173 -190 0
-157 -174 0
-157 -191 0
-174 -191 0
-158 -175 0
-158 -192 0
-175 -192 0
-159 -176 0
-159 -193 0
-176 -193 0
-160 -177 0
-160 -194 0
-177 -194 0
-161 -178 0
-161 -195 0
-178 -195 0
-162 -179 0
-162 -196 0
-179 -196 0
-163 -180 0
-163 -197 0
-180 -197 0
-164 -181 0
-164 -198 0
-181 -198 0
-165 -182 0
-165 -199 0
-182 -199 0
-166 -183 0
-166 -200 0
-183 -200 0
-167 -184 0
-167 -201 0
-184 -201 0
-168 -185 0
-168 -202 0
-185 -202 0
-169 -186 0
-169 -203 0
-186 -203 0
-170 -187 0
-170 -204 0
-187 -204 0
838 839 840 841 842 843 844 845 846 847 848 849 850 851 852 0
-838 -839 0
-838 -840 0
-838 -841 0
-838 -842 0
-838 -843 0
-838 -844 0
-838 -845 0
-838 -846 0
-838 -847 0
-838 -848 0
-838 -849 0
-838 -850 0
-838 -851 0
-838 -852 0
-839 -840 0
-839 -841 0
-839 -842 0
-839 -843 0
-839 -844 0
-839 -845 0
-839 -846 0
-839 -847 0
-839 -848 0
-839 -849 0
-839 -850 0
-839 -851 0
-839 -852 0
-840 -841 0
-840 -842 0
-840 -843 0
-840 -844 0
-840 -845 0
-840 -846 0
-840 -847 0
-840 -848 0
-840 -849 0
-840 -850 0
-840 -851 0
-840 -852 0
-841 -842 0
-841 -843 0
-841 -844 0
-841 -845 0
-841 -846 0
-841 -847 0
-841 -848 0
-841 -849 0
-841 -850 0
-841 -851 0
-841 -852 0
-842 -843 0
-842 -844 0
-842 -845 0
-842 -846 0
-842 -847 0
-842 -848 0
-842 -849 0
-842 -850 0
-842 -851 0
-842 -852 0
-843 -844 0
-843 -845 0
-843 -846 0
-843 -847 0
-843 -848 0
-843 -849 0
-843 -850 0
-843 -851 0
-843 -852 0
-844 -845 0
-844 -846 0
-844 -847 0
-844 -848 0
-844 -849 0
-844 -850 0
-844 -851 0
-844 -852 0
-845 -846 0
-845 -847 0
-845 -848 0
-845 -849 0
-845 -850 0
-845 -851 0
-845 -852 0
-846 -847 0
-846 -848 0
-846 -849 0
-846 -850 0
-846 -851 0
-846 -852 0
-847 -848 0
-847 -849 0
-847 -850 0
-847 -851 0
-847 -852 0
-848 -849 0
-848 -850 0
-848 -851 0
-848 -852 0
-849 -850 0
-849 -851 0
-849 -852 0
-850 -851 0
-850 -852 0
-851 -852 0
-154 838 0
-155 838 839 0
-156 838 839 840 0
-157 839 840 841 0
-158 840 841 842 0
-159 841 842 843 0
-160 842 843 844 0
-161 843 844 845 0
-162 844 845 846 0
-163 845 846 847 0
-164 846 847 848 0
-165 847 848 849 0
-166 848 849 850 0
-167 849 850 851 0
-168 850 851 852 0
-169 851 852 0
-170 852 0
-171 838 0
-172 838 839 0
-173 838 839 840 0
-174 839 840 841 0
-175 840 841 842 0
-176 841 842 843 0
-177 842 843 844 0
-178 843 844 845 0
-179 844 845 846 0
-180 845 846 847 0
-181 846 847 848 0
-182 847 848 849 0
-183 848 849 850 0
-184 849 850 851 0
-185 850 851 852 0
-186 851 852 0
-187 852 0
-188 838 0
-189 838 839 0
-190 838 839 840 0
-191 839 840 841 0
-192 840 841 842 0
-193 841 842 843 0
-194 842 843 844 0
-195 843 844 845 0
-196 844 845 846 0
-197 845 846 847 0
-198 846 847 848 0
-199 847 848 849 0
-200 848 849 850 0
-201 849 850 851 0
-202 850 851 852 0
-203 851 852 0
-204 852 0
-838 -157 0
-838 -158 0
-838 -159 0
-838 -160 0
-838 -161 0
-838 -162 0
-838 -163 0
-838 -164 0
-838 -165 0
-838 -166 0
-838 -167 0
-838 -168 0
-838 -169 0
-838 -170 0
-838 -174 0
-838 -175 0
-838 -176 0
-838 -177 0
-838 -178 0
-838 -179 0
-838 -180 0
-838 -181 0
-838 -182 0
-838 -183 0
-838 -184 0
-838 -185 0
-838 -186 0
-838 -187 0
-838 -191 0
-838 -192 0
-838 -193 0
-838 -194 0
-838 -195 0
-838 -196 0
-838 -197 0
-838 -198 0
-838 -199 0
-838 -200 0
-838 -201 0
-838 -202 0
-838 -203 0
-838 -204 0
-839 -154 0
-839 -158 0
-839 -159 0
-839 -160 0
-839 -161 0
-839 -162 0
-839 -163 0
-839 -164 0
-839 -165 0
-839 -166 0
-839 -167 0
-839 -168 0
-839 -169 0
-839 -170 0
-839 -171 0
-839 -175 0
-839 -176 0
-839 -177 0
-839 -178 0
-839 -179 0
-839 -180 0
-839 -181 0
-839 -182 0
-839 -183 0
-839 -184 0
-839 -185 0
-839 -186 0
-839 -187 0
-839 -188 0
-839 -192 0
-839 -193 0
-839 -194 0
-839 -195 0
-839 -196 0
-839 -197 0
-839 -198 0
-839 -199 0
-839 -200 0
-839 -201 0
-839 -202 0
-839 -203 0
-839 -204 0
-840 -154 0
-840 -155 0
-840 -159 0
-840 -160 0
-840 -161 0
-840 -162 0
-840 -163 0
-840 -164 0
-840 -165 0
-840 -166 0
-840 -167 0
-840 -168 0
-840 -169 0
-840 -170 0
-840 -171 0
-840 -172 0
-840 -176 0
-840 -177 0
-840 -178 0
-840 -179 0
-840 -180 0
-840 -181 0
-840 -182 0
-840 -183 0
-840 -184 0
-840 -185 0
-840 -186 0
-840 -187 0
-840 -188 0
-840 -189 0
-840 -193 0
-840 -194 0
-840 -195 0
-840 -196 0
-840 -197 0
-840 -198 0
-840 -199 0
-840 -200 0
-840 -201 0
-840 -202 0
-840 -203 0
-840 -204 0
-841 -154 0
-841 -155 0
-841 -156 0
-841 -160 0
-841 -161 0
-841 -162 0
-841 -163 0
-841 -164 0
-841 -165 0
-841 -166 0
-841 -167 0
-841 -168 0
-841 -169 0
-841 -170 0
-841 -171 0
-841 -172 0
-841 -173 0
-841 -177 0
-841 -178 0
-841 -179 0
-841 -180 0
-841 -181 0
-841 -182 0
-841 -183 0
-841 -184 0
-841 -185 0
-841 -186 0
-841 -187 0
-841 -188 0
-841 -189 0
-841 -190 0
-841 -194 0
-841 -195 0
-841 -196 0
-841 -197 0
-841 -198 0
-841 -199 0
-841 -200 0
-841 -201 0
-841 -202 0
-841 -203 0
-841 -204 0
-842 -154 0
-842 -155 0
-842 -156 0
-842 -157 0
-842 -161 0
-842 -162 0
-842 -163 0
-842 -164 0
-842 -165 0
-842 -166 0
-842 -167 0
-842 -168 0
-842 -169 0
-842 -170 0
-842 -171 0
-842 -172 0
-842 -173 0
-842 -174 0
-842 -178 0
-842 -179 0
-842 -180 0
-842 -181 0
-842 -182 0
-842 -183 0
-842 -184 0
-842 -185 0
-842 -186 0
-842 -187 0
-842 -188 0
-842 -189 0
-842 -190 0
-842 -191 0
-842 -195 0
-842 -196 0
-842 -197 0
-842 -198 0
-842 -199 0
-842 -200 0
-842 -201 0
-842 -202 0
-842 -203 0
-842 -204 0
-843 -154 0
-843 -155 0
-843 -156 0
-843 -157 0
-843 -158 0
-843 -162 0
-843 -163 0
-843 -164 0
-843 -165 0
-843 -166 0
-843 -167 0
-843 -168 0
-843 -169 0
-843 -170 0
-843 -171 0
-843 -172 0
-843 -173 0
-843 -174 0
-843 -175 0
-843 -179 0
-843 -180 0
-843 -181 0
-843 -182 0
-843 -183 0
-843 -184 0
-843 -185 0
-843 -186 0
-843 -187 0
-843 -188 0
-843 -189 0
-843 -190 0
-843 -191 0
-843 -192 0
-843 -196 0
-843 -197 0
-843 -198 0
-843 -199 0
-843 -200 0
-843 -201 0
-843 -202 0
-843 -203 0
-843 -204 0
-844 -154 0
-844 -155 0
-844 -156 0
-844 -157 0
-844 -158 0
-844 -159 0
-844 -163 0
-844 -164 0
-844 -165 0
-844 -166 0
-844 -167 0
-844 -168 0
-844 -169 0
-844 -170 0
-844 -171 0
-844 -172 0
-844 -173 0
-844 -174 0
-844 -175 0
-844 -176 0
-844 -180 0
-844 -181 0
-844 -182 0
-844 -183 0
-844 -184 0
-844 -185 0
-844 -186 0
-844 -187 0
-844 -188 0
-844 -189 0
-844 -190 0
-844 -191 0
-844 -192 0
-844 -193 0
-844 -197 0
-844 -198 0
-844 -199 0
-844 -200 0
-844 -201 0
-844 -202 0
-844 -203 0
-844 -204 0
-845 -154 0
-845 -155 0
-845 -156 0
-845 -157 0
-845 -158 0
-845 -159 0
-845 -160 0
-845 -164 0
-845 -165 0
-845 -166 0
-845 -167 0
-845 -168 0
-845 -169 0
-845 -170 0
-845 -171 0
-845 -172 0
-845 -173 0
-845 -174 0
-845 -175 0
-845 -176 0
-845 -177 0
-845 -181 0
-845 -182 0
-845 -183 0
-845 -184 0
-845 -185 0
-845 -186 0
-845 -187 0
-845 -188 0
-845 -189 0
-845 -190 0
-845 -191 0
-845 -192 0
-845 -193 0
-845 -194 0
-845 -198 0
-845 -199 0
-845 -200 0
-845 -201 0
-845 -202 0
-845 -203 0
-845 -204 0
-846 -154 0
-846 -155 0
-846 -156 0
-846 -157 0
-846 -158 0
-846 -159 0
-846 -160 0
-846 -161 0
-846 -165 0
-846 -166 0
-846 -167 0
-846 -168 0
-846 -169 0
-846 -170 0
-846 -171 0
-846 -172 0
-846 -173 0
-846 -174 0
-846 -175 0
-846 -176 0
-846 -177 0
-846 -178 0
-846 -182 0
-846 -183 0
-846 -184 0
-846 -185 0
-846 -186 0
-846 -187 0
-846 -188 0
-846 -189 0
-846 -190 0
-846 -191 0
-846 -192 0
-846 -193 0
-846 -194 0
-846 -195 0
-846 -199 0
-846 -200 0
-846 -201 0
-846 -202 0
-846 -203 0
-846 -204 0
-847 -154 0
-847 -155 0
-847 -156 0
-847 -157 0
-847 -158 0
-847 -159 0
-847 -160 0
-847 -161 0
-847 -162 0
-847 -166 0
-847 -167 0
-847 -168 0
-847 -169 0
-847 -170 0
-847 -171 0
-847 -172 0
-847 -173 0
-847 -174 0
-847 -175 0
-847 -176 0
-847 -177 0
-847 -178 0
-847 -179 0
-847 -183 0
-847 -184 0
-847 -185 0
-847 -186 0
-847 -187 0
-847 -188 0
-847 -189 0
-847 -190 0
-847 -191 0
-847 -192 0
-847 -193 0
-847 -194 0
-847 -195 0
-847 -196 0
-847 -200 0
-847 -201 0
-847 -202 0
-847 -203 0
-847 -204 0
-848 -154 0
-848 -155 0
-848 -156 0
-848 -157 0
-848 -158 0
-848 -159 0
-848 -160 0
-848 -161 0
-848 -162 0
-848 -163 0
-848 -167 0
-848 -168 0
-848 -169 0
-848 -170 0
-848 -171 0
-848 -172 0
-848 -173 0
-848 -174 0
-848 -175 0
-848 -176 0
-848 -177 0
-848 -178 0
-848 -179 0
-848 -180 0
-848 -184 0
-848 -185 0
-848 -186 0
-848 -187 0
-848 -188 0
-848 -189 0
-848 -190 0
-848 -191 0
-848 -192 0
-848 -193 0
-848 -194 0
-848 -195 0
-848 -196 0
-848 -197 0
-848 -201 0
-848 -202 0
-848 -203 0
-848 -204 0
-849 -154 0
-849 -155 0
-849 -156 0
-849 -157 0
-849 -158 0
-849 -159 0
-849 -160 0
-849 -161 0
-849 -162 0
-849 -163 0
-849 -164 0
-849 -168 0
-849 -169 0
-849 -170 0
-849 -171 0
-849 -172 0
-849 -173 0
-849 -174 0
-849 -175 0
-849 -176 0
-849 -177 0
-849 -178 0
-849 -179 0
-849 -180 0
-849 -181 0
-849 -185 0
-849 -186 0
-849 -187 0
-849 -188 0
-849 -189 0
-849 -190 0
-849 -191 0
-849 -192 0
-849 -193 0
-849 -194 0
-849 -195 0
-849 -196 0
-849 -197 0
-849 -198 0
-849 -202 0
-849 -203 0
-849 -204 0
-850 -154 0
-850 -155 0
-850 -156 0
-850 -157 0
-850 -158 0
-850 -159 0
-850 -160 0
-850 -161 0
-850 -162 0
-850 -163 0
-850 -164 0
-850 -165 0
-850 -169 0
-850 -170 0
-850 -171 0
-850 -172 0
-850 -173 0
-850 -174 0
-850 -175 0
-850 -176 0
-850 -177 0
-850 -178 0
-850 -179 0
-850 -180 0
-850 -181 0
-850 -182 0
-850 -186 0
-850 -187 0
-850 -188 0
-850 -189 0
-850 -190 0
-850 -191 0
-850 -192 0
-850 -193 0
-850 -194 0
-850 -195 0
-850 -196 0
-850 -197 0
-850 -198 0
-850 -199 0
-850 -203 0
-850 -204 0
-851 -154 0
-851 -155 0
-851 -156 0
-851 -157 0
-851 -158 0
-851 -159 0
-851 -160 0
-851 -161 0
-851 -162 0
-851 -163 0
-851 -164 0
-851 -165 0
-851 -166 0
-851 -170 0
-851 -171 0
-851 -172 0
-851 -173 0
-851 -174 0
-851 -175 0
-851 -176 0
-851 -177 0
-851 -178 0
-851 -179 0
-851 -180 0
-851 -181 0
-851 -182 0
-851 -183 0
-851 -187 0
-851 -188 0
-851 -189 0
-851 -190 0
-851 -191 0
-851 -192 0
-851 -193 0
-851 -194 0
-851 -195 0
-851 -196 0
-851 -197 0
-851 -198 0
-851 -199 0
-851 -200 0
-851 -204 0
-852 -154 0
-852 -155 0
-852 -156 0
-852 -157 0
-852 -158 0
-852 -159 0
-852 -160 0
-852 -161 0
-852 -162 0
-852 -163 0
-852 -164 0
-852 -165 0
-852 -166 0
-852 -167 0
-852 -171 0
-852 -172 0
-852 -173 0
-852 -174 0
-852 -175 0
-852 -176 0
-852 -177 0
-852 -178 0
-852 -179 0
-852 -180 0
-852 -181 0
-852 -182 0
-852 -183 0
-852 -184 0
-852 -188 0
-852 -189 0
-852 -190 0
-852 -191 0
-852 -192 0
-852 -193 0
-852 -194 0
-852 -195 0
-852 -196 0
-852 -197 0
-852 -198 0
-852 -199 0
-852 -200 0
-852 -201 0
-205 -222 0
-205 -239 0
-222 -239 0
-206 -223 0
-206 -240 0
-223 -240 0
-207 -224 0
-207 -241 0
-224 -241 0
-208 -225 0
-208 -242 0
-225 -242 0
-209 -226 0
-209 -243 0
-226 -243 0
-210 -227 0
-210 -244 0
-227 -244 0
-211 -228 0
-211 -245 0
-228 -245 0
-212 -229 0
-212 -246 0
-229 -246 0
-213 -230 0
-213 -247 0
-230 -247 0
-214 -231 0
-214 -248 0
-231 -248 0
-215 -232 0
-215 -249 0
-232 -249 0
-216 -233 0
-216 -250 0
-233 -250 0
-217 -234 0
-217 -251 0
-234 -251 0
-218 -235 0
-218 -252 0
-235 -252 0
-219 -236 0
-219 -253 0
-236 -253 0
-220 -237 0
-220 -254 0
-237 -254 0
-221 -238 0
-221 -255 0
-238 -255 0
853 854 855 856 857 858 859 860 861 862 863 864 865 866 867 0
-853 -854 0
-853 -855 0
-853 -856 0
-853 -857 0
-853 -858 0
-853 -859 0
-853 -860 0
-853 -861 0
-853 -862 0
-853 -863 0
-853 -864 0
-853 -865 0
-853 -866 0
-853 -867 0
-854 -855 0
-854 -856 0
-854 -857 0
-854 -858 0
-854 -859 0
-854 -860 0
-854 -861 0
-854 -862 0
-854 -863 0
-854 -864 0
-854 -865 0
-854 -866 0
-854 -867 0
-855 -856 0
-855 -857 0
-855 -858 0
-855 -859 0
-855 -860 0
-855 -861 0
-855 -862 0
-855 -863 0
-855 -864 0
-855 -865 0
-855 -866 0
-855 -867 0
-856 -857 0
-856 -858 0
-856 -859 0
-856 -860 0
-856 -861 0
-856 -862 0
-856 -863 0
-856 -864 0
-856 -865 0
-856 -866 0
-856 -867 0
-857 -858 0
-857 -859 0
-857 -860 0
-857 -861 0
-857 -862 0
-857 -863 0
-857 -864 0
-857 -865 0
-857 -866 0
-857 -867 0
-858 -859 0
-858 -860 0
-858 -861 0
-858 -862 0
-858 -863 0
-858 -864 0
-858 -865 0
-858 -866 0
-858 -867 0
-859 -860 0
-859 -861 0
-859 -862 0
-859 -863 0
-859 -864 0
-859 -865 0
-859 -866 0
-859 -867 0
-860 -861 0
-860 -862 0
-860 -863 0
-860 -864 0
-860 -865 0
-860 -866 0
-860 -867 0
-861 -862 0
-861 -863 0
-861 -864 0
-861 -865 0
-861 -866 0
-861 -867 0
-862 -863 0
-862 -864 0
-862 -865 0
-862 -866 0
-862 -867 0
-863 -864 0
-863 -865 0
-863 -866 0
-863 -867 0
-864 -865 0
-864 -866 0
-864 -867 0
-865 -866 0
-865 -867 0
-866 -867 0
-205 853 0
-206 853 854 0
-207 853 854 855 0
-208 854 855 856 0
-209 855 856 857 0
-210 856 857 858 0
-211 857 858 859 0
-212 858 859 860 0
-213 859 860 861 0
-214 860 861 862 0
-215 861 862 863 0
-216 862 863 864 0
-217 863 864 865 0
-218 864 865 866 0
-219 865 866 867 0
-220 866 867 0
-221 867 0
-222 853 0
-223 853 854 0
-224 853 854 855 0
-225 854 855 856 0
-226 855 856 857 0
-227 856 857 858 0
-228 857 858 859 0
-229 858 859 860 0
-230 859 860 861 0
-231 860 861 862 0
-232 861 862 863 0
-233 862 863 864 0
-234 863 864 865 0
-235 864 865 866 0
-236 865 866 867 0
-237 866 867 0
-238 867 0
-239 853 0
-240 853 854 0
-241 853 854 855 0
-242 854 855 856 0
-243 855 856 857 0
-244 856 857 858 0
-245 857 858 859 0
-246 858 859 860 0
-247 859 860 861 0
-248 860 861 862 0
-249 861 862 863 0
-250 862 863 864 0
-251 863 864 865 0
-252 864 865 866 0
-253 865 866 867 0
-254 866 867 0
-255 867 0
-853 -208 0
-853 -209 0
-853 -210 0
-853 -211 0
-853 -212 0
-853 -213 0
-853 -214 0
-853 -215 0
-853 -216 0
-853 -217 0
-853 -218 0
-853 -219 0
-853 -220 0
-853 -221 0
-853 -225 0
-853 -226 0
-853 -227 0
-853 -228 0
-853 -229 0
-853 -230 0
-853 -231 0
-853 -232 0
-853 -233 0
-853 -234 0
-853 -235 0
-853 -236 0
-853 -237 0
-853 -238 0
-853 -242 0
-853 -243 0
-853 -244 0
-853 -245 0
-853 -246 0
-853 -247 0
-853 -248 0
-853 -249 0
-853 -250 0
-853 -251 0
-853 -252 0
-853 -253 0
-853 -254 0
-853 -255 0
-854 -205 0
-854 -209 0
-854 -210 0
-854 -211 0
-854 -212 0
-854 -213 0
-854 -214 0
-854 -215 0
-854 -216 0
-854 -217 0
-854 -218 0
-854 -219 0
-854 -220 0
-854 -221 0
-854 -222 0
-854 -226 0
-854 -227 0
-854 -228 0
-854 -229 0
-854 -230 0
-854 -231 0
-854 -232 0
-854 -233 0
-854 -234 0
-854 -235 0
-854 -236 0
-854 -237 0
-854 -238 0
-854 -239 0
-854 -243 0
-854 -244 0
-854 -245 0
-854 -246 0
-854 -247 0
-854 -248 0
-854 -249 0
-854 -250 0
-854 -251 0
-854 -252 0
-854 -253 0
-854 -254 0
-854 -255 0
-855 -205 0
-855 -206 0
-855 -210 0
-855 -211 0
-855 -212 0
-855 -213 0
-855 -214 0
-855 -215 0
-855 -216 0
-855 -217 0
-855 -218 0
-855 -219 0
-855 -220 0
-855 -221 0
-855 -222 0
-855 -223 0
-855 -227 0
-855 -228 0
-855 -229 0
-855 -230 0
-855 -231 0
-855 -232 0
-855 -233 0
-855 -234 0
-855 -235 0
-855 -236 0
-855 -237 0
-855 -238 0
-855 -239 0
-855 -240 0
-855 -244 0
-855 -245 0
-855 -246 0
-855 -247 0
-855 -248 0
-855 -249 0
-855 -250 0
-855 -251 0
-855 -252 0
-855 -253 0
-855 -254 0
-855 -255 0
-856 -205 0
-856 -206 0
-856 -207 0
-856 -211 0
-856 -212 0
-856 -213 0
-856 -214 0
-856 -215 0
-856 -216 0
-856 -217 0
-856 -218 0
-856 -219 0
-856 -220 0
-856 -221 0
-856 -222 0
-856 -223 0
-856 -224 0
-856 -228 0
-856 -229 0
-856 -230 0
-856 -231 0
-856 -232 0
-856 -233 0
-856 -234 0
-856 -235 0
-856 -236 0
-856 -237 0
-856 -238 0
-856 -239 0
-856 -240 0
-856 -241 0
-856 -245 0
-856 -246 0
-856 -247 0
-856 -248 0
-856 -249 0
-856 -250 0
-856 -251 0
-856 -252 0
-856 -253 0
-856 -254 0
-856 -255 0
-857 -205 0
-857 -206 0
-857 -207 0
-857 -208 0
-857 -212 0
-857 -213 0
-857 -214 0
-857 -215 0
-857 -216 0
-857 -217 0
-857 -218 0
-857 -219 0
-857 -220 0
-857 -221 0
-857 -222 0
-857 -223 0
-857 -224 0
-857 -225 0
-857 -229 0
-857 -230 0
-857 -231 0
-857 -232 0
-857 -233 0
-857 -234 0
-857 -235 0
-857 -236 0
-857 -237 0
-857 -238 0
-857 -239 0
-857 -240 0
-857 -241 0
-857 -242 0
-857 -246 0
-857 -247 0
-857 -248 0
-857 -249 0
-857 -250 0
-857 -251 0
-857 -252 0
-857 -253 0
-857 -254 0
-857 -255 0
-858 -205 0
-858 -206 0
-858 -207 0
-858 -208 0
-858 -209 0
-858 -213 0
-858 -214 0
-858 -215 0
-858 -216 0
-858 -217 0
-858 -218 0
-858 -219 0
-858 -220 0
-858 -221 0
-858 -222 0
-858 -223 0
-858 -224 0
-858 -225 0
-858 -226 0
-858 -230 0
-858 -231 0
-858 -232 0
-858 -233 0
-858 -234 0
-858 -235 0
-858 -236 0
-858 -237 0
-858 -238 0
-858 -239 0
-858 -240 0
-858 -241 0
-858 -242 0
-858 -243 0
-858 -247 0
-858 -248 0
-858 -249 0
-858 -250 0
-858 -251 0
-858 -252 0
-858 -253 0
-858 -254 0
-858 -255 0
-859 -205 0
-859 -206 0
-859 -207 0
-859 -208 0
-859 -209 0
-859 -210 0
-859 -214 0
-859 -215 0
-859 -216 0
-859 -217 0
-859 -218 0
-859 -219 0
-859 -220 0
-859 -221 0
-859 -222 0
-859 -223 0
-859 -224 0
-859 -225 0
-859 -226 0
-859 -227 0
-859 -231 0
-859 -232 0
-859 -233 0
-859 -234 0
-859 -235 0
-859 -236 0
-859 -237 0
-859 -238 0
-859 -239 0
-859 -240 0
-859 -241 0
-859 -242 0
-859 -243 0
-859 -244 0
-859 -248 0
-859 -249 0
-859 -250 0
-859 -251 0
-859 -252 0
-859 -253 0
-859 -254 0
-859 -255 0
-860 -205 0
-860 -206 0
-860 -207 0
-860 -208 0
-860 -209 0
-860 -210 0
-860 -211 0
-860 -215 0
-860 -216 0
-860 -217 0
-860 -218 0
-860 -219 0
-860 -220 0
-860 -221 0
-860 -222 0
-860 -223 0
-860 -224 0
-860 -225 0
-860 -226 0
-860 -227 0
-860 -228 0
-860 -232 0
-860 -233 0
-860 -234 0
-860 -235 0
-860 -236 0
-860 -237 0
-860 -238 0
-860 -239 0
-860 -240 0
-860 -241 0
-860 -242 0
-860 -243 0
-860 -244 0
-860 -245 0
-860 -249 0
-860 -250 0
-860 -251 0
-860 -252 0
-860 -253 0
-860 -254 0
-860 -255 0
-861 -205 0
-861 -206 0
-861 -207 0
-861 -208 0
-861 -209 0
-861 -210 0
-861 -211 0
-861 -212 0
-861 -216 0
-861 -217 0
-861 -218 0
-861 -219 0
-861 -220 0
-861 -221 0
-861 -222 0
-861 -223 0
-861 -224 0
-861 -225 0
-861 -226 0
-861 -227 0
-861 -228 0
-861 -229 0
-861 -233 0
-861 -234 0
-861 -235 0
-861 -236 0
-861 -237 0
-861 -238 0
-861 -239 0
-861 -240 0
-861 -241 0
-861 -242 0
-861 -243 0
-861 -244 0
-861 -245 0
-861 -246 0
-861 -250 0
-861 -251 0
-861 -252 0
-861 -253 0
-861 -254 0
-861 -255 0
-862 -205 0
-862 -206 0
-862 -207 0
-862 -208 0
-862 -209 0
-862 -210 0
-862 -211 0
-862 -212 0
-862 -213 0
-862 -217 0
-862 -218 0
-862 -219 0
-862 -220 0
-862 -221 0
-862 -222 0
-862 -223 0
-862 -224 0
-862 -225 0
-862 -226 0
-862 -227 0
-862 -228 0
-862 -229 0
-862 -230 0
-862 -234 0
-862 -235 0
-862 -236 0
-862 -237 0
-862 -238 0
-862 -239 0
-862 -240 0
-862 -241 0
-862 -242 0
-862 -243 0
-862 -244 0
-862 -245 0
-862 -246 0
-862 -247 0
-862 -251 0
-862 -252 0
-862 -253 0
-862 -254 0
-862 -255 0
-863 -205 0
-863 -206 0
-863 -207 0
-863 -208 0
-863 -209 0
-863 -210 0
-863 -211 0
-863 -212 0
-863 -213 0
-863 -214 0
-863 -218 0
-863 -219 0
-863 -220 0
-863 -221 0
-863 -222 0
-863 -223 0
-863 -224 0
-863 -225 0
-863 -226 0
-863 -227 0
-863 -228 0
-863 -229 0
-863 -230 0
-863 -231 0
-863 -235 0
-863 -236 0
-863 -237 0
-863 -238 0
-863 -239 0
-863 -240 0
-863 -241 0
-863 -242 0
-863 -243 0
-863 -244 0
-863 -245 0
-863 -246 0
-863 -247 0
-863 -248 0
-863 -252 0
-863 -253 0
-863 -254 0
-863 -255 0
-864 -205 0
-864 -206 0
-864 -207 0
-864 -208 0
-864 -209 0
-864 -210 0
-864 -211 0
-864 -212 0
-864 -213 0
-864 -214 0
-864 -215 0
-864 -219 0
-864 -220 0
-864 -221 0
-864 -222 0
-864 -223 0
-864 -224 0
-864 -225 0
-864 -226 0
-864 -227 0
-864 -228 0
-864 -229 0
-864 -230 0
-864 -231 0
-864 -232 0
-864 -236 0
-864 -237 0
-864 -238 0
-864 -239 0
-864 -240 0
-864 -241 0
-864 -242 0
-864 -243 0
-864 -244 0
-864 -245 0
-864 -246 0
-864 -247 0
-864 -248 0
-864 -249 0
-864 -253 0
-864 -254 0
-864 -255 0
-865 -205 0
-865 -206 0
-865 -207 0
-865 -208 0
-865 -209 0
-865 -210 0
-865 -211 0
-865 -212 0
-865 -213 0
-865 -214 0
-865 -215 0
-865 -216 0
-865 -220 0
-865 -221 0
-865 -222 0
-865 -223 0
-865 -224 0
-865 -225 0
-865 -226 0
-865 -227 0
-865 -228 0
-865 -229 0
-865 -230 0
-865 -231 0
-865 -232 0
-865 -233 0
-865 -237 0
-865 -238 0
-865 -239 0
-865 -240 0
-865 -241 0
-865 -242 0
-865 -243 0
-865 -244 0
-865 -245 0
-865 -246 0
-865 -247 0
-865 -248 0
-865 -249 0
-865 -250 0
-865 -254 0
-865 -255 0
-866 -205 0
-866 -206 0
-866 -207 0
-866 -208 0
-866 -209 0
-866 -210 0
-866 -211 0
-866 -212 0
-866 -213 0
-866 -214 0
-866 -215 0
-866 -216 0
-866 -217 0
-866 -221 0
-866 -222 0
-866 -223 0
-866 -224 0
-866 -225 0
-866 -226 0
-866 -227 0
-866 -228 0
-866 -229 0
-866 -230 0
-866 -231 0
-866 -232 0
-866 -233 0
-866 -234 0
-866 -238 0
-866 -239 0
-866 -240 0
-866 -241 0
-866 -242 0
-866 -243 0
-866 -244 0
-866 -245 0
-866 -246 0
-866 -247 0
-866 -248 0
-866 -249 0
-866 -250 0
-866 -251 0
-866 -255 0
-867 -205 0
-867 -206 0
-867 -207 0
-867 -208 0
-867 -209 0
-867 -210 0
-867 -211 0
-867 -212 0
-867 -213 0
-867 -214 0
-867 -215 0
-867 -216 0
-867 -217 0
-867 -218 0
-867 -222 0
-867 -223 0
-867 -224 0
-867 -225 0
-867 -226 0
-867 -227 0
-867 -228 0
-867 -229 0
-867 -230 0
-867 -231 0
-867 -232 0
-867 -233 0
-867 -234 0
-867 -235 0
-867 -239 0
-867 -240 0
-867 -241 0
-867 -242 0
-867 -243 0
-867 -244 0
-867 -245 0
-867 -246 0
-867 -247 0
-867 -248 0
-867 -249 0
-867 -250 0
-867 -251 0
-867 -252 0
-256 -273 0
-256 -290 0
-273 -290 0
-257 -274 0
-257 -291 0
-274 -291 0
-258 -275 0
-258 -292 0
-275 -292 0
-259 -276 0
-259 -293 0
-276 -293 0
-260 -277 0
-260 -294 0
-277 -294 0
-261 -278 0
-261 -295 0
-278 -295 0
-262 -279 0
-262 -296 0
-279 -296 0
-263 -280 0
-263 -297 0
-280 -297 0
-264 -281 0
-264 -298 0
-281 -298 0
-265 -282 0
-265 -299 0
-282 -299 0
-266 -283 0
-266 -300 0
-283 -300 0
-267 -284 0
-267 -301 0
-284 -301 0
-268 -285 0
-268 -302 0
-285 -302 0
-269 -286 0
-269 -303 0
-286 -303 0
-270 -287 0
-270 -304 0
-287 -304 0
-271 -288 0
-271 -305 0
-288 -305 0
-272 -289 0
-272 -306 0
-289 -306 0
868 869 870 871 872 873 874 875 876 877 878 879 880 881 882 0
-868 -869 0
-868 -870 0
-868 -871 0
-868 -872 0
-868 -873 0
-868 -874 0
-868 -875 0
-868 -876 0
-868 -877 0
-868 -878 0
-868 -879 0
-868 -880 0
-868 -881 0
-868 -882 0
-869 -870 0
-869 -871 0
-869 -872 0
-869 -873 0
-869 -874 0
-869 -875 0
-869 -876 0
-869 -877 0
-869 -878 0
-869 -879 0
-869 -880 0
-869 -881 0
-869 -882 0
-870 -871 0
-870 -872 0
-870 -873 0
-870 -874 0
-870 -875 0
-870 -876 0
-870 -877 0
-870 -878 0
-870 -879 0
-870 -880 0
-870 -881 0
-870 -882 0
-871 -872 0
-871 -873 0
-871 -874 0
-871 -875 0
-871 -876 0
-871 -877 0
-871 -878 0
-871 -879 0
-871 -880 0
-871 -881 0
-871 -882 0
-872 -873 0
-872 -874 0
-872 -875 0
-872 -876 0
-872 -877 0
-872 -878 0
-872 -879 0
-872 -880 0
-872 -881 0
-872 -882 0
-873 -874 0
-873 -875 0
-873 -876 0
-873 -877 0
-873 -878 0
-873 -879 0
-873 -880 0
-873 -881 0
-873 -882 0
-874 -875 0
-874 -876 0
-874 -877 0
-874 -878 0
-874 -879 0
-874 -880 0
-874 -881 0
-874 -882 0
-875 -876 0
-875 -877 0
-875 -878 0
-875 -879 0
-875 -880 0
-875 -881 0
-875 -882 0
-876 -877 0
-876 -878 0
-876 -879 0
-876 -880 0
-876 -881 0
-876 -882 0
-877 -878 0
-877 -879 0
-877 -880 0
-877 -881 0
-877 -882 0
-878 -879 0
-878 -880 0
-878 -881 0
-878 -882 0
-879 -880 0
-879 -881 0
-879 -882 0
-880 -881 0
-880 -882 0
-881 -882 0
-256 868 0
-257 868 869 0
-258 868 869 870 0
-259 869 870 871 0
-260 870 871 872 0
-261 871 872 873 0
-262 872 873 874 0
-263 873 874 875 0
-264 874 875 876 0
-265 875 876 877 0
-266 876 877 878 0
-267 877 878 879 0
-268 878 879 880 0
-269 879 880 881 0
-270 880 881 882 0
-271 881 882 0
-272 882 0
-273 868 0
-274 868 869 0
-275 868 869 870 0
-276 869 870 871 0
-277 870 871 872 0
-278 871 872 873 0
-279 872 873 874 0
-280 873 874 875 0
-281 874 875 876 0
-282 875 876 877 0
-283 876 877 878 0
-284 877 878 879 0
-285 878 879 880 0
-286 879 880 881 0
-287 880 881 882 0
-288 881 882 0
-289 882 0
-290 868 0
-291 868 869 0
-292 868 869 870 0
-293 869 870 871 0
-294 870 871 872 0
-295 871 872 873 0
-296 872 873 874 0
-297 873 874 875 0
-298 874 875 876 0
-299 875 876 877 0
-300 876 877 878 0
-301 877 878 879 0
-302 878 879 880 0
-303 879 880 881 0
-304 880 881 882 0
-305 881 882 0
-306 882 0
-868 -259 0
-868 -260 0
-868 -261 0
-868 -262 0
-868 -263 0
-868 -264 0
-868 -265 0
-868 -266 0
-868 -267 0
-868 -268 0
-868 -269 0
-868 -270 0
-868 -271 0
-868 -272 0
-868 -276 0
-868 -277 0
-868 -278 0
-868 -279 0
-868 -280 0
-868 -281 0
-868 -282 0
-868 -283 0
-868 -284 0
-868 -285 0
-868 -286 0
-868 -287 0
-868 -288 0
-868 -289 0
-868 -293 0
-868 -294 0
-868 -295 0
-868 -296 0
-868 -297 0
-868 -298 0
-868 -299 0
-868 -300 0
-868 -301 0
-868 -302 0
-868 -303 0
-868 -304 0
-868 -305 0
-868 -306 0
-869 -256 0
-869 -260 0
-869 -261 0
-869 -262 0
-869 -263 0
-869 -264 0
-869 -265 0
-869 -266 0
-869 -267 0
-869 -268 0
-869 -269 0
-869 -270 0
-869 -271 0
-869 -272 0
-869 -273 0
-869 -277 0
-869 -278 0
-869 -279 0
-869 -280 0
-869 -281 0
-869 -282 0
-869 -283 0
-869 -284 0
-869 -285 0
-869 -286 0
-869 -287 0
-869 -288 0
-869 -289 0
-869 -290 0
-869 -294 0
-869 -295 0
-869 -296 0
-869 -297 0
-869 -298 0
-869 -299 0
-869 -300 0
-869 -301 0
-869 -302 0
-869 -303 0
-869 -304 0
-869 -305 0
-869 -306 0
-870 -256 0
-870 -257 0
-870 -261 0
-870 -262 0
-870 -263 0
-870 -264 0
-870 -265 0
-870 -266 0
-870 -267 0
-870 -268 0
-870 -269 0
-870 -270 0
-870 -271 0
-870 -272 0
-870 -273 0
-870 -274 0
-870 -278 0
-870 -279 0
-870 -280 0
-870 -281 0
-870 -282 0
-870 -283 0
-870 -284 0
-870 -285 0
-870 -286 0
-870 -287 0
-870 -288 0
-870 -289 0
-870 -290 0
-870 -291 0
-870 -295 0
-870 -296 0
-870 -297 0
-870 -298 0
-870 -299 0
-870 -300 0
-870 -301 0
-870 -302 0
-870 -303 0
-870 -304 0
-870 -305 0
-870 -306 0
-871 -256 0
-871 -257 0
-871 -258 0
-871 -262 0
-871 -263 0
-871 -264 0
-871 -265 0
-871 -266 0
-871 -267 0
-871 -268 0
-871 -269 0
-871 -270 0
-871 -271 0
-871 -272 0
-871 -273 0
-871 -274 0
-871 -275 0
-871 -279 0
-871 -280 0
-871 -281 0
-871 -282 0
-871 -283 0
-871 -284 0
-871 -285 0
-871 -286 0
-871 -287 0
-871 -288 0
-871 -289 0
-871 -290 0
-871 -291 0
-871 -292 0
-871 -296 0
-871 -297 0
-871 -298 0
-871 -299 0
-871 -300 0
-871 -301 0
-871 -302 0
-871 -303 0
-871 -304 0
-871 -305 0
-871 -306 0
-872 -256 0
-872 -257 0
-872 -258 0
-872 -259 0
-872 -263 0
-872 -264 0
-872 -265 0
-872 -266 0
-872 -267 0
-872 -268 0
-872 -269 0
-872 -270 0
-872 -271 0
-872 -272 0
-872 -273 0
-872 -274 0
-872 -275 0
-872 -276 0
-872 -280 0
-872 -281 0
-872 -282 0
-872 -283 0
-872 -284 0
-872 -285 0
-872 -286 0
-872 -287 0
-872 -288 0
-872 -289 0
-872 -290 0
-872 -291 0
-872 -292 0
-872 -293 0
-872 -297 0
-872 -298 0
-872 -299 0
-872 -300 0
-872 -301 0
-872 -302 0
-872 -303 0
-872 -304 0
-872 -305 0
-872 -306 0
-873 -256 0
-873 -257 0
-873 -258 0
-873 -259 0
-873 -260 0
-873 -264 0
-873 -265 0
-873 -266 0
-873 -267 0
-873 -268 0
-873 -269 0
-873 -270 0
-873 -271 0
-873 -272 0
-873 -273 0
-873 -274 0
-873 -275 0
-873 -276 0
-873 -277 0
-873 -281 0
-873 -282 0
-873 -283 0
-873 -284 0
-873 -285 0
-873 -286 0
-873 -287 0
-873 -288 0
-873 -289 0
-873 -290 0
-873 -291 0
-873 -292 0
-873 -293 0
-873 -294 0
-873 -298 0
-873 -299 0
-873 -300 0
-873 -301 0
-873 -302 0
-873 -303 0
-873 -304 0
-873 -305 0
-873 -306 0
-874 -256 0
-874 -257 0
-874 -258 0
-874 -259 0
-874 -260 0
-874 -261 0
-874 -265 0
-874 -266 0
-874 -267 0
-874 -268 0
-874 -269 0
-874 -270 0
-874 -271 0
-874 -272 0
-874 -273 0
-874 -274 0
-874 -275 0
-874 -276 0
-874 -277 0
-874 -278 0
-874 -282 0
-874 -283 0
-874 -284 0
-874 -285 0
-874 -286 0
-874 -287 0
-874 -288 0
-874 -289 0
-874 -290 0
-874 -291 0
-874 -292 0
-874 -293 0
-874 -294 0
-874 -295 0
-874 -299 0
-874 -300 0
-874 -301 0
-874 -302 0
-874 -303 0
-874 -304 0
-874 -305 0
-874 -306 0
-875 -256 0
-875 -257 0
-875 -258 0
-875 -259 0
-875 -260 0
-875 -261 0
-875 -262 0
-875 -266 0
-875 -267 0
-875 -268 0
-875 -269 0
-875 -270 0
-875 -271 0
-875 -272 0
-875 -273 0
-875 -274 0
-875 -275 0
-875 -276 0
-875 -277 0
-875 -278 0
-875 -279 0
-875 -283 0
-875 -284 0
-875 -285 0
-875 -286 0
-875 -287 0
-875 -288 0
-875 -289 0
-875 -290 0
-875 -291 0
-875 -292 0
-875 -293 0
-875 -294 0
-875 -295 0
-875 -296 0
-875 -300 0
-875 -301 0
-875 -302 0
-875 -303 0
-875 -304 0
-875 -305 0
-875 -306 0
-876 -256 0
-876 -257 0
-876 -258 0
-876 -259 0
-876 -260 0
-876 -261 0
-876 -262 0
-876 -263 0
-876 -267 0
-876 -268 0
-876 -269 0
-876 -270 0
-876 -271 0
-876 -272 0
-876 -273 0
-876 -274 0
-876 -275 0
-876 -276 0
-876 -277 0
-876 -278 0
-876 -279 0
-876 -280 0
-876 -284 0
-876 -285 0
-876 -286 0
-876 -287 0
-876 -288 0
-876 -289 0
-876 -290 0
-876 -291 0
-876 -292 0
-876 -293 0
-876 -294 0
-876 -295 0
-876 -296 0
-876 -297 0
-876 -301 0
-876 -302 0
-876 -303 0
-876 -304 0
-876 -305 0
-876 -306 0
-877 -256 0
-877 -257 0
-877 -258 0
-877 -259 0
-877 -260 0
-877 -261 0
-877 -262 0
-877 -263 0
-877 -264 0
-877 -268 0
-877 -269 0
-877 -270 0
-877 -271 0
-877 -272 0
-877 -273 0
-877 -274 0
-877 -275 0
-877 -276 0
-877 -277 0
-877 -278 0
-877 -279 0
-877 -280 0
-877 -281 0
-877 -285 0
-877 -286 0
-877 -287 0
-877 -288 0
-877 -289 0
-877 -290 0
-877 -291 0
-877 -292 0
-877 -293 0
-877 -294 0
-877 -295 0
-877 -296 0
-877 -297 0
-877 -298 0
-877 -302 0
-877 -303 0
-877 -304 0
-877 -305 0
-877 -306 0
-878 -256 0
-878 -257 0
-878 -258 0
-878 -259 0
-878 -260 0
-878 -261 0
-878 -262 0
-878 -263 0
-878 -264 0
-878 -265 0
-878 -269 0
-878 -270 0
-878 -271 0
-878 -272 0
-878 -273 0
-878 -274 0
-878 -275 0
-878 -276 0
-878 -277 0
-878 -278 0
-878 -279 0
-878 -280 0
-878 -281 0
-878 -282 0
-878 -286 0
-878 -287 0
-878 -288 0
-878 -289 0
-878 -290 0
-878 -291 0
-878 -292 0
-878 -293 0
-878 -294 0
-878 -295 0
-878 -296 0
-878 -297 0
-878 -298 0
-878 -299 0
-878 -303 0
-878 -304 0
-878 -305 0
-878 -306 0
-879 -256 0
-879 -257 0
-879 -258 0
-879 -259 0
-879 -260 0
-879 -261 0
-879 -262 0
-879 -263 0
-879 -264 0
-879 -265 0
-879 -266 0
-879 -270 0
-879 -271 0
-879 -272 0
-879 -273 0
-879 -274 0
-879 -275 0
-879 -276 0
-879 -277 0
-879 -278 0
-879 -279 0
-879 -280 0
-879 -281 0
-879 -282 0
-879 -283 0
-879 -287 0
-879 -288 0
-879 -289 0
-879 -290 0
-879 -291 0
-879 -292 0
-879 -293 0
-879 -294 0
-879 -295 0
-879 -296 0
-879 -297 0
-879 -298 0
-879 -299 0
-879 -300 0
-879 -304 0
-879 -305 0
-879 -306 0
-880 -256 0
-880 -257 0
-880 -258 0
-880 -259 0
-880 -260 0
-880 -261 0
-880 -262 0
-880 -263 0
-880 -264 0
-880 -265 0
-880 -266 0
-880 -267 0
-880 -271 0
-880 -272 0
-880 -273 0
-880 -274 0
-880 -275 0
-880 -276 0
-880 -277 0
-880 -278 0
-880 -279 0
-880 -280 0
-880 -281 0
-880 -282 0
-880 -283 0
-880 -284 0
-880 -288 0
-880 -289 0
-880 -290 0
-880 -291 0
-880 -292 0
-880 -293 0
-880 -294 0
-880 -295 0
-880 -296 0
-880 -297 0
-880 -298 0
-880 -299 0
-880 -300 0
-880 -301 0
-880 -305 0
-880 -306 0
-881 -256 0
-881 -257 0
-881 -258 0
-881 -259 0
-881 -260 0
-881 -261 0
-881 -262 0
-881 -263 0
-881 -264 0
-881 -265 0
-881 -266 0
-881 -267 0
-881 -268 0
-881 -272 0
-881 -273 0
-881 -274 0
-881 -275 0
-881 -276 0
-881 -277 0
-881 -278 0
-881 -279 0
-881 -280 0
-881 -281 0
-881 -282 0
-881 -283 0
-881 -284 0
-881 -285 0
-881 -289 0
-881 -290 0
-881 -291 0
-881 -292 0
-881 -293 0
-881 -294 0
-881 -295 0
-881 -296 0
-881 -297 0
-881 -298 0
-881 -299 0
-881 -300 0
-881 -301 0
-881 -302 0
-881 -306 0
-882 -256 0
-882 -257 0
-882 -258 0
-882 -259 0
-882 -260 0
-882 -261 0
-882 -262 0
-882 -263 0
-882 -264 0
-882 -265 0
-882 -266 0
-882 -267 0
-882 -268 0
-882 -269 0
-882 -273 0
-882 -274 0
-882 -275 0
-882 -276 0
-882 -277 0
-882 -278 0
-882 -279 0
-882 -280 0
-882 -281 0
-882 -282 0
-882 -283 0
-882 -284 0
-882 -285 0
-882 -286 0
-882 -290 0
-882 -291 0
-882 -292 0
-882 -293 0
-882 -294 0
-882 -295 0
-882 -296 0
-882 -297 0
-882 -298 0
-882 -299 0
-882 -300 0
-882 -301 0
-882 -302 0
-882 -303 0
-307 -324 0
-307 -341 0
-324 -341 0
-308 -325 0
-308 -342 0
-325 -342 0
-309 -326 0
-309 -343 0
-326 -343 0
-310 -327 0
-310 -344 0
-327 -344 0
-311 -328 0
-311 -345 0
-328 -345 0
-312 -329 0
-312 -346 0
-329 -346 0
-313 -330 0
-313 -347 0
-330 -347 0
-314 -331 0
-314 -348 0
-331 -348 0
-315 -332 0
-315 -349 0
-332 -349 0
-316 -333 0
-316 -350 0
-333 -350 0
-317 -334 0
-317 -351 0
-334 -351 0
-318 -335 0
-318 -352 0
-335 -352 0
-319 -336 0
-319 -353 0
-336 -353 0
-320 -337 0
-320 -354 0
-337 -354 0
-321 -338 0
-321 -355 0
-338 -355 0
-322 -339 0
-322 -356 0
-339 -356 0
-323 -340 0
-323 -357 0
-340 -357 0
883 884 885 886 887 888 889 890 891 892 893 894 895 896 897 0
-883 -884 0
-883 -885 0
-883 -886 0
-883 -887 0
-883 -888 0
-883 -889 0
-883 -890 0
-883 -891 0
-883 -892 0
-883 -893 0
-883 -894 0
-883 -895 0
-883 -896 0
-883 -897 0
-884 -885 0
-884 -886 0
-884 -887 0
-884 -888 0
-884 -889 0
-884 -890 0
-884 -891 0
-884 -892 0
-884 -893 0
-884 -894 0
-884 -895 0
-884 -896 0
-884 -897 0
-885 -886 0
-885 -887 0
-885 -888 0
-885 -889 0
-885 -890 0
-885 -891 0
-885 -892 0
-885 -893 0
-885 -894 0
-885 -895 0
-885 -896 0
-885 -897 0
-886 -887 0
-886 -888 0
-886 -889 0
-886 -890 0
-886 -891 0
-886 -892 0
-886 -893 0
-886 -894 0
-886 -895 0
-886 -896 0
-886 -897 0
-887 -888 0
-887 -889 0
-887 -890 0
-887 -891 0
-887 -892 0
-887 -893 0
-887 -894 0
-887 -895 0
-887 -896 0
-887 -897 0
-888 -889 0
-888 -890 0
-888 -891 0
-888 -892 0
-888 -893 0
-888 -894 0
-888 -895 0
-888 -896 0
-888 -897 0
-889 -890 0
-889 -891 0
-889 -892 0
-889 -893 0
-889 -894 0
-889 -895 0
-889 -896 0
-889 -897 0
-890 -891 0
-890 -892 0
-890 -893 0
-890 -894 0
-890 -895 0
-890 -896 0
-890 -897 0
-891 -892 0
-891 -893 0
-891 -894 0
-891 -895 0
-891 -896 0
-891 -897 0
-892 -893 0
-892 -894 0
-892 -895 0
-892 -896 0
-892 -897 0
-893 -894 0
-893 -895 0
-893 -896 0
-893 -897 0
-894 -895 0
-894 -896 0
-894 -897 0
-895 -896 0
-895 -897 0
-896 -897 0
-307 883 0
-308 883 884 0
-309 883 884 885 0
-310 884 885 886 0
-311 885 886 887 0
-312 886 887 888 0
-313 887 888 889 0
-314 888 889 890 0
-315 889 890 891 0
-316 890 891 892 0
-317 891 892 893 0
-318 892 893 894 0
-319 893 894 895 0
-320 894 895 896 0
-321 895 896 897 0
-322 896 897 0
-323 897 0
-324 883 0
-325 883 884 0
-326 883 884 885 0
-327 884 885 886 0
-328 885 886 887 0
-329 886 887 888 0
-330 887 888 889 0
-331 888 889 890 0
-332 889 890 891 0
-333 890 891 892 0
-334 891 892 893 0
-335 892 893 894 0
-336 893 894 895 0
-337 894 895 896 0
-338 895 896 897 0
-339 896 897 0
-340 897 0
-341 883 0
-342 883 884 0
-343 883 884 885 0
-344 884 885 886 0
-345 885 886 887 0
-346 886 887 888 0
-347 887 888 889 0
-348 888 889 890 0
-349 889 890 891 0
-350 890 891 892 0
-351 891 892 893 0
-352 892 893 894 0
-353 893 894 895 0
-354 894 895 896 0
-355 895 896 897 0
-356 896 897 0
-357 897 0
-883 -310 0
-883 -311 0
-883 -312 0
-883 -313 0
-883 -314 0
-883 -315 0
-883 -316 0
-883 -317 0
-883 -318 0
-883 -319 0
-883 -320 0
-883 -321 0
-883 -322 0
-883 -323 0
-883 -327 0
-883 -328 0
-883 -329 0
-883 -330 0
-883 -331 0
-883 -332 0
-883 -333 0
-883 -334 0
-883 -335 0
-883 -336 0
-883 -337 0
-883 -338 0
-883 -339 0
-883 -340 0
-883 -344 0
-883 -345 0
-883 -346 0
-883 -347 0
-883 -348 0
-883 -349 0
-883 -350 0
-883 -351 0
-883 -352 0
-883 -353 0
-883 -354 0
-883 -355 0
-883 -356 0
-883 -357 0
-884 -307 0
-884 -311 0
-884 -312 0
-884 -313 0
-884 -314 0
-884 -315 0
-884 -316 0
-884 -317 0
-884 -318 0
-884 -319 0
-884 -320 0
-884 -321 0
-884 -322 0
-884 -323 0
-884 -324 0
-884 -328 0
-884 -329 0
-884 -330 0
-884 -331 0
-884 -332 0
-884 -333 0
-884 -334 0
-884 -335 0
-884 -336 0
-884 -337 0
-884 -338 0
-884 -339 0
-884 -340 0
-884 -341 0
-884 -345 0
-884 -346 0
-884 -347 0
-884 -348 0
-884 -349 0
-884 -350 0
-884 -351 0
-884 -352 0
-884 -353 0
-884 -354 0
-884 -355 0
-884 -356 0
-884 -357 0
-885 -307 0
-885 -308 0
-885 -312 0
-885 -313 0
-885 -314 0
-885 -315 0
-885 -316 0
-885 -317 0
-885 -318 0
-885 -319 0
-885 -320 0
-885 -321 0
-885 -322 0
-885 -323 0
-885 -324 0
-885 -325 0
-885 -329 0
-885 -330 0
-885 -331 0
-885 -332 0
-885 -333 0
-885 -334 0
-885 -335 0
-885 -336 0
-885 -337 0
-885 -338 0
-885 -339 0
-885 -340 0
-885 -341 0
-885 -342 0
-885 -346 0
-885 -347 0
-885 -348 0
-885 -349 0
-885 -350 0
-885 -351 0
-885 -352 0
-885 -353 0
-885 -354 0
-885 -355 0
-885 -356 0
-885 -357 0
-886 -307 0
-886 -308 0
-886 -309 0
-886 -313 0
-886 -314 0
-886 -315 0
-886 -316 0
-886 -317 0
-886 -318 0
-886 -319 0
-886 -320 0
-886 -321 0
-886 -322 0
-886 -323 0
-886 -324 0
-886 -325 0
-886 -326 0
-886 -330 0
-886 -331 0
-886 -332 0
-886 -333 0
-886 -334 0
-886 -335 0
-886 -336 0
-886 -337 0
-886 -338 0
-886 -339 0
-886 -340 0
-886 -341 0
-886 -342 0
-886 -343 0
-886 -347 0
-886 -348 0
-886 -349 0
-886 -350 0
-886 -351 0
-886 -352 0
-886 -353 0
-886 -354 0
-886 -355 0
-886 -356 0
-886 -357 0
-887 -307 0
-887 -308 0
-887 -309 0
-887 -310 0
-887 -314 0
-887 -315 0
-887 -316 0
-887 -317 0
-887 -318 0
-887 -319 0
-887 -320 0
-887 -321 0
-887 -322 0
-887 -323 0
-887 -324 0
-887 -325 0
-887 -326 0
-887 -327 0
-887 -331 0
-887 -332 0
-887 -333 0
-887 -334 0
-887 -335 0
-887 -336 0
-887 -337 0
-887 -338 0
-887 -339 0
-887 -340 0
-887 -341 0
-887 -342 0
-887 -343 0
-887 -344 0
-887 -348 0
-887 -349 0
-887 -350 0
-887 -351 0
-887 -352 0
-887 -353 0
-887 -354 0
-887 -355 0
-887 -356 0
-887 -357 0
-888 -307 0
-888 -308 0
-888 -309 0
-888 -310 0
-888 -311 0
-888 -315 0
-888 -316 0
-888 -317 0
-888 -318 0
-888 -319 0
-888 -320 0
-888 -321 0
-888 -322 0
-888 -323 0
-888 -324 0
-888 -325 0
-888 -326 0
-888 -327 0
-888 -328 0
-888 -332 0
-888 -333 0
-888 -334 0
-888 -335 0
-888 -336 0
-888 -337 0
-888 -338 0
-888 -339 0
-888 -340 0
-888 -341 0
-888 -342 0
-888 -343 0
-888 -344 0
-888 -345 0
-888 -349 0
-888 -350 0
-888 -351 0
-888 -352 0
-888 -353 0
-888 -354 0
-888 -355 0
-888 -356 0
-888 -357 0
-889 -307 0
-889 -308 0
-889 -309 0
-889 -310 0
-889 -311 0
-889 -312 0
-889 -316 0
-889 -317 0
-889 -318 0
-889 -319 0
-889 -320 0
-889 -321 0
-889 -322 0
-889 -323 0
-889 -324 0
-889 -325 0
-889 -326 0
-889 -327 0
-889 -328 0
-889 -329 0
-889 -333 0
-889 -334 0
-889 -335 0
-889 -336 0
-889 -337 0
-889 -338 0
-889 -339 0
-889 -340 0
-889 -341 0
-889 -342 0
-889 -343 0
-889 -344 0
-889 -345 0
-889 -346 0
-889 -350 0
-889 -351 0
-889 -352 0
-889 -353 0
-889 -354 0
-889 -355 0
-889 -356 0
-889 -357 0
-890 -307 0
-890 -308 0
-890 -309 0
-890 -310 0
-890 -311 0
-890 -312 0
-890 -313 0
-890 -317 0
-890 -318 0
-890 -319 0
-890 -320 0
-890 -321 0
-890 -322 0
-890 -323 0
-890 -324 0
-890 -325 0
-890 -326 0
-890 -327 0
-890 -328 0
-890 -329 0
-890 -330 0
-890 -334 0
-890 -335 0
-890 -336 0
-890 -337 0
-890 -338 0
-890 -339 0
-890 -340 0
-890 -341 0
-890 -342 0
-890 -343 0
-890 -344 0
-890 -345 0
-890 -346 0
-890 -347 0
-890 -351 0
-890 -352 0
-890 -353 0
-890 -354 0
-890 -355 0
-890 -356 0
-890 -357 0
-891 -307 0
-891 -308 0
-891 -309 0
-891 -310 0
-891 -311 0
-891 -312 0
-891 -313 0
-891 -314 0
-891 -318 0
-891 -319 0
-891 -320 0
-891 -321 0
-891 -322 0
-891 -323 0
-891 -324 0
-891 -325 0
-891 -326 0
-891 -327 0
-891 -328 0
-891 -329 0
-891 -330 0
-891 -331 0
-891 -335 0
-891 -336 0
-891 -337 0
-891 -338 0
-891 -339 0
-891 -340 0
-891 -341 0
-891 -342 0
-891 -343 0
-891 -344 0
-891 -345 0
-891 -346 0
-891 -347 0
-891 -348 0
-891 -352 0
-891 -353 0
-891 -354 0
-891 -355 0
-891 -356 0
-891 -357 0
-892 -307 0
-892 -308 0
-892 -309 0
-892 -310 0
-892 -311 0
-892 -312 0
-892 -313 0
-892 -314 0
-892 -315 0
-892 -319 0
-892 -320 0
-892 -321 0
-892 -322 0
-892 -323 0
-892 -324 0
-892 -325 0
-892 -326 0
-892 -327 0
-892 -328 0
-892 -329 0
-892 -330 0
-892 -331 0
-892 -332 0
-892 -336 0
-892 -337 0
-892 -338 0
-892 -339 0
-892 -340 0
-892 -341 0
-892 -342 0
-892 -343 0
-892 -344 0
-892 -345 0
-892 -346 0
-892 -347 0
-892 -348 0
-892 -349 0
-892 -353 0
-892 -354 0
-892 -355 0
-892 -356 0
-892 -357 0
-893 -307 0
-893 -308 0
-893 -309 0
-893 -310 0
-893 -311 0
-893 -312 0
-893 -313 0
-893 -314 0
-893 -315 0
-893 -316 0
-893 -320 0
-893 -321 0
-893 -322 0
-893 -323 0
-893 -324 0
-893 -325 0
-893 -326 0
-893 -327 0
-893 -328 0
-893 -329 0
-893 -330 0
-893 -331 0
-893 -332 0
-893 -333 0
-893 -337 0
-893 -338 0
-893 -339 0
-893 -340 0
-893 -341 0
-893 -342 0
-893 -343 0
-893 -344 0
-893 -345 0
-893 -346 0
-893 -347 0
-893 -348 0
-893 -349 0
-893 -350 0
-893 -354 0
-893 -355 0
-893 -356 0
-893 -357 0
-894 -307 0
-894 -308 0
-894 -309 0
-894 -310 0
-894 -311 0
-894 -312 0
-894 -313 0
-894 -314 0
-894 -315 0
-894 -316 0
-894 -317 0
-894 -321 0
-894 -322 0
-894 -323 0
-894 -324 0
-894 -325 0
-894 -326 0
-894 -327 0
-894 -328 0
-894 -329 0
-894 -330 0
-894 -331 0
-894 -332 0
-894 -333 0
-894 -334 0
-894 -338 0
-894 -339 0
-894 -340 0
-894 -341 0
-894 -342 0
-894 -343 0
-894 -344 0
-894 -345 0
-894 -346 0
-894 -347 0
-894 -348 0
-894 -349 0
-894 -350 0
-894 -351 0
-894 -355 0
-894 -356 0
-894 -357 0
-895 -307 0
-895 -308 0
-895 -309 0
-895 -310 0
-895 -311 0
-895 -312 0
-895 -313 0
-895 -314 0
-895 -315 0
-895 -316 0
-895 -317 0
-895 -318 0
-895 -322 0
-895 -323 0
-895 -324 0
-895 -325 0
-895 -326 0
-895 -327 0
-895 -328 0
-895 -329 0
-895 -330 0
-895 -331 0
-895 -332 0
-895 -333 0
-895 -334 0
-895 -335 0
-895 -339 0
-895 -340 0
-895 -341 0
-895 -342 0
-895 -343 0
-895 -344 0
-895 -345 0
-895 -346 0
-895 -347 0
-895 -348 0
-895 -349 0
-895 -350 0
-895 -351 0
-895 -352 0
-895 -356 0
-895 -357 0
-896 -307 0
-896 -308 0
-896 -309 0
-896 -310 0
-896 -311 0
-896 -312 0
-896 -313 0
-896 -314 0
-896 -315 0
-896 -316 0
-896 -317 0
-896 -318 0
-896 -319 0
-896 -323 0
-896 -324 0
-896 -325 0
-896 -326 0
-896 -327 0
-896 -328 0
-896 -329 0
-896 -330 0
-896 -331 0
-896 -332 0
-896 -333 0
-896 -334 0
-896 -335 0
-896 -336 0
-896 -340 0
-896 -341 0
-896 -342 0
-896 -343 0
-896 -344 0
-896 -345 0
-896 -346 0
-896 -347 0
-896 -348 0
-896 -349 0
-896 -350 0
-896 -351 0
-896 -352 0
-896 -353 0
-896 -357 0
-897 -307 0
-897 -308 0
-897 -309 0
-897 -310 0
-897 -311 0
-897 -312 0
-897 -313 0
-897 -314 0
-897 -315 0
-897 -316 0
-897 -317 0
-897 -318 0
-897 -319 0
-897 -320 0
-897 -324 0
-897 -325 0
-897 -326 0
-897 -327 0
-897 -328 0
-897 -329 0
-897 -330 0
-897 -331 0
-897 -332 0
-897 -333 0
-897 -334 0
-897 -335 0
-897 -336 0
-897 -337 0
-897 -341 0
-897 -342 0
-897 -343 0
-897 -344 0
-897 -345 0
-897 -346 0
-897 -347 0
-897 -348 0
-897 -349 0
-897 -350 0
-897 -351 0
-897 -352 0
-897 -353 0
-897 -354 0
-358 -375 0
-358 -392 0
-375 -392 0
-359 -376 0
-359 -393 0
-376 -393 0
-360 -377 0
-360 -394 0
-377 -394 0
-361 -378 0
-361 -395 0
-378 -395 0
-362 -379 0
-362 -396 0
-379 -396 0
-363 -380 0
-363 -397 0
-380 -397 0
-364 -381 0
-364 -398 0
-381 -398 0
-365 -382 0
-365 -399 0
-382 -399 0
-366 -383 0
-366 -400 0
-383 -400 0
-367 -384 0
-367 -401 0
-384 -401 0
-368 -385 0
-368 -402 0
-385 -402 0
-369 -386 0
-369 -403 0
-386 -403 0
-370 -387 0
-370 -404 0
-387 -404 0
-371 -388 0
-371 -405 0
-388 -405 0
-372 -389 0
-372 -406 0
-389 -406 0
-373 -390 0
-373 -407 0
-390 -407 0
-374 -391 0
-374 -408 0
-391 -408 0
898 899 900 901 902 903 904 905 906 907 908 909 910 911 912 0
-898 -899 0
-898 -900 0
-898 -901 0
-898 -902 0
-898 -903 0
-898 -904 0
-898 -905 0
-898 -906 0
-898 -907 0
-898 -908 0
-898 -909 0
-898 -910 0
-898 -911 0
-898 -912 0
-899 -900 0
-899 -901 0
-899 -902 0
-899 -903 0
-899 -904 0
-899 -905 0
-899 -906 0
-899 -907 0
-899 -908 0
-899 -909 0
-899 -910 0
-899 -911 0
-899 -912 0
-900 -901 0
-900 -902 0
-900 -903 0
-900 -904 0
-900 -905 0
-900 -906 0
-900 -907 0
-900 -908 0
-900 -909 0
-900 -910 0
-900 -911 0
-900 -912 0
-901 -902 0
-901 -903 0
-901 -904 0
-901 -905 0
-901 -906 0
-901 -907 0
-901 -908 0
-901 -909 0
-901 -910 0
-901 -911 0
-901 -912 0
-902 -903 0
-902 -904 0
-902 -905 0
-902 -906 0
-902 -907 0
-902 -908 0
-902 -909 0
-902 -910 0
-902 -911 0
-902 -912 0
-903 -904 0
-903 -905 0
-903 -906 0
-903 -907 0
-903 -908 0
-903 -909 0
-903 -910 0
-903 -911 0
-903 -912 0
-904 -905 0
-904 -906 0
-904 -907 0
-904 -908 0
-904 -909 0
-904 -910 0
-904 -911 0
-904 -912 0
-905 -906 0
-905 -907 0
-905 -908 0
-905 -909 0
-905 -910 0
-905 -911 0
-905 -912 0
-906 -907 0
-906 -908 0
-906 -909 0
-906 -910 0
-906 -911 0
-906 -912 0
-907 -908 0
-907 -909 0
-907 -910 0
-907 -911 0
-907 -912 0
-908 -909 0
-908 -910 0
-908 -911 0
-908 -912 0
-909 -910 0
-909 -911 0
-909 -912 0
-910 -911 0
-910 -912 0
-911 -912 0
-358 898 0
-359 898 899 0
-360 898 899 900 0
-361 899 900 901 0
-362 900 901 902 0
-363 901 902 903 0
-364 902 903 904 0
-365 903 904 905 0
-366 904 905 906 0
-367 905 906 907 0
-368 906 907 908 0
-369 907 908 909 0
-370 908 909 910 0
-371 909 910 911 0
-372 910 911 912 0
-373 911 912 0
-374 912 0
-375 898 0
-376 898 899 0
-377 898 899 900 0
-378 899 900 901 0
-379 900 901 902 0
-380 901 902 903 0
-381 902 903 904 0
-382 903 904 905 0
-383 904 905 906 0
-384 905 906 907 0
-385 906 907 908 0
-386 907 908 909 0
-387 908 909 910 0
-388 909 910 911 0
-389 910 911 912 0
-390 911 912 0
-391 912 0
-392 898 0
-393 898 899 0
-394 898 899 900 0
-395 899 900 901 0
-396 900 901 902 0
-397 901 902 903 0
-398 902 903 904 0
-399 903 904 905 0
-400 904 905 906 0
-401 905 906 907 0
-402 906 907 908 0
-403 907 908 909 0
-404 908 909 910 0
-405 909 910 911 0
-406 910 911 912 0
-407 911 912 0
-408 912 0
-898 -361 0
-898 -362 0
-898 -363 0
-898 -364 0
-898 -365 0
-898 -366 0
-898 -367 0
-898 -368 0
-898 -369 0
-898 -370 0
-898 -371 0
-898 -372 0
-898 -373 0
-898 -374 0
-898 -378 0
-898 -379 0
-898 -380 0
-898 -381 0
-898 -382 0
-898 -383 0
-898 -384 0
-898 -385 0
-898 -386 0
-898 -387 0
-898 -388 0
-898 -389 0
-898 -390 0
-898 -391 0
-898 -395 0
-898 -396 0
-898 -397 0
-898 -398 0
-898 -399 0
-898 -400 0
-898 -401 0
-898 -402 0
-898 -403 0
-898 -404 0
-898 -405 0
-898 -406 0
-898 -407 0
-898 -408 0
-899 -358 0
-899 -362 0
-899 -363 0
-899 -364 0
-899 -365 0
-899 -366 0
-899 -367 0
-899 -368 0
-899 -369 0
-899 -370 0
-899 -371 0
-899 -372 0
-899 -373 0
-899 -374 0
-899 -375 0
-899 -379 0
-899 -380 0
-899 -381 0
-899 -382 0
-899 -383 0
-899 -384 0
-899 -385 0
-899 -386 0
-899 -387 0
-899 -388 0
-899 -389 0
-899 -390 0
-899 -391 0
-899 -392 0
-899 -396 0
-899 -397 0
-899 -398 0
-899 -399 0
-899 -400 0
-899 -401 0
-899 -402 0
-899 -403 0
-899 -404 0
-899 -405 0
-899 -406 0
-899 -407 0
-899 -408 0
-900 -358 0
-900 -359 0
-900 -363 0
-900 -364 0
-900 -365 0
-900 -366 0
-900 -367 0
-900 -368 0
-900 -369 0
-900 -370 0
-900 -371 0
-900 -372 0
-900 -373 0
-900 -374 0
-900 -375 0
-900 -376 0
-900 -380 0
-900 -381 0
-900 -382 0
-900 -383 0
-900 -384 0
-900 -385 0
-900 -386 0
-900 -387 0
-900 -388 0
-900 -389 0
-900 -390 0
-900 -391 0
-900 -392 0
-900 -393 0
-900 -397 0
-900 -398 0
-900 -399 0
-900 -400 0
-900 -401 0
-900 -402 0
-900 -403 0
-900 -404 0
-900 -405 0
-900 -406 0
-900 -407 0
-900 -408 0
-901 -358 0
-901 -359 0
-901 -360 0
-901 -364 0
-901 -365 0
-901 -366 0
-901 -367 0
-901 -368 0
-901 -369 0
-901 -370 0
-901 -371 0
-901 -372 0
-901 -373 0
-901 -374 0
-901 -375 0
-901 -376 0
-901 -377 0
-901 -381 0
-901 -382 0
-901 -383 0
-901 -384 0
-901 -385 0
-901 -386 0
-901 -387 0
-901 -388 0
-901 -389 0
-901 -390 0
-901 -391 0
-901 -392 0
-901 -393 0
-901 -394 0
-901 -398 0
-901 -399 0
-901 -400 0
-901 -401 0
-901 -402 0
-901 -403 0
-901 -404 0
-901 -405 0
-901 -406 0
-901 -407 0
-901 -408 0
-902 -358 0
-902 -359 0
-902 -360 0
-902 -361 0
-902 -365 0
-902 -366 0
-902 -367 0
-902 -368 0
-902 -369 0
-902 -370 0
-902 -371 0
-902 -372 0
-902 -373 0
-902 -374 0
-902 -375 0
-902 -376 0
-902 -377 0
-902 -378 0
-902 -382 0
-902 -383 0
-902 -384 0
-902 -385 0
-902 -386 0
-902 -387 0
-902 -388 0
-902 -389 0
-902 -390 0
-902 -391 0
-902 -392 0
-902 -393 0
-902 -394 0
-902 -395 0
-902 -399 0
-902 -400 0
-902 -401 0
-902 -402 0
-902 -403 0
-902 -404 0
-902 -405 0
-902 -406 0
-902 -407 0
-902 -408 0
-903 -358 0
-903 -359 0
-903 -360 0
-903 -361 0
-903 -362 0
-903 -366 0
-903 -367 0
-903 -368 0
-903 -369 0
-903 -370 0
-903 -371 0
-903 -372 0
-903 -373 0
-903 -374 0
-903 -375 0
-903 -376 0
-903 -377 0
-903 -378 0
-903 -379 0
-903 -383 0
-903 -384 0
-903 -385 0
-903 -386 0
-903 -387 0
-903 -388 0
-903 -389 0
-903 -390 0
-903 -391 0
-903 -392 0
-903 -393 0
-903 -394 0
-903 -395 0
-903 -396 0
-903 -400 0
-903 -401 0
-903 -402 0
-903 -403 0
-903 -404 0
-903 -405 0
-903 -406 0
-903 -407 0
-903 -408 0
-904 -358 0
-904 -359 0
-904 -360 0
-904 -361 0
-904 -362 0
-904 -363 0
-904 -367 0
-904 -368 0
-904 -369 0
-904 -370 0
-904 -371 0
-904 -372 0
-904 -373 0
-904 -374 0
-904 -375 0
-904 -376 0
-904 -377 0
-904 -378 0
-904 -379 0
-904 -380 0
-904 -384 0
-904 -385 0
-904 -386 0
-904 -387 0
-904 -388 0
-904 -389 0
-904 -390 0
-904 -391 0
-904 -392 0
-904 -393 0
-904 -394 0
-904 -395 0
-904 -396 0
-904 -397 0
-904 -401 0
-904 -402 0
-904 -403 0
-904 -404 0
-904 -405 0
-904 -406 0
-904 -407 0
-904 -408 0
-905 -358 0
-905 -359 0
-905 -360 0
-905 -361 0
-905 -362 0
-905 -363 0
-905 -364 0
-905 -368 0
-905 -369 0
-905 -370 0
-905 -371 0
-905 -372 0
-905 -373 0
-905 -374 0
-905 -375 0
-905 -376 0
-905 -377 0
-905 -378 0
-905 -379 0
-905 -380 0
-905 -381 0
-905 -385 0
-905 -386 0
-905 -387 0
-905 -388 0
-905 -389 0
-905 -390 0
-905 -391 0
-905 -392 0
-905 -393 0
-905 -394 0
-905 -395 0
-905 -396 0
-905 -397 0
-905 -398 0
-905 -402 0
-905 -403 0
-905 -404 0
-905 -405 0
-905 -406 0
-905 -407 0
-905 -408 0
-906 -358 0
-906 -359 0
-906 -360 0
-906 -361 0
-906 -362 0
-906 -363 0
-906 -364 0
-906 -365 0
-906 -369 0
-906 -370 0
-906 -371 0
-906 -372 0
-906 -373 0
-906 -374 0
-906 -375 0
-906 -376 0
-906 -377 0
-906 -378 0
-906 -379 0
-906 -380 0
-906 -381 0
-906 -382 0
-906 -386 0
-906 -387 0
-906 -388 0
-906 -389 0
-906 -390 0
-906 -391 0
-906 -392 0
-906 -393 0
-906 -394 0
-906 -395 0
-906 -396 0
-906 -397 0
-906 -398 0
-906 -399 0
-906 -403 0
-906 -404 0
-906 -405 0
-906 -406 0
-906 -407 0
-906 -408 0
-907 -358 0
-907 -359 0
-907 -360 0
-907 -361 0
-907 -362 0
-907 -363 0
-907 -364 0
-907 -365 0
-907 -366 0
-907 -370 0
-907 -371 0
-907 -372 0
-907 -373 0
-907 -374 0
-907 -375 0
-907 -376 0
-907 -377 0
-907 -378 0
-907 -379 0
-907 -380 0
-907 -381 0
-907 -382 0
-907 -383 0
-907 -387 0
-907 -388 0
-907 -389 0
-907 -390 0
-907 -391 0
-907 -392 0
-907 -393 0
-907 -394 0
-907 -395 0
-907 -396 0
-907 -397 0
-907 -398 0
-907 -399 0
-907 -400 0
-907 -404 0
-907 -405 0
-907 -406 0
-907 -407 0
-907 -408 0
-908 -358 0
-908 -359 0
-908 -360 0
-908 -361 0
-908 -362 0
-908 -363 0
-908 -364 0
-908 -365 0
-908 -366 0
-908 -367 0
-908 -371 0
-908 -372 0
-908 -373 0
-908 -374 0
-908 -375 0
-908 -376 0
-908 -377 0
-908 -378 0
-908 -379 0
-908 -380 0
-908 -381 0
-908 -382 0
-908 -383 0
-908 -384 0
-908 -388 0
-908 -389 0
-908 -390 0
-908 -391 0
-908 -392 0
-908 -393 0
-908 -394 0
-908 -395 0
-908 -396 0
-908 -397 0
-908 -398 0
-908 -399 0
-908 -400 0
-908 -401 0
-908 -405 0
-908 -406 0
-908 -407 0
-908 -408 0
-909 -358 0
-909 -359 0
-909 -360 0
-909 -361 0
-909 -362 0
-909 -363 0
-909 -364 0
-909 -365 0
-909 -366 0
-909 -367 0
-909 -368 0
-909 -372 0
-909 -373 0
-909 -374 0
-909 -375 0
-909 -376 0
-909 -377 0
-909 -378 0
-909 -379 0
-909 -380 0
-909 -381 0
-909 -382 0
-909 -383 0
-909 -384 0
-909 -385 0
-909 -389 0
-909 -390 0
-909 -391 0
-909 -392 0
-909 -393 0
-909 -394 0
-909 -395 0
-909 -396 0
-909 -397 0
-909 -398 0
-909 -399 0
-909 -400 0
-909 -401 0
-909 -402 0
-909 -406 0
-909 -407 0
-909 -408 0
-910 -358 0
-910 -359 0
-910 -360 0
-910 -361 0
-910 -362 0
-910 -363 0
-910 -364 0
-910 -365 0
-910 -366 0
-910 -367 0
-910 -368 0
-910 -369 0
-910 -373 0
-910 -374 0
-910 -375 0
-910 -376 0
-910 -377 0
-910 -378 0
-910 -379 0
-910 -380 0
-910 -381 0
-910 -382 0
-910 -383 0
-910 -384 0
-910 -385 0
-910 -386 0
-910 -390 0
-910 -391 0
-910 -392 0
-910 -393 0
-910 -394 0
-910 -395 0
-910 -396 0
-910 -397 0
-910 -398 0
-910 -399 0
-910 -400 0
-910 -401 0
-910 -402 0
-910 -403 0
-910 -407 0
-910 -408 0
-911 -358 0
-911 -359 0
-911 -360 0
-911 -361 0
-911 -362 0
-911 -363 0
-911 -364 0
-911 -365 0
-911 -366 0
-911 -367 0
-911 -368 0
-911 -369 0
-911 -370 0
-911 -374 0
-911 -375 0
-911 -376 0
-911 -377 0
-911 -378 0
-911 -379 0
-911 -380 0
-911 -381 0
-911 -382 0
-911 -383 0
-911 -384 0
-911 -385 0
-911 -386 0
-911 -387 0
-911 -391 0
-911 -392 0
-911 -393 0
-911 -394 0
-911 -395 0
-911 -396 0
-911 -397 0
-911 -398 0
-911 -399 0
-911 -400 0
-911 -401 0
-911 -402 0
-911 -403 0
-911 -404 0
-911 -408 0
-912 -358 0
-912 -359 0
-912 -360 0
-912 -361 0
-912 -362 0
-912 -363 0
-912 -364 0
-912 -365 0
-912 -366 0
-912 -367 0
-912 -368 0
-912 -369 0
-912 -370 0
-912 -371 0
-912 -375 0
-912 -376 0
-912 -377 0
-912 -378 0
-912 -379 0
-912 -380 0
-912 -381 0
-912 -382 0
-912 -383 0
-912 -384 0
-912 -385 0
-912 -386 0
-912 -387 0
-912 -388 0
-912 -392 0
-912 -393 0
-912 -394 0
-912 -395 0
-912 -396 0
-912 -397 0
-912 -398 0
-912 -399 0
-912 -400 0
-912 -401 0
-912 -402 0
-912 -403 0
-912 -404 0
-912 -405 0
-409 -426 0
-409 -443 0
-426 -443 0
-410 -427 0
-410 -444 0
-427 -444 0
-411 -428 0
-411 -445 0
-428 -445 0
-412 -429 0
-412 -446 0
-429 -446 0
-413 -430 0
-413 -447 0
-430 -447 0
-414 -431 0
-414 -448 0
-431 -448 0
-415 -432 0
-415 -449 0
-432 -449 0
-416 -433 0
-416 -450 0
-433 -450 0
-417 -434 0
-417 -451 0
-434 -451 0
-418 -435 0
-418 -452 0
-435 -452 0
-419 -436 0
-419 -453 0
-436 -453 0
-420 -437 0
-420 -454 0
-437 -454 0
-421 -438 0
-421 -455 0
-438 -455 0
-422 -439 0
-422 -456 0
-439 -456 0
-423 -440 0
-423 -457 0
-440 -457 0
-424 -441 0
-424 -458 0
-441 -458 0
-425 -442 0
-425 -459 0
-442 -459 0
913 914 915 916 917 918 919 920 921 922 923 924 925 926 927 0
-913 -914 0
-913 -915 0
-913 -916 0
-913 -917 0
-913 -918 0
-913 -919 0
-913 -920 0
-913 -921 0
-913 -922 0
-913 -923 0
-913 -924 0
-913 -925 0
-913 -926 0
-913 -927 0
-914 -915 0
-914 -916 0
-914 -917 0
-914 -918 0
-914 -919 0
-914 -920 0
-914 -921 0
-914 -922 0
-914 -923 0
-914 -924 0
-914 -925 0
-914 -926 0
-914 -927 0
-915 -916 0
-915 -917 0
-915 -918 0
-915 -919 0
-915 -920 0
-915 -921 0
-915 -922 0
-915 -923 0
-915 -924 0
-915 -925 0
-915 -926 0
-915 -927 0
-916 -917 0
-916 -918 0
-916 -919 0
-916 -920 0
-916 -921 0
-916 -922 0
-916 -923 0
-916 -924 0
-916 -925 0
-916 -926 0
-916 -927 0
-917 -918 0
-917 -919 0
-917 -920 0
-917 -921 0
-917 -922 0
-917 -923 0
-917 -924 0
-917 -925 0
-917 -926 0
-917 -927 0
-918 -919 0
-918 -920 0
-918 -921 0
-918 -922 0
-918 -923 0
-918 -924 0
-918 -925 0
-918 -926 0
-918 -927 0
-919 -920 0
-919 -921 0
-919 -922 0
-919 -923 0
-919 -924 0
-919 -925 0
-919 -926 0
-919 -927 0
-920 -921 0
-920 -922 0
-920 -923 0
-920 -924 0
-920 -925 0
-920 -926 0
-920 -927 0
-921 -922 0
-921 -923 0
-921 -924 0
-921 -925 0
-921 -926 0
-921 -927 0
-922 -923 0
-922 -924 0
-922 -925 0
-922 -926 0
-922 -927 0
-923 -924 0
-923 -925 0
-923 -926 0
-923 -927 0
-924 -925 0
-924 -926 0
-924 -927 0
-925 -926 0
-925 -927 0
-926 -927 0
-409 913 0
-410 913 914 0
-411 913 914 915 0
-412 914 915 916 0
-413 915 916 917 0
-414 916 917 918 0
-415 917 918 919 0
-416 918 919 920 0
-417 919 920 921 0
-418 920 921 922 0
-419 921 922 923 0
-420 922 923 924 0
-421 923 924 925 0
-422 924 925 926 0
-423 925 926 927 0
-424 926 927 0
-425 927 0
-426 913 0
-427 913 914 0
-428 913 914 915 0
-429 914 915 916 0
-430 915 916 917 0
-431 916 917 918 0
-432 917 918 919 0
-433 918 919 920 0
-434 919 920 921 0
-435 920 921 922 0
-436 921 922 923 0
-437 922 923 924 0
-438 923 924 925 0
-439 924 925 926 0
-440 925 926 927 0
-441 926 927 0
-442 927 0
-443 913 0
-444 913 914 0
-445 913 914 915 0
-446 914 915 916 0
-447 915 916 917 0
-448 916 917 918 0
-449 917 918 919 0
-450 918 919 920 0
-451 919 920 921 0
-452 920 921 922 0
-453 921 922 923 0
-454 922 923 924 0
-455 923 924 925 0
-456 924 925 926 0
-457 925 926 927 0
-458 926 927 0
-459 927 0
-913 -412 0
-913 -413 0
-913 -414 0
-913 -415 0
-913 -416 0
-913 -417 0
-913 -418 0
-913 -419 0
-913 -420 0
-913 -421 0
-913 -422 0
-913 -423 0
-913 -424 0
-913 -425 0
-913 -429 0
-913 -430 0
-913 -431 0
-913 -432 0
-913 -433 0
-913 -434 0
-913 -435 0
-913 -436 0
-913 -437 0
-913 -438 0
-913 -439 0
-913 -440 0
-913 -441 0
-913 -442 0
-913 -446 0
-913 -447 0
-913 -448 0
-913 -449 0
-913 -450 0
-913 -451 0
-913 -452 0
-913 -453 0
-913 -454 0
-913 -455 0
-913 -456 0
-913 -457 0
-913 -458 0
-913 -459 0
-914 -409 0
-914 -413 0
-914 -414 0
-914 -415 0
-914 -416 0
-914 -417 0
-914 -418 0
-914 -419 0
-914 -420 0
-914 -421 0
-914 -422 0
-914 -423 0
-914 -424 0
-914 -425 0
-914 -426 0
-914 -430 0
-914 -431 0
-914 -432 0
-914 -433 0
-914 -434 0
-914 -435 0
-914 -436 0
-914 -437 0
-914 -438 0
-914 -439 0
-914 -440 0
-914 -441 0
-914 -442 0
-914 -443 0
-914 -447 0
-914 -448 0
-914 -449 0
-914 -450 0
-914 -451 0
-914 -452 0
-914 -453 0
-914 -454 0
-914 -455 0
-914 -456 0
-914 -457 0
-914 -458 0
-914 -459 0
-915 -409 0
-915 -410 0
-915 -414 0
-915 -415 0
-915 -416 0
-915 -417 0
-915 -418 0
-915 -419 0
-915 -420 0
-915 -421 0
-915 -422 0
-915 -423 0
-915 -424 0
-915 -425 0
-915 -426 0
-915 -427 0
-915 -431 0
-915 -432 0
-915 -433 0
-915 -434 0
-915 -435 0
-915 -436 0
-915 -437 0
-915 -438 0
-915 -439 0
-915 -440 0
-915 -441 0
-915 -442 0
-915 -443 0
-915 -444 0
-915 -448 0
-915 -449 0
-915 -450 0
-915 -451 0
-915 -452 0
-915 -453 0
-915 -454 0
-915 -455 0
-915 -456 0
-915 -457 0
-915 -458 0
-915 -459 0
-916 -409 0
-916 -410 0
-916 -411 0
-916 -415 0
-916 -416 0
-916 -417 0
-916 -418 0
-916 -419 0
-916 -420 0
-916 -421 0
-916 -422 0
-916 -423 0
-916 -424 0
-916 -425 0
-916 -426 0
-916 -427 0
-916 -428 0
-916 -432 0
-916 -433 0
-916 -434 0
-916 -435 0
-916 -436 0
-916 -437 0
-916 -438 0
-916 -439 0
-916 -440 0
-916 -441 0
-916 -442 0
-916 -443 0
-916 -444 0
-916 -445 0
-916 -449 0
-916 -450 0
-916 -451 0
-916 -452 0
-916 -453 0
-916 -454 0
-916 -455 0
-916 -456 0
-916 -457 0
-916 -458 0
-916 -459 0
-917 -409 0
-917 -410 0
-917 -411 0
-917 -412 0
-917 -416 0
-917 -417 0
-917 -418 0
-917 -419 0
-917 -420 0
-917 -421 0
-917 -422 0
-917 -423 0
-917 -424 0
-917 -425 0
-917 -426 0
-917 -427 0
-917 -428 0
-917 -429 0
-917 -433 0
-917 -434 0
-917 -435 0
-917 -436 0
-917 -437 0
-917 -438 0
-917 -439 0
-917 -440 0
-917 -441 0
-917 -442 0
-917 -443 0
-917 -444 0
-917 -445 0
-917 -446 0
-917 -450 0
-917 -451 0
-917 -452 0
-917 -453 0
-917 -454 0
-917 -455 0
-917 -456 0
-917 -457 0
-917 -458 0
-917 -459 0
-918 -409 0
-918 -410 0
-918 -411 0
-918 -412 0
-918 -413 0
-918 -417 0
-918 -418 0
-918 -419 0
-918 -420 0
-918 -421 0
-918 -422 0
-918 -423 0
-918 -424 0
-918 -425 0
-918 -426 0
-918 -427 0
-918 -428 0
-918 -429 0
-918 -430 0
-918 -434 0
-918 -435 0
-918 -436 0
-918 -437 0
-918 -438 0
-918 -439 0
-918 -440 0
-918 -441 0
-918 -442 0
-918 -443 0
-918 -444 0
-918 -445 0
-918 -446 0
-918 -447 0
-918 -451 0
-918 -452 0
-918 -453 0
-918 -454 0
-918 -455 0
-918 -456 0
-918 -457 0
-918 -458 0
-918 -459 0
-919 -409 0
-919 -410 0
-919 -411 0
-919 -412 0
-919 -413 0
-919 -414 0
-919 -418 0
-919 -419 0
-919 -420 0
-919 -421 0
-919 -422 0
-919 -423 0
-919 -424 0
-919 -425 0
-919 -426 0
-919 -427 0
-919 -428 0
-919 -429 0
-919 -430 0
-919 -431 0
-919 -435 0
-919 -436 0
-919 -437 0
-919 -438 0
-919 -439 0
-919 -440 0
-919 -441 0
-919 -442 0
-919 -443 0
-919 -444 0
-919 -445 0
-919 -446 0
-919 -447 0
-919 -448 0
-919 -452 0
-919 -453 0
-919 -454 0
-919 -455 0
-919 -456 0
-919 -457 0
-919 -458 0
-919 -459 0
-920 -409 0
-920 -410 0
-920 -411 0
-920 -412 0
-920 -413 0
-920 -414 0
-920 -415 0
-920 -419 0
-920 -420 0
-920 -421 0
-920 -422 0
-920 -423 0
-920 -424 0
-920 -425 0
-920 -426 0
-920 -427 0
-920 -428 0
-920 -429 0
-920 -430 0
-920 -431 0
-920 -432 0
-920 -436 0
-920 -437 0
-920 -438 0
-920 -439 0
-920 -440 0
-920 -441 0
-920 -442 0
-920 -443 0
-920 -444 0
-920 -445 0
-920 -446 0
-920 -447 0
-920 -448 0
-920 -449 0
-920 -453 0
-920 -454 0
-920 -455 0
-920 -456 0
-920 -457 0
-920 -458 0
-920 -459 0
-921 -409 0
-921 -410 0
-921 -411 0
-921 -412 0
-921 -413 0
-921 -414 0
-921 -415 0
-921 -416 0
-921 -420 0
-921 -421 0
-921 -422 0
-921 -423 0
-921 -424 0
-921 -425 0
-921 -426 0
-921 -427 0
-921 -428 0
-921 -429 0
-921 -430 0
-921 -431 0
-921 -432 0
-921 -433 0
-921 -437 0
-921 -438 0
-921 -439 0
-921 -440 0
-921 -441 0
-921 -442 0
-921 -443 0
-921 -444 0
-921 -445 0
-921 -446 0
-921 -447 0
-921 -448 0
-921 -449 0
-921 -450 0
-921 -454 0
-921 -455 0
-921 -456 0
-921 -457 0
-921 -458 0
-921 -459 0
-922 -409 0
-922 -410 0
-922 -411 0
-922 -412 0
-922 -413 0
-922 -414 0
-922 -415 0
-922 -416 0
-922 -417 0
-922 -421 0
-922 -422 0
-922 -423 0
-922 -424 0
-922 -425 0
-922 -426 0
-922 -427 0
-922 -428 0
-922 -429 0
-922 -430 0
-922 -431 0
-922 -432 0
-922 -433 0
-922 -434 0
-922 -438 0
-922 -439 0
-922 -440 0
-922 -441 0
-922 -442 0
-922 -443 0
-922 -444 0
-922 -445 0
-922 -446 0
-922 -447 0
-922 -448 0
-922 -449 0
-922 -450 0
-922 -451 0
-922 -455 0
-922 -456 0
-922 -457 0
-922 -458 0
-922 -459 0
-923 -409 0
-923 -410 0
-923 -411 0
-923 -412 0
-923 -413 0
-923 -414 0
-923 -415 0
-923 -416 0
-923 -417 0
-923 -418 0
-923 -422 0
-923 -423 0
-923 -424 0
-923 -425 0
-923 -426 0
-923 -427 0
-923 -428 0
-923 -429 0
-923 -430 0
-923 -431 0
-923 -432 0
-923 -433 0
-923 -434 0
-923 -435 0
-923 -439 0
-923 -440 0
-923 -441 0
-923 -442 0
-923 -443 0
-923 -444 0
-923 -445 0
-923 -446 0
-923 -447 0
-923 -448 0
-923 -449 0
-923 -450 0
-923 -451 0
-923 -452 0
-923 -456 0
-923 -457 0
-923 -458 0
-923 -459 0
-924 -409 0
-924 -410 0
-924 -411 0
-924 -412 0
-924 -413 0
-924 -414 0
-924 -415 0
-924 -416 0
-924 -417 0
-924 -418 0
-924 -419 0
-924 -423 0
-924 -424 0
-924 -425 0
-924 -426 0
-924 -427 0
-924 -428 0
-924 -429 0
-924 -430 0
-924 -431 0
-924 -432 0
-924 -433 0
-924 -434 0
-924 -435 0
-924 -436 0
-924 -440 0
-924 -441 0
-924 -442 0
-924 -443 0
-924 -444 0
-924 -445 0
-924 -446 0
-924 -447 0
-924 -448 0
-924 -449 0
-924 -450 0
-924 -451 0
-924 -452 0
-924 -453 0
-924 -457 0
-924 -458 0
-924 -459 0
-925 -409 0
-925 -410 0
-925 -411 0
-925 -412 0
-925 -413 0
-925 -414 0
-925 -415 0
-925 -416 0
-925 -417 0
-925 -418 0
-925 -419 0
-925 -420 0
-925 -424 0
-925 -425 0
-925 -426 0
-925 -427 0
-925 -428 0
-925 -429 0
-925 -430 0
-925 -431 0
-925 -432 0
-925 -433 0
-925 -434 0
-925 -435 0
-925 -436 0
-925 -437 0
-925 -441 0
-925 -442 0
-925 -443 0
-925 -444 0
-925 -445 0
-925 -446 0
-925 -447 0
-925 -448 0
-925 -449 0
-925 -450 0
-925 -451 0
-925 -452 0
-925 -453 0
-925 -454 0
-925 -458 0
-925 -459 0
-926 -409 0
-926 -410 0
-926 -411 0
-926 -412 0
-926 -413 0
-926 -414 0
-926 -415 0
-926 -416 0
-926 -417 0
-926 -418 0
-926 -419 0
-926 -420 0
-926 -421 0
-926 -425 0
-926 -426 0
-926 -427 0
-926 -428 0
-926 -429 0
-926 -430 0
-926 -431 0
-926 -432 0
-926 -433 0
-926 -434 0
-926 -435 0
-926 -436 0
-926 -437 0
-926 -438 0
-926 -442 0
-926 -443 0
-926 -444 0
-926 -445 0
-926 -446 0
-926 -447 0
-926 -448 0
-926 -449 0
-926 -450 0
-926 -451 0
-926 -452 0
-926 -453 0
-926 -454 0
-926 -455 0
-926 -459 0
-927 -409 0
-927 -410 0
-927 -411 0
-927 -412 0
-927 -413 0
-927 -414 0
-927 -415 0
-927 -416 0
-927 -417 0
-927 -418 0
-927 -419 0
-927 -420 0
-927 -421 0
-927 -422 0
-927 -426 0
-927 -427 0
-927 -428 0
-927 -429 0
-927 -430 0
-927 -431 0
-927 -432 0
-927 -433 0
-927 -434 0
-927 -435 0
-927 -436 0
-927 -437 0
-927 -438 0
-927 -439 0
-927 -443 0
-927 -444 0
-927 -445 0
-927 -446 0
-927 -447 0
-927 -448 0
-927 -449 0
-927 -450 0
-927 -451 0
-927 -452 0
-927 -453 0
-927 -454 0
-927 -455 0
-927 -456 0
-460 -477 0
-460 -494 0
-477 -494 0
-461 -478 0
-461 -495 0
-478 -495 0
-462 -479 0
-462 -496 0
-479 -496 0
-463 -480 0
-463 -497 0
-480 -497 0
-464 -481 0
-464 -498 0
-481 -498 0
-465 -482 0
-465 -499 0
-482 -499 0
-466 -483 0
-466 -500 0
-483 -500 0
-467 -484 0
-467 -501 0
-484 -501 0
-468 -485 0
-468 -502 0
-485 -502 0
-469 -486 0
-469 -503 0
-486 -503 0
-470 -487 0
-470 -504 0
-487 -504 0
-471 -488 0
-471 -505 0
-488 -505 0
-472 -489 0
-472 -506 0
-489 -506 0
-473 -490 0
-473 -507 0
-490 -507 0
-474 -491 0
-474 -508 0
-491 -508 0
-475 -492 0
-475 -509 0
-492 -509 0
-476 -493 0
-476 -510 0
-493 -510 0
928 929 930 931 932 933 934 935 936 937 938 939 940 941 942 0
-928 -929 0
-928 -930 0
-928 -931 0
-928 -932 0
-928 -933 0
-928 -934 0
-928 -935 0
-928 -936 0
-928 -937 0
-928 -938 0
-928 -939 0
-928 -940 0
-928 -941 0
-928 -942 0
-929 -930 0
-929 -931 0
-929 -932 0
-929 -933 0
-929 -934 0
-929 -935 0
-929 -936 0
-929 -937 0
-929 -938 0
-929 -939 0
-929 -940 0
-929 -941 0
-929 -942 0
-930 -931 0
-930 -932 0
-930 -933 0
-930 -934 0
-930 -935 0
-930 -936 0
-930 -937 0
-930 -938 0
-930 -939 0
-930 -940 0
-930 -941 0
-930 -942 0
-931 -932 0
-931 -933 0
-931 -934 0
-931 -935 0
-931 -936 0
-931 -937 0
-931 -938 0
-931 -939 0
-931 -940 0
-931 -941 0
-931 -942 0
-932 -933 0
-932 -934 0
-932 -935 0
-932 -936 0
-932 -937 0
-932 -938 0
-932 -939 0
-932 -940 0
-932 -941 0
-932 -942 0
-933 -934 0
-933 -935 0
-933 -936 0
-933 -937 0
-933 -938 0
-933 -939 0
-933 -940 0
-933 -941 0
-933 -942 0
-934 -935 0
-934 -936 0
-934 -937 0
-934 -938 0
-934 -939 0
-934 -940 0
-934 -941 0
-934 -942 0
-935 -936 0
-935 -937 0
-935 -938 0
-935 -939 0
-935 -940 0
-935 -941 0
-935 -942 0
-936 -937 0
-936 -938 0
-936 -939 0
-936 -940 0
-936 -941 0
-936 -942 0
-937 -938 0
-937 -939 0
-937 -940 0
-937 -941 0
-937 -942 0
-938 -939 0
-938 -940 0
-938 -941 0
-938 -942 0
-939 -940 0
-939 -941 0
-939 -942 0
-940 -941 0
-940 -942 0
-941 -942 0
-460 928 0
-461 928 929 0
-462 928 929 930 0
-463 929 930 931 0
-464 930 931 932 0
-465 931 932 933 0
-466 932 933 934 0
-467 933 934 935 0
-468 934 935 936 0
-469 935 936 937 0
-470 936 937 938 0
-471 937 938 939 0
-472 938 939 940 0
-473 939 940 941 0
-474 940 941 942 0
-475 941 942 0
-476 942 0
-477 928 0
-478 928 929 0
-479 928 929 930 0
-480 929 930 931 0
-481 930 931 932 0
-482 931 932 933 0
-483 932 933 934 0
-484 933 934 935 0
-485 934 935 936 0
-486 935 936 937 0
-487 936 937 938 0
-488 937 938 939 0
-489 938 939 940 0
-490 939 940 941 0
-491 940 941 942 0
-492 941 942 0
-493 942 0
-494 928 0
-495 928 929 0
-496 928 929 930 0
-497 929 930 931 0
-498 930 931 932 0
-499 931 932 933 0
-500 932 933 934 0
-501 933 934 935 0
-502 934 935 936 0
-503 935 936 937 0
-504 936 937 938 0
-505 937 938 939 0
-506 938 939 940 0
-507 939 940 941 0
-508 940 941 942 0
-509 941 942 0
-510 942 0
-928 -463 0
-928 -464 0
-928 -465 0
-928 -466 0
-928 -467 0
-928 -468 0
-928 -469 0
-928 -470 0
-928 -471 0
-928 -472 0
-928 -473 0
-928 -474 0
-928 -475 0
-928 -476 0
-928 -480 0
-928 -481 0
-928 -482 0
-928 -483 0
-928 -484 0
-928 -485 0
-928 -486 0
-928 -487 0
-928 -488 0
-928 -489 0
-928 -490 0
-928 -491 0
-928 -492 0
-928 -493 0
-928 -497 0
-928 -498 0
-928 -499 0
-928 -500 0
-928 -501 0
-928 -502 0
-928 -503 0
-928 -504 0
-928 -505 0
-928 -506 0
-928 -507 0
-928 -508 0
-928 -509 0
-928 -510 0
-929 -460 0
-929 -464 0
-929 -465 0
-929 -466 0
-929 -467 0
-929 -468 0
-929 -469 0
-929 -470 0
-929 -471 0
-929 -472 0
-929 -473 0
-929 -474 0
-929 -475 0
-929 -476 0
-929 -477 0
-929 -481 0
-929 -482 0
-929 -483 0
-929 -484 0
-929 -485 0
-929 -486 0
-929 -487 0
-929 -488 0
-929 -489 0
-929 -490 0
-929 -491 0
-929 -492 0
-929 -493 0
-929 -494 0
-929 -498 0
-929 -499 0
-929 -500 0
-929 -501 0
-929 -502 0
-929 -503 0
-929 -504 0
-929 -505 0
-929 -506 0
-929 -507 0
-929 -508 0
-929 -509 0
-929 -510 0
-930 -460 0
-930 -461 0
-930 -465 0
-930 -466 0
-930 -467 0
-930 -468 0
-930 -469 0
-930 -470 0
-930 -471 0
-930 -472 0
-930 -473 0
-930 -474 0
-930 -475 0
-930 -476 0
-930 -477 0
-930 -478 0
-930 -482 0
-930 -483 0
-930 -484 0
-930 -485 0
-930 -486 0
-930 -487 0
-930 -488 0
-930 -489 0
-930 -490 0
-930 -491 0
-930 -492 0
-930 -493 0
-930 -494 0
-930 -495 0
-930 -499 0
-930 -500 0
-930 -501 0
-930 -502 0
-930 -503 0
-930 -504 0
-930 -505 0
-930 -506 0
-930 -507 0
-930 -508 0
-930 -509 0
-930 -510 0
-931 -460 0
-931 -461 0
-931 -462 0
-931 -466 0
-931 -467 0
-931 -468 0
-931 -469 0
-931 -470 0
-931 -471 0
-931 -472 0
-931 -473 0
-931 -474 0
-931 -475 0
-931 -476 0
-931 -477 0
-931 -478 0
-931 -479 0
-931 -483 0
-931 -484 0
-931 -485 0
-931 -486 0
-931 -487 0
-931 -488 0
-931 -489 0
-931 -490 0
-931 -491 0
-931 -492 0
-931 -493 0
-931 -494 0
-931 -495 0
-931 -496 0
-931 -500 0
-931 -501 0
-931 -502 0
-931 -503 0
-931 -504 0
-931 -505 0
-931 -506 0
-931 -507 0
-931 -508 0
-931 -509 0
-931 -510 0
-932 -460 0
-932 -461 0
-932 -462 0
-932 -463 0
-932 -467 0
-932 -468 0
-932 -469 0
-932 -470 0
-932 -471 0
-932 -472 0
-932 -473 0
-932 -474 0
-932 -475 0
-932 -476 0
-932 -477 0
-932 -478 0
-932 -479 0
-932 -480 0
-932 -484 0
-932 -485 0
-932 -486 0
-932 -487 0
-932 -488 0
-932 -489 0
-932 -490 0
-932 -491 0
-932 -492 0
-932 -493 0
-932 -494 0
-932 -495 0
-932 -496 0
-932 -497 0
-932 -501 0
-932 -502 0
-932 -503 0
-932 -504 0
-932 -505 0
-932 -506 0
-932 -507 0
-932 -508 0
-932 -509 0
-932 -510 0
-933 -460 0
-933 -461 0
-933 -462 0
-933 -463 0
-933 -464 0
-933 -468 0
-933 -469 0
-933 -470 0
-933 -471 0
-933 -472 0
-933 -473 0
-933 -474 0
-933 -475 0
-933 -476 0
-933 -477 0
-933 -478 0
-933 -479 0
-933 -480 0
-933 -481 0
-933 -485 0
-933 -486 0
-933 -487 0
-933 -488 0
-933 -489 0
-933 -490 0
-933 -491 0
-933 -492 0
-933 -493 0
-933 -494 0
-933 -495 0
-933 -496 0
-933 -497 0
-933 -498 0
-933 -502 0
-933 -503 0
-933 -504 0
-933 -505 0
-933 -506 0
-933 -507 0
-933 -508 0
-933 -509 0
-933 -510 0
-934 -460 0
-934 -461 0
-934 -462 0
-934 -463 0
-934 -464 0
-934 -465 0
-934 -469 0
-934 -470 0
-934 -471 0
-934 -472 0
-934 -473 0
-934 -474 0
-934 -475 0
-934 -476 0
-934 -477 0
-934 -478 0
-934 -479 0
-934 -480 0
-934 -481 0
-934 -482 0
-934 -486 0
-934 -487 0
-934 -488 0
-934 -489 0
-934 -490 0
-934 -491 0
-934 -492 0
-934 -493 0
-934 -494 0
-934 -495 0
-934 -496 0
-934 -497 0
-934 -498 0
-934 -499 0
-934 -503 0
-934 -504 0
-934 -505 0
-934 -506 0
-934 -507 0
-934 -508 0
-934 -509 0
-934 -510 0
-935 -460 0
-935 -461 0
-935 -462 0
-935 -463 0
-935 -464 0
-935 -465 0
-935 -466 0
-935 -470 0
-935 -471 0
-935 -472 0
-935 -473 0
-935 -474 0
-935 -475 0
-935 -476 0
-935 -477 0
-935 -478 0
-935 -479 0
-935 -480 0
-935 -481 0
-935 -482 0
-935 -483 0
-935 -487 0
-935 -488 0
-935 -489 0
-935 -490 0
-935 -491 0
-935 -492 0
-935 -493 0
-935 -494 0
-935 -495 0
-935 -496 0
-935 -497 0
-935 -498 0
-935 -499 0
-935 -500 0
-935 -504 0
-935 -505 0
-935 -506 0
-935 -507 0
-935 -508 0
-935 -509 0
-935 -510 0
-936 -460 0
-936 -461 0
-936 -462 0
-936 -463 0
-936 -464 0
-936 -465 0
-936 -466 0
-936 -467 0
-936 -471 0
-936 -472 0
-936 -473 0
-936 -474 0
-936 -475 0
-936 -476 0
-936 -477 0
-936 -478 0
-936 -479 0
-936 -480 0
-936 -481 0
-936 -482 0
-936 -483 0
-936 -484 0
-936 -488 0
-936 -489 0
-936 -490 0
-936 -491 0
-936 -492 0
-936 -493 0
-936 -494 0
-936 -495 0
-936 -496 0
-936 -497 0
-936 -498 0
-936 -499 0
-936 -500 0
-936 -501 0
-936 -505 0
-936 -506 0
-936 -507 0
-936 -508 0
-936 -509 0
-936 -510 0
-937 -460 0
-937 -461 0
-937 -462 0
-937 -463 0
-937 -464 0
-937 -465 0
-937 -466 0
-937 -467 0
-937 -468 0
-937 -472 0
-937 -473 0
-937 -474 0
-937 -475 0
-937 -476 0
-937 -477 0
-937 -478 0
-937 -479 0
-937 -480 0
-937 -481 0
-937 -482 0
-937 -483 0
-937 -484 0
-937 -485 0
-937 -489 0
-937 -490 0
-937 -491 0
-937 -492 0
-937 -493 0
-937 -494 0
-937 -495 0
-937 -496 0
-937 -497 0
-937 -498 0
-937 -499 0
-937 -500 0
-937 -501 0
-937 -502 0
-937 -506 0
-937 -507 0
-937 -508 0
-937 -509 0
-937 -510 0
-938 -460 0
-938 -461 0
-938 -462 0
-938 -463 0
-938 -464 0
-938 -465 0
-938 -466 0
-938 -467 0
-938 -468 0
-938 -469 0
-938 -473 0
-938 -474 0
-938 -475 0
-938 -476 0
-938 -477 0
-938 -478 0
-938 -479 0
-938 -480 0
-938 -481 0
-938 -482 0
-938 -483 0
-938 -484 0
-938 -485 0
-938 -486 0
-938 -490 0
-938 -491 0
-938 -492 0
-938 -493 0
-938 -494 0
-938 -495 0
-938 -496 0
-938 -497 0
-938 -498 0
-938 -499 0
-938 -500 0
-938 -501 0
-938 -502 0
-938 -503 0
-938 -507 0
-938 -508 0
-938 -509 0
-938 -510 0
-939 -460 0
-939 -461 0
-939 -462 0
-939 -463 0
-939 -464 0
-939 -465 0
-939 -466 0
-939 -467 0
-939 -468 0
-939 -469 0
-939 -470 0
-939 -474 0
-939 -475 0
-939 -476 0
-939 -477 0
-939 -478 0
-939 -479 0
-939 -480 0
-939 -481 0
-939 -482 0
-939 -483 0
-939 -484 0
-939 -485 0
-939 -486 0
-939 -487 0
-939 -491 0
-939 -492 0
-939 -493 0
-939 -494 0
-939 -495 0
-939 -496 0
-939 -497 0
-939 -498 0
-939 -499 0
-939 -500 0
-939 -501 0
-939 -502 0
-939 -503 0
-939 -504 0
-939 -508 0
-939 -509 0
-939 -510 0
-940 -460 0
-940 -461 0
-940 -462 0
-940 -463 0
-940 -464 0
-940 -465 0
-940 -466 0
-940 -467 0
-940 -468 0
-940 -469 0
-940 -470 0
-940 -471 0
-940 -475 0
-940 -476 0
-940 -477 0
-940 -478 0
-940 -479 0
-940 -480 0
-940 -481 0
-940 -482 0
-940 -483 0
-940 -484 0
-940 -485 0
-940 -486 0
-940 -487 0
-940 -488 0
-940 -492 0
-940 -493 0
-940 -494 0
-940 -495 0
-940 -496 0
-940 -497 0
-940 -498 0
-940 -499 0
-940 -500 0
-940 -501 0
-940 -502 0
-940 -503 0
-940 -504 0
-940 -505 0
-940 -509 0
-940 -510 0
-941 -460 0
-941 -461 0
-941 -462 0
-941 -463 0
-941 -464 0
-941 -465 0
-941 -466 0
-941 -467 0
-941 -468 0
-941 -469 0
-941 -470 0
-941 -471 0
-941 -472 0
-941 -476 0
-941 -477 0
-941 -478 0
-941 -479 0
-941 -480 0
-941 -481 0
-941 -482 0
-941 -483 0
-941 -484 0
-941 -485 0
-941 -486 0
-941 -487 0
-941 -488 0
-941 -489 0
-941 -493 0
-941 -494 0
-941 -495 0
-941 -496 0
-941 -497 0
-941 -498 0
-941 -499 0
-941 -500 0
-941 -501 0
-941 -502 0
-941 -503 0
-941 -504 0
-941 -505 0
-941 -506 0
-941 -510 0
-942 -460 0
-942 -461 0
-942 -462 0
-942 -463 0
-942 -464 0
-942 -465 0
-942 -466 0
-942 -467 0
-942 -468 0
-942 -469 0
-942 -470 0
-942 -471 0
-942 -472 0
-942 -473 0
-942 -477 0
-942 -478 0
-942 -479 0
-942 -480 0
-942 -481 0
-942 -482 0
-942 -483 0
-942 -484 0
-942 -485 0
-942 -486 0
-942 -487 0
-942 -488 0
-942 -489 0
-942 -490 0
-942 -494 0
-942 -495 0
-942 -496 0
-942 -497 0
-942 -498 0
-942 -499 0
-942 -500 0
-942 -501 0
-942 -502 0
-942 -503 0
-942 -504 0
-942 -505 0
-942 -506 0
-942 -507 0
-511 -528 0
-511 -545 0
-528 -545 0
-512 -529 0
-512 -546 0
-529 -546 0
-513 -530 0
-513 -547 0
-530 -547 0
-514 -531 0
-514 -548 0
-531 -548 0
-515 -532 0
-515 -549 0
-532 -549 0
-516 -533 0
-516 -550 0
-533 -550 0
-517 -534 0
-517 -551 0
-534 -551 0
-518 -535 0
-518 -552 0
-535 -552 0
-519 -536 0
-519 -553 0
-536 -553 0
-520 -537 0
-520 -554 0
-537 -554 0
-521 -538 0
-521 -555 0
-538 -555 0
-522 -539 0
-522 -556 0
-539 -556 0
-523 -540 0
-523 -557 0
-540 -557 0
-524 -541 0
-524 -558 0
-541 -558 0
-525 -542 0
-525 -559 0
-542 -559 0
-526 -543 0
-526 -560 0
-543 -560 0
-527 -544 0
-527 -561 0
-544 -561 0
943 944 945 946 947 948 949 950 951 952 953 954 955 956 957 0
-943 -944 0
-943 -945 0
-943 -946 0
-943 -947 0
-943 -948 0
-943 -949 0
-943 -950 0
-943 -951 0
-943 -952 0
-943 -953 0
-943 -954 0
-943 -955 0
-943 -956 0
-943 -957 0
-944 -945 0
-944 -946 0
-944 -947 0
-944 -948 0
-944 -949 0
-944 -950 0
-944 -951 0
-944 -952 0
-944 -953 0
-944 -954 0
-944 -955 0
-944 -956 0
-944 -957 0
-945 -946 0
-945 -947 0
-945 -948 0
-945 -949 0
-945 -950 0
-945 -951 0
-945 -952 0
-945 -953 0
-945 -954 0
-945 -955 0
-945 -956 0
-945 -957 0
-946 -947 0
-946 -948 0
-946 -949 0
-946 -950 0
-946 -951 0
-946 -952 0
-946 -953 0
-946 -954 0
-946 -955 0
-946 -956 0
-946 -957 0
-947 -948 0
-947 -949 0
-947 -950 0
-947 -951 0
-947 -952 0
-947 -953 0
-947 -954 0
-947 -955 0
-947 -956 0
-947 -957 0
-948 -949 0
-948 -950 0
-948 -951 0
-948 -952 0
-948 -953 0
-948 -954 0
-948 -955 0
-948 -956 0
-948 -957 0
-949 -950 0
-949 -951 0
-949 -952 0
-949 -953 0
-949 -954 0
-949 -955 0
-949 -956 0
-949 -957 0
-950 -951 0
-950 -952 0
-950 -953 0
-950 -954 0
-950 -955 0
-950 -956 0
-950 -957 0
-951 -952 0
-951 -953 0
-951 -954 0
-951 -955 0
-951 -956 0
-951 -957 0
-952 -953 0
-952 -954 0
-952 -955 0
-952 -956 0
-952 -957 0
-953 -954 0
-953 -955 0
-953 -956 0
-953 -957 0
-954 -955 0
-954 -956 0
-954 -957 0
-955 -956 0
-955 -957 0
-956 -957 0
-511 943 0
-512 943 944 0
-513 943 944 945 0
-514 944 945 946 0
-515 945 946 947 0
-516 946 947 948 0
-517 947 948 949 0
-518 948 949 950 0
-519 949 950 951 0
-520 950 951 952 0
-521 951 952 953 0
-522 952 953 954 0
-523 953 954 955 0
-524 954 955 956 0
-525 955 956 957 0
-526 956 957 0
-527 957 0
-528 943 0
-529 943 944 0
-530 943 944 945 0
-531 944 945 946 0
-532 945 946 947 0
-533 946 947 948 0
-534 947 948 949 0
-535 948 949 950 0
-536 949 950 951 0
-537 950 951 952 0
-538 951 952 953 0
-539 952 953 954 0
-540 953 954 955 0
-541 954 955 956 0
-542 955 956 957 0
-543 956 957 0
-544 957 0
-545 943 0
-546 943 944 0
-547 943 944 945 0
-548 944 945 946 0
-549 945 946 947 0
-550 946 947 948 0
-551 947 948 949 0
-552 948 949 950 0
-553 949 950 951 0
-554 950 951 952 0
-555 951 952 953 0
-556 952 953 954 0
-557 953 954 955 0
-558 954 955 956 0
-559 955 956 957 0
-560 956 957 0
-561 957 0
-943 -514 0
-943 -515 0
-943 -516 0
-943 -517 0
-943 -518 0
-943 -519 0
-943 -520 0
-943 -521 0
-943 -522 0
-943 -523 0
-943 -524 0
-943 -525 0
-943 -526 0
-943 -527 0
-943 -531 0
-943 -532 0
-943 -533 0
-943 -534 0
-943 -535 0
-943 -536 0
-943 -537 0
-943 -538 0
-943 -539 0
-943 -540 0
-943 -541 0
-943 -542 0
-943 -543 0
-943 -544 0
-943 -548 0
-943 -549 0
-943 -550 0
-943 -551 0
-943 -552 0
-943 -553 0
-943 -554 0
-943 -555 0
-943 -556 0
-943 -557 0
-943 -558 0
-943 -559 0
-943 -560 0
-943 -561 0
-944 -511 0
-944 -515 0
-944 -516 0
-944 -517 0
-944 -518 0
-944 -519 0
-944 -520 0
-944 -521 0
-944 -522 0
-944 -523 0
-944 -524 0
-944 -525 0
-944 -526 0
-944 -527 0
-944 -528 0
-944 -532 0
-944 -533 0
-944 -534 0
-944 -535 0
-944 -536 0
-944 -537 0
-944 -538 0
-944 -539 0
-944 -540 0
-944 -541 0
-944 -542 0
-944 -543 0
-944 -544 0
-944 -545 0
-944 -549 0
-944 -550 0
-944 -551 0
-944 -552 0
-944 -553 0
-944 -554 0
-944 -555 0
-944 -556 0
-944 -557 0
-944 -558 0
-944 -559 0
-944 -560 0
-944 -561 0
-945 -511 0
-945 -512 0
-945 -516 0
-945 -517 0
-945 -518 0
-945 -519 0
-945 -520 0
-945 -521 0
-945 -522 0
-945 -523 0
-945 -524 0
-945 -525 0
-945 -526 0
-945 -527 0
-945 -528 0
-945 -529 0
-945 -533 0
-945 -534 0
-945 -535 0
-945 -536 0
-945 -537 0
-945 -538 0
-945 -539 0
-945 -540 0
-945 -541 0
-945 -542 0
-945 -543 0
-945 -544 0
-945 -545 0
-945 -546 0
-945 -550 0
-945 -551 0
-945 -552 0
-945 -553 0
-945 -554 0
-945 -555 0
-945 -556 0
-945 -557 0
-945 -558 0
-945 -559 0
-945 -560 0
-945 -561 0
-946 -511 0
-946 -512 0
-946 -513 0
-946 -517 0
-946 -518 0
-946 -519 0
-946 -520 0
-946 -521 0
-946 -522 0
-946 -523 0
-946 -524 0
-946 -525 0
-946 -526 0
-946 -527 0
-946 -528 0
-946 -529 0
-946 -530 0
-946 -534 0
-946 -535 0
-946 -536 0
-946 -537 0
-946 -538 0
-946 -539 0
-946 -540 0
-946 -541 0
-946 -542 0
-946 -543 0
-946 -544 0
-946 -545 0
-946 -546 0
-946 -547 0
-946 -551 0
-946 -552 0
-946 -553 0
-946 -554 0
-946 -555 0
-946 -556 0
-946 -557 0
-946 -558 0
-946 -559 0
-946 -560 0
-946 -561 0
-947 -511 0
-947 -512 0
-947 -513 0
-947 -514 0
-947 -518 0
-947 -519 0
-947 -520 0
-947 -521 0
-947 -522 0
-947 -523 0
-947 -524 0
-947 -525 0
-947 -526 0
-947 -527 0
-947 -528 0
-947 -529 0
-947 -530 0
-947 -531 0
-947 -535 0
-947 -536 0
-947 -537 0
-947 -538 0
-947 -539 0
-947 -540 0
-947 -541 0
-947 -542 0
-947 -543 0
-947 -544 0
-947 -545 0
-947 -546 0
-947 -547 0
-947 -548 0
-947 -552 0
-947 -553 0
-947 -554 0
-947 -555 0
-947 -556 0
-947 -557 0
-947 -558 0
-947 -559 0
-947 -560 0
-947 -561 0
-948 -511 0
-948 -512 0
-948 -513 0
-948 -514 0
-948 -515 0
-948 -519 0
-948 -520 0
-948 -521 0
-948 -522 0
-948 -523 0
-948 -524 0
-948 -525 0
-948 -526 0
-948 -527 0
-948 -528 0
-948 -529 0
-948 -530 0
-948 -531 0
-948 -532 0
-948 -536 0
-948 -537 0
-948 -538 0
-948 -539 0
-948 -540 0
-948 -541 0
-948 -542 0
-948 -543 0
-948 -544 0
-948 -545 0
-948 -546 0
-948 -547 0
-948 -548 0
-948 -549 0
-948 -553 0
-948 -554 0
-948 -555 0
-948 -556 0
-948 -557 0
-948 -558 0
-948 -559 0
-948 -560 0
-948 -561 0
-949 -511 0
-949 -512 0
-949 -513 0
-949 -514 0
-949 -515 0
-949 -516 0
-949 -520 0
-949 -521 0
-949 -522 0
-949 -523 0
-949 -524 0
-949 -525 0
-949 -526 0
-949 -527 0
-949 -528 0
-949 -529 0
-949 -530 0
-949 -531 0
-949 -532 0
-949 -533 0
-949 -537 0
-949 -538 0
-949 -539 0
-949 -540 0
-949 -541 0
-949 -542 0
-949 -543 0
-949 -544 0
-949 -545 0
-949 -546 0
-949 -547 0
-949 -548 0
-949 -549 0
-949 -550 0
-949 -554 0
-949 -555 0
-949 -556 0
-949 -557 0
-949 -558 0
-949 -559 0
-949 -560 0
-949 -561 0
-950 -511 0
-950 -512 0
-950 -513 0
-950 -514 0
-950 -515 0
-950 -516 0
-950 -517 0
-950 -521 0
-950 -522 0
-950 -523 0
-950 -524 0
-950 -525 0
-950 -526 0
-950 -527 0
-950 -528 0
-950 -529 0
-950 -530 0
-950 -531 0
-950 -532 0
-950 -533 0
-950 -534 0
-950 -538 0
-950 -539 0
-950 -540 0
-950 -541 0
-950 -542 0
-950 -543 0
-950 -544 0
-950 -545 0
-950 -546 0
-950 -547 0
-950 -548 0
-950 -549 0
-950 -550 0
-950 -551 0
-950 -555 0
-950 -556 0
-950 -557 0
-950 -558 0
-950 -559 0
-950 -560 0
-950 -561 0
-951 -511 0
-951 -512 0
-951 -513 0
-951 -514 0
-951 -515 0
-951 -516 0
-951 -517 0
-951 -518 0
-951 -522 0
-951 -523 0
-951 -524 0
-951 -525 0
-951 -526 0
-951 -527 0
-951 -528 0
-951 -529 0
-951 -530 0
-951 -531 0
-951 -532 0
-951 -533 0
-951 -534 0
-951 -535 0
-951 -539 0
-951 -540 0
-951 -541 0
-951 -542 0
-951 -543 0
-951 -544 0
-951 -545 0
-951 -546 0
-951 -547 0
-951 -548 0
-951 -549 0
-951 -550 0
-951 -551 0
-951 -552 0
-951 -556 0
-951 -557 0
-951 -558 0
-951 -559 0
-951 -560 0
-951 -561 0
-952 -511 0
-952 -512 0
-952 -513 0
-952 -514 0
-952 -515 0
-952 -516 0
-952 -517 0
-952 -518 0
-952 -519 0
-952 -523 0
-952 -524 0
-952 -525 0
-952 -526 0
-952 -527 0
-952 -528 0
-952 -529 0
-952 -530 0
-952 -531 0
-952 -532 0
-952 -533 0
-952 -534 0
-952 -535 0
-952 -536 0
-952 -540 0
-952 -541 0
-952 -542 0
-952 -543 0
-952 -544 0
-952 -545 0
-952 -546 0
-952 -547 0
-952 -548 0
-952 -549 0
-952 -550 0
-952 -551 0
-952 -552 0
-952 -553 0
-952 -557 0
-952 -558 0
-952 -559 0
-952 -560 0
-952 -561 0
-953 -511 0
-953 -512 0
-953 -513 0
-953 -514 0
-953 -515 0
-953 -516 0
-953 -517 0
-953 -518 0
-953 -519 0
-953 -520 0
-953 -524 0
-953 -525 0
-953 -526 0
-953 -527 0
-953 -528 0
-953 -529 0
-953 -530 0
-953 -531 0
-953 -532 0
-953 -533 0
-953 -534 0
-953 -535 0
-953 -536 0
-953 -537 0
-953 -541 0
-953 -542 0
-953 -543 0
-953 -544 0
-953 -545 0
-953 -546 0
-953 -547 0
-953 -548 0
-953 -549 0
-953 -550 0
-953 -551 0
-953 -552 0
-953 -553 0
-953 -554 0
-953 -558 0
-953 -559 0
-953 -560 0
-953 -561 0
-954 -511 0
-954 -512 0
-954 -513 0
-954 -514 0
-954 -515 0
-954 -516 0
-954 -517 0
-954 -518 0
-954 -519 0
-954 -520 0
-954 -521 0
-954 -525 0
-954 -526 0
-954 -527 0
-954 -528 0
-954 -529 0
-954 -530 0
-954 -531 0
-954 -532 0
-954 -533 0
-954 -534 0
-954 -535 0
-954 -536 0
-954 -537 0
-954 -538 0
-954 -542 0
-954 -543 0
-954 -544 0
-954 -545 0
-954 -546 0
-954 -547 0
-954 -548 0
-954 -549 0
-954 -550 0
-954 -551 0
-954 -552 0
-954 -553 0
-954 -554 0
-954 -555 0
-954 -559 0
-954 -560 0
-954 -561 0
-955 -511 0
-955 -512 0
-955 -513 0
-955 -514 0
-955 -515 0
-955 -516 0
-955 -517 0
-955 -518 0
-955 -519 0
-955 -520 0
-955 -521 0
-955 -522 0
-955 -526 0
-955 -527 0
-955 -528 0
-955 -529 0
-955 -530 0
-955 -531 0
-955 -532 0
-955 -533 0
-955 -534 0
-955 -535 0
-955 -536 0
-955 -537 0
-955 -538 0
-955 -539 0
-955 -543 0
-955 -544 0
-955 -545 0
-955 -546 0
-955 -547 0
-955 -548 0
-955 -549 0
-955 -550 0
-955 -551 0
-955 -552 0
-955 -553 0
-955 -554 0
-955 -555 0
-955 -556 0
-955 -560 0
-955 -561 0
-956 -511 0
-956 -512 0
-956 -513 0
-956 -514 0
-956 -515 0
-956 -516 0
-956 -517 0
-956 -518 0
-956 -519 0
-956 -520 0
-956 -521 0
-956 -522 0
-956 -523 0
-956 -527 0
-956 -528 0
-956 -529 0
-956 -530 0
-956 -531 0
-956 -532 0
-956 -533 0
-956 -534 0
-956 -535 0
-956 -536 0
-956 -537 0
-956 -538 0
-956 -539 0
-956 -540 0
-956 -544 0
-956 -545 0
-956 -546 0
-956 -547 0
-956 -548 0
-956 -549 0
-956 -550 0
-956 -551 0
-956 -552 0
-956 -553 0
-956 -554 0
-956 -555 0
-956 -556 0
-956 -557 0
-956 -561 0
-957 -511 0
-957 -512 0
-957 -513 0
-957 -514 0
-957 -515 0
-957 -516 0
-957 -517 0
-957 -518 0
-957 -519 0
-957 -520 0
-957 -521 0
-957 -522 0
-957 -523 0
-957 -524 0
-957 -528 0
-957 -529 0
-957 -530 0
-957 -531 0
-957 -532 0
-957 -533 0
-957 -534 0
-957 -535 0
-957 -536 0
-957 -537 0
-957 -538 0
-957 -539 0
-957 -540 0
-957 -541 0
-957 -545 0
-957 -546 0
-957 -547 0
-957 -548 0
-957 -549 0
-957 -550 0
-957 -551 0
-957 -552 0
-957 -553 0
-957 -554 0
-957 -555 0
-957 -556 0
-957 -557 0
-957 -558 0
-562 -579 0
-562 -596 0
-579 -596 0
-563 -580 0
-563 -597 0
-580 -597 0
-564 -581 0
-564 -598 0
-581 -598 0
-565 -582 0
-565 -599 0
-582 -599 0
-566 -583 0
-566 -600 0
-583 -600 0
-567 -584 0
-567 -601 0
-584 -601 0
-568 -585 0
-568 -602 0
-585 -602 0
-569 -586 0
-569 -603 0
-586 -603 0
-570 -587 0
-570 -604 0
-587 -604 0
-571 -588 0
-571 -605 0
-588 -605 0
-572 -589 0
-572 -606 0
-589 -606 0
-573 -590 0
-573 -607 0
-590 -607 0
-574 -591 0
-574 -608 0
-591 -608 0
-575 -592 0
-575 -609 0
-592 -609 0
-576 -593 0
-576 -610 0
-593 -610 0
-577 -594 0
-577 -611 0
-594 -611 0
-578 -595 0
-578 -612 0
-595 -612 0
958 959 960 961 962 963 964 965 966 967 968 969 970 971 972 0
-958 -959 0
-958 -960 0
-958 -961 0
-958 -962 0
-958 -963 0
-958 -964 0
-958 -965 0
-958 -966 0
-958 -967 0
-958 -968 0
-958 -969 0
-958 -970 0
-958 -971 0
-958 -972 0
-959 -960 0
-959 -961 0
-959 -962 0
-959 -963 0
-959 -964 0
-959 -965 0
-959 -966 0
-959 -967 0
-959 -968 0
-959 -969 0
-959 -970 0
-959 -971 0
-959 -972 0
-960 -961 0
-960 -962 0
-960 -963 0
-960 -964 0
-960 -965 0
-960 -966 0
-960 -967 0
-960 -968 0
-960 -969 0
-960 -970 0
-960 -971 0
-960 -972 0
-961 -962 0
-961 -963 0
-961 -964 0
-961 -965 0
-961 -966 0
-961 -967 0
-961 -968 0
-961 -969 0
-961 -970 0
-961 -971 0
-961 -972 0
-962 -963 0
-962 -964 0
-962 -965 0
-962 -966 0
-962 -967 0
-962 -968 0
-962 -969 0
-962 -970 0
-962 -971 0
-962 -972 0
-963 -964 0
-963 -965 0
-963 -966 0
-963 -967 0
-963 -968 0
-963 -969 0
-963 -970 0
-963 -971 0
-963 -972 0
-964 -965 0
-964 -966 0
-964 -967 0
-964 -968 0
-964 -969 0
-964 -970 0
-964 -971 0
-964 -972 0
-965 -966 0
-965 -967 0
-965 -968 0
-965 -969 0
-965 -970 0
-965 -971 0
-965 -972 0
-966 -967 0
-966 -968 0
-966 -969 0
-966 -970 0
-966 -971 0
-966 -972 0
-967 -968 0
-967 -969 0
-967 -970 0
-967 -971 0
-967 -972 0
-968 -969 0
-968 -970 0
-968 -971 0
-968 -972 0
-969 -970 0
-969 -971 0
-969 -972 0
-970 -971 0
-970 -972 0
-971 -972 0
-562 958 0
-563 958 959 0
-564 958 959 960 0
-565 959 960 961 0
-566 960 961 962 0
-567 961 962 963 0
-568 962 963 964 0
-569 963 964 965 0
-570 964 965 966 0
-571 965 966 967 0
-572 966 967 968 0
-573 967 968 969 0
-574 968 969 970 0
-575 969 970 971 0
-576 970 971 972 0
-577 971 972 0
-578 972 0
-579 958 0
-580 958 959 0
-581 958 959 960 0
-582 959 960 961 0
-583 960 961 962 0
-584 961 962 963 0
-585 962 963 964 0
-586 963 964 965 0
-587 964 965 966 0
-588 965 966 967 0
-589 966 967 968 0
-590 967 968 969 0
-591 968 969 970 0
-592 969 970 971 0
-593 970 971 972 0
-594 971 972 0
-595 972 0
-596 958 0
-597 958 959 0
-598 958 959 960 0
-599 959 960 961 0
-600 960 961 962 0
-601 961 962 963 0
-602 962 963 964 0
-603 963 964 965 0
-604 964 965 966 0
-605 965 966 967 0
-606 966 967 968 0
-607 967 968 969 0
-608 968 969 970 0
-609 969 970 971 0
-610 970 971 972 0
-611 971 972 0
-612 972 0
-958 -565 0
-958 -566 0
-958 -567 0
-958 -568 0
-958 -569 0
-958 -570 0
-958 -571 0
-958 -572 0
-958 -573 0
-958 -574 0
-958 -575 0
-958 -576 0
-958 -577 0
-958 -578 0
-958 -582 0
-958 -583 0
-958 -584 0
-958 -585 0
-958 -586 0
-958 -587 0
-958 -588 0
-958 -589 0
-958 -590 0
-958 -591 0
-958 -592 0
-958 -593 0
-958 -594 0
-958 -595 0
-958 -599 0
-958 -600 0
-958 -601 0
-958 -602 0
-958 -603 0
-958 -604 0
-958 -605 0
-958 -606 0
-958 -607 0
-958 -608 0
-958 -609 0
-958 -610 0
-958 -611 0
-958 -612 0
-959 -562 0
-959 -566 0
-959 -567 0
-959 -568 0
-959 -569 0
-959 -570 0
-959 -571 0
-959 -572 0
-959 -573 0
-959 -574 0
-959 -575 0
-959 -576 0
-959 -577 0
-959 -578 0
-959 -579 0
-959 -583 0
-959 -584 0
-959 -585 0
-959 -586 0
-959 -587 0
-959 -588 0
-959 -589 0
-959 -590 0
-959 -591 0
-959 -592 0
-959 -593 0
-959 -594 0
-959 -595 0
-959 -596 0
-959 -600 0
-959 -601 0
-959 -602 0
-959 -603 0
-959 -604 0
-959 -605 0
-959 -606 0
-959 -607 0
-959 -608 0
-959 -609 0
-959 -610 0
-959 -611 0
-959 -612 0
-960 -562 0
-960 -563 0
-960 -567 0
-960 -568 0
-960 -569 0
-960 -570 0
-960 -571 0
-960 -572 0
-960 -573 0
-960 -574 0
-960 -575 0
-960 -576 0
-960 -577 0
-960 -578 0
-960 -579 0
-960 -580 0
-960 -584 0
-960 -585 0
-960 -586 0
-960 -587 0
-960 -588 0
-960 -589 0
-960 -590 0
-960 -591 0
-960 -592 0
-960 -593 0
-960 -594 0
-960 -595 0
-960 -596 0
-960 -597 0
-960 -601 0
-960 -602 0
-960 -603 0
-960 -604 0
-960 -605 0
-960 -606 0
-960 -607 0
-960 -608 0
-960 -609 0
-960 -610 0
-960 -611 0
-960 -612 0
-961 -562 0
-961 -563 0
-961 -564 0
-961 -568 0
-961 -569 0
-961 -570 0
-961 -571 0
-961 -572 0
-961 -573 0
-961 -574 0
-961 -575 0
-961 -576 0
-961 -577 0
-961 -578 0
-961 -579 0
-961 -580 0
-961 -581 0
-961 -585 0
-961 -586 0
-961 -587 0
-961 -588 0
-961 -589 0
-961 -590 0
-961 -591 0
-961 -592 0
-961 -593 0
-961 -594 0
-961 -595 0
-961 -596 0
-961 -597 0
-961 -598 0
-961 -602 0
-961 -603 0
-961 -604 0
-961 -605 0
-961 -606 0
-961 -607 0
-961 -608 0
-961 -609 0
-961 -610 0
-961 -611 0
-961 -612 0
-962 -562 0
-962 -563 0
-962 -564 0
-962 -565 0
-962 -569 0
-962 -570 0
-962 -571 0
-962 -572 0
-962 -573 0
-962 -574 0
-962 -575 0
-962 -576 0
-962 -577 0
-962 -578 0
-962 -579 0
-962 -580 0
-962 -581 0
-962 -582 0
-962 -586 0
-962 -587 0
-962 -588 0
-962 -589 0
-962 -590 0
-962 -591 0
-962 -592 0
-962 -593 0
-962 -594 0
-962 -595 0
-962 -596 0
-962 -597 0
-962 -598 0
-962 -599 0
-962 -603 0
-962 -604 0
-962 -605 0
-962 -606 0
-962 -607 0
-962 -608 0
-962 -609 0
-962 -610 0
-962 -611 0
-962 -612 0
-963 -562 0
-963 -563 0
-963 -564 0
-963 -565 0
-963 -566 0
-963 -570 0
-963 -571 0
-963 -572 0
-963 -573 0
-963 -574 0
-963 -575 0
-963 -576 0
-963 -577 0
-963 -578 0
-963 -579 0
-963 -580 0
-963 -581 0
-963 -582 0
-963 -583 0
-963 -587 0
-963 -588 0
-963 -589 0
-963 -590 0
-963 -591 0
-963 -592 0
-963 -593 0
-963 -594 0
-963 -595 0
-963 -596 0
-963 -597 0
-963 -598 0
-963 -599 0
-963 -600 0
-963 -604 0
-963 -605 0
-963 -606 0
-963 -607 0
-963 -608 0
-963 -609 0
-963 -610 0
-963 -611 0
-963 -612 0
-964 -562 0
-964 -563 0
-964 -564 0
-964 -565 0
-964 -566 0
-964 -567 0
-964 -571 0
-964 -572 0
-964 -573 0
-964 -574 0
-964 -575 0
-964 -576 0
-964 -577 0
-964 -578 0
-964 -579 0
-964 -580 0
-964 -581 0
-964 -582 0
-964 -583 0
-964 -584 0
-964 -588 0
-964 -589 0
-964 -590 0
-964 -591 0
-964 -592 0
-964 -593 0
-964 -594 0
-964 -595 0
-964 -596 0
-964 -597 0
-964 -598 0
-964 -599 0
-964 -600 0
-964 -601 0
-964 -605 0
-964 -606 0
-964 -607 0
-964 -608 0
-964 -609 0
-964 -610 0
-964 -611 0
-964 -612 0
-965 -562 0
-965 -563 0
-965 -564 0
-965 -565 0
-965 -566 0
-965 -567 0
-965 -568 0
-965 -572 0
-965 -573 0
-965 -574 0
-965 -575 0
-965 -576 0
-965 -577 0
-965 -578 0
-965 -579 0
-965 -580 0
-965 -581 0
-965 -582 0
-965 -583 0
-965 -584 0
-965 -585 0
-965 -589 0
-965 -590 0
-965 -591 0
-965 -592 0
-965 -593 0
-965 -594 0
-965 -595 0
-965 -596 0
-965 -597 0
-965 -598 0
-965 -599 0
-965 -600 0
-965 -601 0
-965 -602 0
-965 -606 0
-965 -607 0
-965 -608 0
-965 -609 0
-965 -610 0
-965 -611 0
-965 -612 0
-966 -562 0
-966 -563 0
-966 -564 0
-966 -565 0
-966 -566 0
-966 -567 0
-966 -568 0
-966 -569 0
-966 -573 0
-966 -574 0
-966 -575 0
-966 -576 0
-966 -577 0
-966 -578 0
-966 -579 0
-966 -580 0
-966 -581 0
-966 -582 0
-966 -583 0
-966 -584 0
-966 -585 0
-966 -586 0
-966 -590 0
-966 -591 0
-966 -592 0
-966 -593 0
-966 -594 0
-966 -595 0
-966 -596 0
-966 -597 0
-966 -598 0
-966 -599 0
-966 -600 0
-966 -601 0
-966 -602 0
-966 -603 0
-966 -607 0
-966 -608 0
-966 -609 0
-966 -610 0
-966 -611 0
-966 -612 0
-967 -562 0
-967 -563 0
-967 -564 0
-967 -565 0
-967 -566 0
-967 -567 0
-967 -568 0
-967 -569 0
-967 -570 0
-967 -574 0
-967 -575 0
-967 -576 0
-967 -577 0
-967 -578 0
-967 -579 0
-967 -580 0
-967 -581 0
-967 -582 0
-967 -583 0
-967 -584 0
-967 -585 0
-967 -586 0
-967 -587 0
-967 -591 0
-967 -592 0
-967 -593 0
-967 -594 0
-967 -595 0
-967 -596 0
-967 -597 0
-967 -598 0
-967 -599 0
-967 -600 0
-967 -601 0
-967 -602 0
-967 -603 0
-967 -604 0
-967 -608 0
-967 -609 0
-967 -610 0
-967 -611 0
-967 -612 0
-968 -562 0
-968 -563 0
-968 -564 0
-968 -565 0
-968 -566 0
-968 -567 0
-968 -568 0
-968 -569 0
-968 -570 0
-968 -571 0
-968 -575 0
-968 -576 0
-968 -577 0
-968 -578 0
-968 -579 0
-968 -580 0
-968 -581 0
-968 -582 0
-968 -583 0
-968 -584 0
-968 -585 0
-968 -586 0
-968 -587 0
-968 -588 0
-968 -592 0
-968 -593 0
-968 -594 0
-968 -595 0
-968 -596 0
-968 -597 0
-968 -598 0
-968 -599 0
-968 -600 0
-968 -601 0
-968 -602 0
-968 -603 0
-968 -604 0
-968 -605 0
-968 -609 0
-968 -610 0
-968 -611 0
-968 -612 0
-969 -562 0
-969 -563 0
-969 -564 0
-969 -565 0
-969 -566 0
-969 -567 0
-969 -568 0
-969 -569 0
-969 -570 0
-969 -571 0
-969 -572 0
-969 -576 0
-969 -577 0
-969 -578 0
-969 -579 0
-969 -580 0
-969 -581 0
-969 -582 0
-969 -583 0
-969 -584 0
-969 -585 0
-969 -586 0
-969 -587 0
-969 -588 0
-969 -589 0
-969 -593 0
-969 -594 0
-969 -595 0
-969 -596 0
-969 -597 0
-969 -598 0
-969 -599 0
-969 -600 0
-969 -601 0
-969 -602 0
-969 -603 0
-969 -604 0
-969 -605 0
-969 -606 0
-969 -610 0
-969 -611 0
-969 -612 0
-970 -562 0
-970 -563 0
-970 -564 0
-970 -565 0
-970 -566 0
-970 -567 0
-970 -568 0
-970 -569 0
-970 -570 0
-970 -571 0
-970 -572 0
-970 -573 0
-970 -577 0
-970 -578 0
-970 -579 0
-970 -580 0
-970 -581 0
-970 -582 0
-970 -583 0
-970 -584 0
-970 -585 0
-970 -586 0
-970 -587 0
-970 -588 0
-970 -589 0
-970 -590 0
-970 -594 0
-970 -595 0
-970 -596 0
-970 -597 0
-970 -598 0
-970 -599 0
-970 -600 0
-970 -601 0
-970 -602 0
-970 -603 0
-970 -604 0
-970 -605 0
-970 -606 0
-970 -607 0
-970 -611 0
-970 -612 0
-971 -562 0
-971 -563 0
-971 -564 0
-971 -565 0
-971 -566 0
-971 -567 0
-971 -568 0
-971 -569 0
-971 -570 0
-971 -571 0
-971 -572 0
-971 -573 0
-971 -574 0
-971 -578 0
-971 -579 0
-971 -580 0
-971 -581 0
-971 -582 0
-971 -583 0
-971 -584 0
-971 -585 0
-971 -586 0
-971 -587 0
-971 -588 0
-971 -589 0
-971 -590 0
-971 -591 0
-971 -595 0
-971 -596 0
-971 -597 0
-971 -598 0
-971 -599 0
-971 -600 0
-971 -601 0
-971 -602 0
-971 -603 0
-971 -604 0
-971 -605 0
-971 -606 0
-971 -607 0
-971 -608 0
-971 -612 0
-972 -562 0
-972 -563 0
-972 -564 0
-972 -565 0
-972 -566 0
-972 -567 0
-972 -568 0
-972 -569 0
-972 -570 0
-972 -571 0
-972 -572 0
-972 -573 0
-972 -574 0
-972 -575 0
-972 -579 0
-972 -580 0
-972 -581 0
-972 -582 0
-972 -583 0
-972 -584 0
-972 -585 0
-972 -586 0
-972 -587 0
-972 -588 0
-972 -589 0
-972 -590 0
-972 -591 0
-972 -592 0
-972 -596 0
-972 -597 0
-972 -598 0
-972 -599 0
-972 -600 0
-972 -601 0
-972 -602 0
-972 -603 0
-972 -604 0
-972 -605 0
-972 -606 0
-972 -607 0
-972 -608 0
-972 -609 0
-613 -630 0
-613 -647 0
-630 -647 0
-614 -631 0
-614 -648 0
-631 -648 0
-615 -632 0
-615 -649 0
-632 -649 0
-616 -633 0
-616 -650 0
-633 -650 0
-617 -634 0
-617 -651 0
-634 -651 0
-618 -635 0
-618 -652 0
-635 -652 0
-619 -636 0
-619 -653 0
-636 -653 0
-620 -637 0
-620 -654 0
-637 -654 0
-621 -638 0
-621 -655 0
-638 -655 0
-622 -639 0
-622 -656 0
-639 -656 0
-623 -640 0
-623 -657 0
-640 -657 0
-624 -641 0
-624 -658 0
-641 -658 0
-625 -642 0
-625 -659 0
-642 -659 0
-626 -643 0
-626 -660 0
-643 -660 0
-627 -644 0
-627 -661 0
-644 -661 0
-628 -645 0
-628 -662 0
-645 -662 0
-629 -646 0
-629 -663 0
-646 -663 0
973 974 975 976 977 978 979 980 981 982 983 984 985 986 987 0
-973 -974 0
-973 -975 0
-973 -976 0
-973 -977 0
-973 -978 0
-973 -979 0
-973 -980 0
-973 -981 0
-973 -982 0
-973 -983 0
-973 -984 0
-973 -985 0
-973 -986 0
-973 -987 0
-974 -975 0
-974 -976 0
-974 -977 0
-974 -978 0
-974 -979 0
-974 -980 0
-974 -981 0
-974 -982 0
-974 -983 0
-974 -984 0
-974 -985 0
-974 -986 0
-974 -987 0
-975 -976 0
-975 -977 0
-975 -978 0
-975 -979 0
-975 -980 0
-975 -981 0
-975 -982 0
-975 -983 0
-975 -984 0
-975 -985 0
-975 -986 0
-975 -987 0
-976 -977 0
-976 -978 0
-976 -979 0
-976 -980 0
-976 -981 0
-976 -982 0
-976 -983 0
-976 -984 0
-976 -985 0
-976 -986 0
-976 -987 0
-977 -978 0
-977 -979 0
-977 -980 0
-977 -981 0
-977 -982 0
-977 -983 0
-977 -984 0
-977 -985 0
-977 -986 0
-977 -987 0
-978 -979 0
-978 -980 0
-978 -981 0
-978 -982 0
-978 -983 0
-978 -984 0
-978 -985 0
-978 -986 0
-978 -987 0
-979 -980 0
-979 -981 0
-979 -982 0
-979 -983 0
-979 -984 0
-979 -985 0
-979 -986 0
-979 -987 0
-980 -981 0
-980 -982 0
-980 -983 0
-980 -984 0
-980 -985 0
-980 -986 0
-980 -987 0
-981 -982 0
-981 -983 0
-981 -984 0
-981 -985 0
-981 -986 0
-981 -987 0
-982 -983 0
-982 -984 0
-982 -985 0
-982 -986 0
-982 -987 0
-983 -984 0
-983 -985 0
-983 -986 0
-983 -987 0
-984 -985 0
-984 -986 0
-984 -987 0
-985 -986 0
-985 -987 0
-986 -987 0
-613 973 0
-614 973 974 0
-615 973 974 975 0
-616 974 975 976 0
-617 975 976 977 0
-618 976 977 978 0
-619 977 978 979 0
-620 978 979 980 0
-621 979 980 981 0
-622 980 981 982 0
-623 981 982 983 0
-624 982 983 984 0
-625 983 984 985 0
-626 984 985 986 0
-627 985 986 987 0
-628 986 987 0
-629 987 0
-630 973 0
-631 973 974 0
-632 973 974 975 0
-633 974 975 976 0
-634 975 976 977 0
-635 976 977 978 0
-636 977 978 979 0
-637 978 979 980 0
-638 979 980 981 0
-639 980 981 982 0
-640 981 982 983 0
-641 982 983 984 0
-642 983 984 985 0
-643 984 985 986 0
-644 985 986 987 0
-645 986 987 0
-646 987 0
-647 973 0
-648 973 974 0
-649 973 974 975 0
-650 974 975 976 0
-651 975 976 977 0
-652 976 977 978 0
-653 977 978 979 0
-654 978 979 980 0
-655 979 980 981 0
-656 980 981 982 0
-657 981 982 983 0
-658 982 983 984 0
-659 983 984 985 0
-660 984 985 986 0
-661 985 986 987 0
-662 986 987 0
-663 987 0
-973 -616 0
-973 -617 0
-973 -618 0
-973 -619 0
-973 -620 0
-973 -621 0
-973 -622 0
-973 -623 0
-973 -624 0
-973 -625 0
-973 -626 0
-973 -627 0
-973 -628 0
-973 -629 0
-973 -633 0
-973 -634 0
-973 -635 0
-973 -636 0
-973 -637 0
-973 -638 0
-973 -639 0
-973 -640 0
-973 -641 0
-973 -642 0
-973 -643 0
-973 -644 0
-973 -645 0
-973 -646 0
-973 -650 0
-973 -651 0
-973 -652 0
-973 -653 0
-973 -654 0
-973 -655 0
-973 -656 0
-973 -657 0
-973 -658 0
-973 -659 0
-973 -660 0
-973 -661 0
-973 -662 0
-973 -663 0
-974 -613 0
-974 -617 0
-974 -618 0
-974 -619 0
-974 -620 0
-974 -621 0
-974 -622 0
-974 -623 0
-974 -624 0
-974 -625 0
-974 -626 0
-974 -627 0
-974 -628 0
-974 -629 0
-974 -630 0
-974 -634 0
-974 -635 0
-974 -636 0
-974 -637 0
-974 -638 0
-974 -639 0
-974 -640 0
-974 -641 0
-974 -642 0
-974 -643 0
-974 -644 0
-974 -645 0
-974 -646 0
-974 -647 0
-974 -651 0
-974 -652 0
-974 -653 0
-974 -654 0
-974 -655 0
-974 -656 0
-974 -657 0
-974 -658 0
-974 -659 0
-974 -660 0
-974 -661 0
-974 -662 0
-974 -663 0
-975 -613 0
-975 -614 0
-975 -618 0
-975 -619 0
-975 -620 0
-975 -621 0
-975 -622 0
-975 -623 0
-975 -624 0
-975 -625 0
-975 -626 0
-975 -627 0
-975 -628 0
-975 -629 0
-975 -630 0
-975 -631 0
-975 -635 0
-975 -636 0
-975 -637 0
-975 -638 0
-975 -639 0
-975 -640 0
-975 -641 0
-975 -642 0
-975 -643 0
-975 -644 0
-975 -645 0
-975 -646 0
-975 -647 0
-975 -648 0
-975 -652 0
-975 -653 0
-975 -654 0
-975 -655 0
-975 -656 0
-975 -657 0
-975 -658 0
-975 -659 0
-975 -660 0
-975 -661 0
-975 -662 0
-975 -663 0
-976 -613 0
-976 -614 0
-976 -615 0
-976 -619 0
-976 -620 0
-976 -621 0
-976 -622 0
-976 -623 0
-976 -624 0
-976 -625 0
-976 -626 0
-976 -627 0
-976 -628 0
-976 -629 0
-976 -630 0
-976 -631 0
-976 -632 0
-976 -636 0
-976 -637 0
-976 -638 0
-976 -639 0
-976 -640 0
-976 -641 0
-976 -642 0
-976 -643 0
-976 -644 0
-976 -645 0
-976 -646 0
-976 -647 0
-976 -648 0
-976 -649 0
-976 -653 0
-976 -654 0
-976 -655 0
-976 -656 0
-976 -657 0
-976 -658 0
-976 -659 0
-976 -660 0
-976 -661 0
-976 -662 0
-976 -663 0
-977 -613 0
-977 -614 0
-977 -615 0
-977 -616 0
-977 -620 0
-977 -621 0
-977 -622 0
-977 -623 0
-977 -624 0
-977 -625 0
-977 -626 0
-977 -627 0
-977 -628 0
-977 -629 0
-977 -630 0
-977 -631 0
-977 -632 0
-977 -633 0
-977 -637 0
-977 -638 0
-977 -639 0
-977 -640 0
-977 -641 0
-977 -642 0
-977 -643 0
-977 -644 0
-977 -645 0
-977 -646 0
-977 -647 0
-977 -648 0
-977 -649 0
-977 -650 0
-977 -654 0
-977 -655 0
-977 -656 0
-977 -657 0
-977 -658 0
-977 -659 0
-977 -660 0
-977 -661 0
-977 -662 0
-977 -663 0
-978 -613 0
-978 -614 0
-978 -615 0
-978 -616 0
-978 -617 0
-978 -621 0
-978 -622 0
-978 -623 0
-978 -624 0
-978 -625 0
-978 -626 0
-978 -627 0
-978 -628 0
-978 -629 0
-978 -630 0
-978 -631 0
-978 -632 0
-978 -633 0
-978 -634 0
-978 -638 0
-978 -639 0
-978 -640 0
-978 -641 0
-978 -642 0
-978 -643 0
-978 -644 0
-978 -645 0
-978 -646 0
-978 -647 0
-978 -648 0
-978 -649 0
-978 -650 0
-978 -651 0
-978 -655 0
-978 -656 0
-978 -657 0
-978 -658 0
-978 -659 0
-978 -660 0
-978 -661 0
-978 -662 0
-978 -663 0
-979 -613 0
-979 -614 0
-979 -615 0
-979 -616 0
-979 -617 0
-979 -618 0
-979 -622 0
-979 -623 0
-979 -624 0
-979 -625 0
-979 -626 0
-979 -627 0
-979 -628 0
-979 -629 0
-979 -630 0
-979 -631 0
-979 -632 0
-979 -633 0
-979 -634 0
-979 -635 0
-979 -639 0
-979 -640 0
-979 -641 0
-979 -642 0
-979 -643 0
-979 -644 0
-979 -645 0
-979 -646 0
-979 -647 0
-979 -648 0
-979 -649 0
-979 -650 0
-979 -651 0
-979 -652 0
-979 -656 0
-979 -657 0
-979 -658 0
-979 -659 0
-979 -660 0
-979 -661 0
-979 -662 0
-979 -663 0
-980 -613 0
-980 -614 0
-980 -615 0
-980 -616 0
-980 -617 0
-980 -618 0
-980 -619 0
-980 -623 0
-980 -624 0
-980 -625 0
-980 -626 0
-980 -627 0
-980 -628 0
-980 -629 0
-980 -630 0
-980 -631 0
-980 -632 0
-980 -633 0
-980 -634 0
-980 -635 0
-980 -636 0
-980 -640 0
-980 -641 0
-980 -642 0
-980 -643 0
-980 -644 0
-980 -645 0
-980 -646 0
-980 -647 0
-980 -648 0
-980 -649 0
-980 -650 0
-980 -651 0
-980 -652 0
-980 -653 0
-980 -657 0
-980 -658 0
-980 -659 0
-980 -660 0
-980 -661 0
-980 -662 0
-980 -663 0
-981 -613 0
-981 -614 0
-981 -615 0
-981 -616 0
-981 -617 0
-981 -618 0
-981 -619 0
-981 -620 0
-981 -624 0
-981 -625 0
-981 -626 0
-981 -627 0
-981 -628 0
-981 -629 0
-981 -630 0
-981 -631 0
-981 -632 0
-981 -633 0
-981 -634 0
-981 -635 0
-981 -636 0
-981 -637 0
-981 -641 0
-981 -642 0
-981 -643 0
-981 -644 0
-981 -645 0
-981 -646 0
-981 -647 0
-981 -648 0
-981 -649 0
-981 -650 0
-981 -651 0
-981 -652 0
-981 -653 0
-981 -654 0
-981 -658 0
-981 -659 0
-981 -660 0
-981 -661 0
-981 -662 0
-981 -663 0
-982 -613 0
-982 -614 0
-982 -615 0
-982 -616 0
-982 -617 0
-982 -618 0
-982 -619 0
-982 -620 0
-982 -621 0
-982 -625 0
-982 -626 0
-982 -627 0
-982 -628 0
-982 -629 0
-982 -630 0
-982 -631 0
-982 -632 0
-982 -633 0
-982 -634 0
-982 -635 0
-982 -636 0
-982 -637 0
-982 -638 0
-982 -642 0
-982 -643 0
-982 -644 0
-982 -645 0
-982 -646 0
-982 -647 0
-982 -648 0
-982 -649 0
-982 -650 0
-982 -651 0
-982 -652 0
-982 -653 0
-982 -654 0
-982 -655 0
-982 -659 0
-982 -660 0
-982 -661 0
-982 -662 0
-982 -663 0
-983 -613 0
-983 -614 0
-983 -615 0
-983 -616 0
-983 -617 0
-983 -618 0
-983 -619 0
-983 -620 0
-983 -621 0
-983 -622 0
-983 -626 0
-983 -627 0
-983 -628 0
-983 -629 0
-983 -630 0
-983 -631 0
-983 -632 0
-983 -633 0
-983 -634 0
-983 -635 0
-983 -636 0
-983 -637 0
-983 -638 0
-983 -639 0
-983 -643 0
-983 -644 0
-983 -645 0
-983 -646 0
-983 -647 0
-983 -648 0
-983 -649 0
-983 -650 0
-983 -651 0
-983 -652 0
-983 -653 0
-983 -654 0
-983 -655 0
-983 -656 0
-983 -660 0
-983 -661 0
-983 -662 0
-983 -663 0
-984 -613 0
-984 -614 0
-984 -615 0
-984 -616 0
-984 -617 0
-984 -618 0
-984 -619 0
-984 -620 0
-984 -621 0
-984 -622 0
-984 -623 0
-984 -627 0
-984 -628 0
-984 -629 0
-984 -630 0
-984 -631 0
-984 -632 0
-984 -633 0
-984 -634 0
-984 -635 0
-984 -636 0
-984 -637 0
-984 -638 0
-984 -639 0
-984 -640 0
-984 -644 0
-984 -645 0
-984 -646 0
-984 -647 0
-984 -648 0
-984 -649 0
-984 -650 0
-984 -651 0
-984 -652 0
-984 -653 0
-984 -654 0
-984 -655 0
-984 -656 0
-984 -657 0
-984 -661 0
-984 -662 0
-984 -663 0
-985 -613 0
-985 -614 0
-985 -615 0
-985 -616 0
-985 -617 0
-985 -618 0
-985 -619 0
-985 -620 0
-985 -621 0
-985 -622 0
-985 -623 0
-985 -624 0
-985 -628 0
-985 -629 0
-985 -630 0
-985 -631 0
-985 -632 0
-985 -633 0
-985 -634 0
-985 -635 0
-985 -636 0
-985 -637 0
-985 -638 0
-985 -639 0
-985 -640 0
-985 -641 0
-985 -645 0
-985 -646 0
-985 -647 0
-985 -648 0
-985 -649 0
-985 -650 0
-985 -651 0
-985 -652 0
-985 -653 0
-985 -654 0
-985 -655 0
-985 -656 0
-985 -657 0
-985 -658 0
-985 -662 0
-985 -663 0
-986 -613 0
-986 -614 0
-986 -615 0
-986 -616 0
-986 -617 0
-986 -618 0
-986 -619 0
-986 -620 0
-986 -621 0
-986 -622 0
-986 -623 0
-986 -624 0
-986 -625 0
-986 -629 0
-986 -630 0
-986 -631 0
-986 -632 0
-986 -633 0
-986 -634 0
-986 -635 0
-986 -636 0
-986 -637 0
-986 -638 0
-986 -639 0
-986 -640 0
-986 -641 0
-986 -642 0
-986 -646 0
-986 -647 0
-986 -648 0
-986 -649 0
-986 -650 0
-986 -651 0
-986 -652 0
-986 -653 0
-986 -654 0
-986 -655 0
-986 -656 0
-986 -657 0
-986 -658 0
-986 -659 0
-986 -663 0
-987 -613 0
-987 -614 0
-987 -615 0
-987 -616 0
-987 -617 0
-987 -618 0
-987 -619 0
-987 -620 0
-987 -621 0
-987 -622 0
-987 -623 0
-987 -624 0
-987 -625 0
-987 -626 0
-987 -630 0
-987 -631 0
-987 -632 0
-987 -633 0
-987 -634 0
-987 -635 0
-987 -636 0
-987 -637 0
-987 -638 0
-987 -639 0
-987 -640 0
-987 -641 0
-987 -642 0
-987 -643 0
-987 -647 0
-987 -648 0
-987 -649 0
-987 -650 0
-987 -651 0
-987 -652 0
-987 -653 0
-987 -654 0
-987 -655 0
-987 -656 0
-987 -657 0
-987 -658 0
-987 -659 0
-987 -660 0
-664 -681 0
-664 -698 0
-681 -698 0
-665 -682 0
-665 -699 0
-682 -699 0
-666 -683 0
-666 -700 0
-683 -700 0
-667 -684 0
-667 -701 0
-684 -701 0
-668 -685 0
-668 -702 0
-685 -702 0
-669 -686 0
-669 -703 0
-686 -703 0
-670 -687 0
-670 -704 0
-687 -704 0
-671 -688 0
-671 -705 0
-688 -705 0
-672 -689 0
-672 -706 0
-689 -706 0
-673 -690 0
-673 -707 0
-690 -707 0
-674 -691 0
-674 -708 0
-691 -708 0
-675 -692 0
-675 -709 0
-692 -709 0
-676 -693 0
-676 -710 0
-693 -710 0
-677 -694 0
-677 -711 0
-694 -711 0
-678 -695 0
-678 -712 0
-695 -712 0
-679 -696 0
-679 -713 0
-696 -713 0
-680 -697 0
-680 -714 0
-697 -714 0
988 989 990 991 992 993 994 995 996 997 998 999 1000 1001 1002 0
-988 -989 0
-988 -990 0
-988 -991 0
-988 -992 0
-988 -993 0
-988 -994 0
-988 -995 0
-988 -996 0
-988 -997 0
-988 -998 0
-988 -999 0
-988 -1000 0
-988 -1001 0
-988 -1002 0
-989 -990 0
-989 -991 0
-989 -992 0
-989 -993 0
-989 -994 0
-989 -995 0
-989 -996 0
-989 -997 0
-989 -998 0
-989 -999 0
-989 -1000 0
-989 -1001 0
-989 -1002 0
-990 -991 0
-990 -992 0
-990 -993 0
-990 -994 0
-990 -995 0
-990 -996 0
-990 -997 0
-990 -998 0
-990 -999 0
-990 -1000 0
-990 -1001 0
-990 -1002 0
-991 -992 0
-991 -993 0
-991 -994 0
-991 -995 0
-991 -996 0
-991 -997 0
-991 -998 0
-991 -999 0
-991 -1000 0
-991 -1001 0
-991 -1002 0
-992 -993 0
-992 -994 0
-992 -995 0
-992 -996 0
-992 -997 0
-992 -998 0
-992 -999 0
-992 -1000 0
-992 -1001 0
-992 -1002 0
-993 -994 0
-993 -995 0
-993 -996 0
-993 -997 0
-993 -998 0
-993 -999 0
-993 -1000 0
-993 -1001 0
-993 -1002 0
-994 -995 0
-994 -996 0
-994 -997 0
-994 -998 0
-994 -999 0
-994 -1000 0
-994 -1001 0
-994 -1002 0
-995 -996 0
-995 -997 0
-995 -998 0
-995 -999 0
-995 -1000 0
-995 -1001 0
-995 -1002 0
-996 -997 0
-996 -998 0
-996 -999 0
-996 -1000 0
-996 -1001 0
-996 -1002 0
-997 -998 0
-997 -999 0
-997 -1000 0
-997 -1001 0
-997 -1002 0
-998 -999 0
-998 -1000 0
-998 -1001 0
-998 -1002 0
-999 -1000 0
-999 -1001 0
-999 -1002 0
-1000 -1001 0
-1000 -1002 0
-1001 -1002 0
-664 988 0
-665 988 989 0
-666 988 989 990 0
-667 989 990 991 0
-668 990 991 992 0
-669 991 992 993 0
-670 992 993 994 0
-671 993 994 995 0
-672 994 995 996 0
-673 995 996 997 0
-674 996 997 998 0
-675 997 998 999 0
-676 998 999 1000 0
-677 999 1000 1001 0
-678 1000 1001 1002 0
-679 1001 1002 0
-680 1002 0
-681 988 0
-682 988 989 0
-683 988 989 990 0
-684 989 990 991 0
-685 990 991 992 0
-686 991 992 993 0
-687 992 993 994 0
-688 993 994 995 0
-689 994 995 996 0
-690 995 996 997 0
-691 996 997 998 0
-692 997 998 999 0
-693 998 999 1000 0
-694 999 1000 1001 0
-695 1000 1001 1002 0
-696 1001 1002 0
-697 1002 0
-698 988 0
-699 988 989 0
-700 988 989 990 0
-701 989 990 991 0
-702 990 991 992 0
-703 991 992 993 0
-704 992 993 994 0
-705 993 994 995 0
-706 994 995 996 0
-707 995 996 997 0
-708 996 997 998 0
-709 997 998 999 0
-710 998 999 1000 0
-711 999 1000 1001 0
-712 1000 1001 1002 0
-713 1001 1002 0
-714 1002 0
-988 -667 0
-988 -668 0
-988 -669 0
-988 -670 0
-988 -671 0
-988 -672 0
-988 -673 0
-988 -674 0
-988 -675 0
-988 -676 0
-988 -677 0
-988 -678 0
-988 -679 0
-988 -680 0
-988 -684 0
-988 -685 0
-988 -686 0
-988 -687 0
-988 -688 0
-988 -689 0
-988 -690 0
-988 -691 0
-988 -692 0
-988 -693 0
-988 -694 0
-988 -695 0
-988 -696 0
-988 -697 0
-988 -701 0
-988 -702 0
-988 -703 0
-988 -704 0
-988 -705 0
-988 -706 0
-988 -707 0
-988 -708 0
-988 -709 0
-988 -710 0
-988 -711 0
-988 -712 0
-988 -713 0
-988 -714 0
-989 -664 0
-989 -668 0
-989 -669 0
-989 -670 0
-989 -671 0
-989 -672 0
-989 -673 0
-989 -674 0
-989 -675 0
-989 -676 0
-989 -677 0
-989 -678 0
-989 -679 0
-989 -680 0
-989 -681 0
-989 -685 0
-989 -686 0
-989 -687 0
-989 -688 0
-989 -689 0
-989 -690 0
-989 -691 0
-989 -692 0
-989 -693 0
-989 -694 0
-989 -695 0
-989 -696 0
-989 -697 0
-989 -698 0
-989 -702 0
-989 -703 0
-989 -704 0
-989 -705 0
-989 -706 0
-989 -707 0
-989 -708 0
-989 -709 0
-989 -710 0
-989 -711 0
-989 -712 0
-989 -713 0
-989 -714 0
-990 -664 0
-990 -665 0
-990 -669 0
-990 -670 0
-990 -671 0
-990 -672 0
-990 -673 0
-990 -674 0
-990 -675 0
-990 -676 0
-990 -677 0
-990 -678 0
-990 -679 0
-990 -680 0
-990 -681 0
-990 -682 0
-990 -686 0
-990 -687 0
-990 -688 0
-990 -689 0
-990 -690 0
-990 -691 0
-990 -692 0
-990 -693 0
-990 -694 0
-990 -695 0
-990 -696 0
-990 -697 0
-990 -698 0
-990 -699 0
-990 -703 0
-990 -704 0
-990 -705 0
-990 -706 0
-990 -707 0
-990 -708 0
-990 -709 0
-990 -710 0
-990 -711 0
-990 -712 0
-990 -713 0
-990 -714 0
-991 -664 0
-991 -665 0
-991 -666 0
-991 -670 0
-991 -671 0
-991 -672 0
-991 -673 0
-991 -674 0
-991 -675 0
-991 -676 0
-991 -677 0
-991 -678 0
-991 -679 0
-991 -680 0
-991 -681 0
-991 -682 0
-991 -683 0
-991 -687 0
-991 -688 0
-991 -689 0
-991 -690 0
-991 -691 0
-991 -692 0
-991 -693 0
-991 -694 0
-991 -695 0
-991 -696 0
-991 -697 0
-991 -698 0
-991 -699 0
-991 -700 0
-991 -704 0
-991 -705 0
-991 -706 0
-991 -707 0
-991 -708 0
-991 -709 0
-991 -710 0
-991 -711 0
-991 -712 0
-991 -713 0
-991 -714 0
-992 -664 0
-992 -665 0
-992 -666 0
-992 -667 0
-992 -671 0
-992 -672 0
-992 -673 0
-992 -674 0
-992 -675 0
-992 -676 0
-992 -677 0
-992 -678 0
-992 -679 0
-992 -680 0
-992 -681 0
-992 -682 0
-992 -683 0
-992 -684 0
-992 -688 0
-992 -689 0
-992 -690 0
-992 -691 0
-992 -692 0
-992 -693 0
-992 -694 0
-992 -695 0
-992 -696 0
-992 -697 0
-992 -698 0
-992 -699 0
-992 -700 0
-992 -701 0
-992 -705 0
-992 -706 0
-992 -707 0
-992 -708 0
-992 -709 0
-992 -710 0
-992 -711 0
-992 -712 0
-992 -713 0
-992 -714 0
-993 -664 0
-993 -665 0
-993 -666 0
-993 -667 0
-993 -668 0
-993 -672 0
-993 -673 0
-993 -674 0
-993 -675 0
-993 -676 0
-993 -677 0
-993 -678 0
-993 -679 0
-993 -680 0
-993 -681 0
-993 -682 0
-993 -683 0
-993 -684 0
-993 -685 0
-993 -689 0
-993 -690 0
-993 -691 0
-993 -692 0
-993 -693 0
-993 -694 0
-993 -695 0
-993 -696 0
-993 -697 0
-993 -698 0
-993 -699 0
-993 -700 0
-993 -701 0
-993 -702 0
-993 -706 0
-993 -707 0
-993 -708 0
-993 -709 0
-993 -710 0
-993 -711 0
-993 -712 0
-993 -713 0
-993 -714 0
-994 -664 0
-994 -665 0
-994 -666 0
-994 -667 0
-994 -668 0
-994 -669 0
-994 -673 0
-994 -674 0
-994 -675 0
-994 -676 0
-994 -677 0
-994 -678 0
-994 -679 0
-994 -680 0
-994 -681 0
-994 -682 0
-994 -683 0
-994 -684 0
-994 -685 0
-994 -686 0
-994 -690 0
-994 -691 0
-994 -692 0
-994 -693 0
-994 -694 0
-994 -695 0
-994 -696 0
-994 -697 0
-994 -698 0
-994 -699 0
-994 -700 0
-994 -701 0
-994 -702 0
-994 -703 0
-994 -707 0
-994 -708 0
-994 -709 0
-994 -710 0
-994 -711 0
-994 -712 0
-994 -713 0
-994 -714 0
-995 -664 0
-995 -665 0
-995 -666 0
-995 -667 0
-995 -668 0
-995 -669 0
-995 -670 0
-995 -674 0
-995 -675 0
-995 -676 0
-995 -677 0
-995 -678 0
-995 -679 0
-995 -680 0
-995 -681 0
-995 -682 0
-995 -683 0
-995 -684 0
-995 -685 0
-995 -686 0
-995 -687 0
-995 -691 0
-995 -692 0
-995 -693 0
-995 -694 0
-995 -695 0
-995 -696 0
-995 -697 0
-995 -698 0
-995 -699 0
-995 -700 0
-995 -701 0
-995 -702 0
-995 -703 0
-995 -704 0
-995 -708 0
-995 -709 0
-995 -710 0
-995 -711 0
-995 -712 0
-995 -713 0
-995 -714 0
-996 -664 0
-996 -665 0
-996 -666 0
-996 -667 0
-996 -668 0
-996 -669 0
-996 -670 0
-996 -671 0
-996 -675 0
-996 -676 0
-996 -677 0
-996 -678 0
-996 -679 0
-996 -680 0
-996 -681 0
-996 -682 0
-996 -683 0
-996 -684 0
-996 -685 0
-996 -686 0
-996 -687 0
-996 -688 0
-996 -692 0
-996 -693 0
-996 -694 0
-996 -695 0
-996 -696 0
-996 -697 0
-996 -698 0
-996 -699 0
-996 -700 0
-996 -701 0
-996 -702 0
-996 -703 0
-996 -704 0
-996 -705 0
-996 -709 0
-996 -710 0
-996 -711 0
-996 -712 0
-996 -713 0
-996 -714 0
-997 -664 0
-997 -665 0
-997 -666 0
-997 -667 0
-997 -668 0
-997 -669 0
-997 -670 0
-997 -671 0
-997 -672 0
-997 -676 0
-997 -677 0
-997 -678 0
-997 -679 0
-997 -680 0
-997 -681 0
-997 -682 0
-997 -683 0
-997 -684 0
-997 -685 0
-997 -686 0
-997 -687 0
-997 -688 0
-997 -689 0
-997 -693 0
-997 -694 0
-997 -695 0
-997 -696 0
-997 -697 0
-997 -698 0
-997 -699 0
-997 -700 0
-997 -701 0
-997 -702 0
-997 -703 0
-997 -704 0
-997 -705 0
-997 -706 0
-997 -710 0
-997 -711 0
-997 -712 0
-997 -713 0
-997 -714 0
-998 -664 0
-998 -665 0
-998 -666 0
-998 -667 0
-998 -668 0
-998 -669 0
-998 -670 0
-998 -671 0
-998 -672 0
-998 -673 0
-998 -677 0
-998 -678 0
-998 -679 0
-998 -680 0
-998 -681 0
-998 -682 0
-998 -683 0
-998 -684 0
-998 -685 0
-998 -686 0
-998 -687 0
-998 -688 0
-998 -689 0
-998 -690 0
-998 -694 0
-998 -695 0
-998 -696 0
-998 -697 0
-998 -698 0
-998 -699 0
-998 -700 0
-998 -701 0
-998 -702 0
-998 -703 0
-998 -704 0
-998 -705 0
-998 -706 0
-998 -707 0
-998 -711 0
-998 -712 0
-998 -713 0
-998 -714 0
-999 -664 0
-999 -665 0
-999 -666 0
-999 -667 0
-999 -668 0
-999 -669 0
-999 -670 0
-999 -671 0
-999 -672 0
-999 -673 0
-999 -674 0
-999 -678 0
-999 -679 0
-999 -680 0
-999 -681 0
-999 -682 0
-999 -683 0
-999 -684 0
-999 -685 0
-999 -686 0
-999 -687 0
-999 -688 0
-999 -689 0
-999 -690 0
-999 -691 0
-999 -695 0
-999 -696 0
-999 -697 0
-999 -698 0
-999 -699 0
-999 -700 0
-999 -701 0
-999 -702 0
-999 -703 0
-999 -704 0
-999 -705 0
-999 -706 0
-999 -707 0
-999 -708 0
-999 -712 0
-999 -713 0
-999 -714 0
-1000 -664 0
-1000 -665 0
-1000 -666 0
-1000 -667 0
-1000 -668 0
-1000 -669 0
-1000 -670 0
-1000 -671 0
-1000 -672 0
-1000 -673 0
-1000 -674 0
-1000 -675 0
-1000 -679 0
-1000 -680 0
-1000 -681 0
-1000 -682 0
-1000 -683 0
-1000 -684 0
-1000 -685 0
-1000 -686 0
-1000 -687 0
-1000 -688 0
-1000 -689 0
-1000 -690 0
-1000 -691 0
-1000 -692 0
-1000 -696 0
-1000 -697 0
-1000 -698 0
-1000 -699 0
-1000 -700 0
-1000 -701 0
-1000 -702 0
-1000 -703 0
-1000 -704 0
-1000 -705 0
-1000 -706 0
-1000 -707 0
-1000 -708 0
-1000 -709 0
-1000 -713 0
-1000 -714 0
-1001 -664 0
-1001 -665 0
-1001 -666 0
-1001 -667 0
-1001 -668 0
-1001 -669 0
-1001 -670 0
-1001 -671 0
-1001 -672 0
-1001 -673 0
-1001 -674 0
-1001 -675 0
-1001 -676 0
-1001 -680 0
-1001 -681 0
-1001 -682 0
-1001 -683 0
-1001 -684 0
-1001 -685 0
-1001 -686 0
-1001 -687 0
-1001 -688 0
-1001 -689 0
-1001 -690 0
-1001 -691 0
-1001 -692 0
-1001 -693 0
-1001 -697 0
-1001 -698 0
-1001 -699 0
-1001 -700 0
-1001 -701 0
-1001 -702 0
-1001 -703 0
-1001 -704 0
-1001 -705 0
-1001 -706 0
-1001 -707 0
-1001 -708 0
-1001 -709 0
-1001 -710 0
-1001 -714 0
-1002 -664 0
-1002 -665 0
-1002 -666 0
-1002 -667 0
-1002 -668 0
-1002 -669 0
-1002 -670 0
-1002 -671 0
-1002 -672 0
-1002 -673 0
-1002 -674 0
-1002 -675 0
-1002 -676 0
-1002 -677 0
-1002 -681 0
-1002 -682 0
-1002 -683 0
-1002 -684 0
-1002 -685 0
-1002 -686 0
-1002 -687 0
-1002 -688 0
-1002 -689 0
-1002 -690 0
-1002 -691 0
-1002 -692 0
-1002 -693 0
-1002 -694 0
-1002 -698 0
-1002 -699 0
-1002 -700 0
-1002 -701 0
-1002 -702 0
-1002 -703 0
-1002 -704 0
-1002 -705 0
-1002 -706 0
-1002 -707 0
-1002 -708 0
-1002 -709 0
-1002 -710 0
-1002 -711 0
-715 -732 0
-715 -749 0
-732 -749 0
-716 -733 0
-716 -750 0
-733 -750 0
-717 -734 0
-717 -751 0
-734 -751 0
-718 -735 0
-718 -752 0
-735 -752 0
-719 -736 0
-719 -753 0
-736 -753 0
-720 -737 0
-720 -754 0
-737 -754 0
-721 -738 0
-721 -755 0
-738 -755 0
-722 -739 0
-722 -756 0
-739 -756 0
-723 -740 0
-723 -757 0
-740 -757 0
-724 -741 0
-724 -758 0
-741 -758 0
-725 -742 0
-725 -759 0
-742 -759 0
-726 -743 0
-726 -760 0
-743 -760 0
-727 -744 0
-727 -761 0
-744 -761 0
-728 -745 0
-728 -762 0
-745 -762 0
-729 -746 0
-729 -763 0
-746 -763 0
-730 -747 0
-730 -764 0
-747 -764 0
-731 -748 0
-731 -765 0
-748 -765 0
1003 1004 1005 1006 1007 1008 1009 1010 1011 1012 1013 1014 1015 1016 1017 0
-1003 -1004 0
-1003 -1005 0
-1003 -1006 0
-1003 -1007 0
-1003 -1008 0
-1003 -1009 0
-1003 -1010 0
-1003 -1011 0
-1003 -1012 0
-1003 -1013 0
-1003 -1014 0
-1003 -1015 0
-1003 -1016 0
-1003 -1017 0
-1004 -1005 0
-1004 -1006 0
-1004 -1007 0
-1004 -1008 0
-1004 -1009 0
-1004 -1010 0
-1004 -1011 0
-1004 -1012 0
-1004 -1013 0
-1004 -1014 0
-1004 -1015 0
-1004 -1016 0
-1004 -1017 0
-1005 -1006 0
-1005 -1007 0
-1005 -1008 0
-1005 -1009 0
-1005 -1010 0
-1005 -1011 0
-1005 -1012 0
-1005 -1013 0
-1005 -1014 0
-1005 -1015 0
-1005 -1016 0
-1005 -1017 0
-1006 -1007 0
-1006 -1008 0
-1006 -1009 0
-1006 -1010 0
-1006 -1011 0
-1006 -1012 0
-1006 -1013 0
-1006 -1014 0
-1006 -1015 0
-1006 -1016 0
-1006 -1017 0
-1007 -1008 0
-1007 -1009 0
-1007 -1010 0
-1007 -1011 0
-1007 -1012 0
-1007 -1013 0
-1007 -1014 0
-1007 -1015 0
-1007 -1016 0
-1007 -1017 0
-1008 -1009 0
-1008 -1010 0
-1008 -1011 0
-1008 -1012 0
-1008 -1013 0
-1008 -1014 0
-1008 -1015 0
-1008 -1016 0
-1008 -1017 0
-1009 -1010 0
-1009 -1011 0
-1009 -1012 0
-1009 -1013 0
-1009 -1014 0
-1009 -1015 0
-1009 -1016 0
-1009 -1017 0
-1010 -1011 0
-1010 -1012 0
-1010 -1013 0
-1010 -1014 0
-1010 -1015 0
-1010 -1016 0
-1010 -1017 0
-1011 -1012 0
-1011 -1013 0
-1011 -1014 0
-1011 -1015 0
-1011 -1016 0
-1011 -1017 0
-1012 -1013 0
-1012 -1014 0
-1012 -1015 0
-1012 -1016 0
-1012 -1017 0
-1013 -1014 0
-1013 -1015 0
-1013 -1016 0
-1013 -1017 0
-1014 -1015 0
-1014 -1016 0
-1014 -1017 0
-1015 -1016 0
-1015 -1017 0
-1016 -1017 0
-715 1003 0
-716 1003 1004 0
-717 1003 1004 1005 0
-718 1004 1005 1006 0
-719 1005 1006 1007 0
-720 1006 1007 1008 0
-721 1007 1008 1009 0
-722 1008 1009 1010 0
-723 1009 1010 1011 0
-724 1010 1011 1012 0
-725 1011 1012 1013 0
-726 1012 1013 1014 0
-727 1013 1014 1015 0
-728 1014 1015 1016 0
-729 1015 1016 1017 0
-730 1016 1017 0
-731 1017 0
-732 1003 0
-733 1003 1004 0
-734 1003 1004 1005 0
-735 1004 1005 1006 0
-736 1005 1006 1007 0
-737 1006 1007 1008 0
-738 1007 1008 1009 0
-739 1008 1009 1010 0
-740 1009 1010 1011 0
-741 1010 1011 1012 0
-742 1011 1012 1013 0
-743 1012 1013 1014 0
-744 1013 1014 1015 0
-745 1014 1015 1016 0
-746 1015 1016 1017 0
-747 1016 1017 0
-748 1017 0
-749 1003 0
-750 1003 1004 0
-751 1003 1004 1005 0
-752 1004 1005 1006 0
-753 1005 1006 1007 0
-754 1006 1007 1008 0
-755 1007 1008 1009 0
-756 1008 1009 1010 0
-757 1009 1010 1011 0
-758 1010 1011 1012 0
-759 1011 1012 1013 0
-760 1012 1013 1014 0
-761 1013 1014 1015 0
-762 1014 1015 1016 0
-763 1015 1016 1017 0
-764 1016 1017 0
-765 1017 0
-1003 -718 0
-1003 -719 0
-1003 -720 0
-1003 -721 0
-1003 -722 0
-1003 -723 0
-1003 -724 0
-1003 -725 0
-1003 -726 0
-1003 -727 0
-1003 -728 0
-1003 -729 0
-1003 -730 0
-1003 -731 0
-1003 -735 0
-1003 -736 0
-1003 -737 0
-1003 -738 0
-1003 -739 0
-1003 -740 0
-1003 -741 0
-1003 -742 0
-1003 -743 0
-1003 -744 0
-1003 -745 0
-1003 -746 0
-1003 -747 0
-1003 -748 0
-1003 -752 0
-1003 -753 0
-1003 -754 0
-1003 -755 0
-1003 -756 0
-1003 -757 0
-1003 -758 0
-1003 -759 0
-1003 -760 0
-1003 -761 0
-1003 -762 0
-1003 -763 0
-1003 -764 0
-1003 -765 0
-1004 -715 0
-1004 -719 0
-1004 -720 0
-1004 -721 0
-1004 -722 0
-1004 -723 0
-1004 -724 0
-1004 -725 0
-1004 -726 0
-1004 -727 0
-1004 -728 0
-1004 -729 0
-1004 -730 0
-1004 -731 0
-1004 -732 0
-1004 -736 0
-1004 -737 0
-1004 -738 0
-1004 -739 0
-1004 -740 0
-1004 -741 0
-1004 -742 0
-1004 -743 0
-1004 -744 0
-1004 -745 0
-1004 -746 0
-1004 -747 0
-1004 -748 0
-1004 -749 0
-1004 -753 0
-1004 -754 0
-1004 -755 0
-1004 -756 0
-1004 -757 0
-1004 -758 0
-1004 -759 0
-1004 -760 0
-1004 -761 0
-1004 -762 0
-1004 -763 0
-1004 -764 0
-1004 -765 0
-1005 -715 0
-1005 -716 0
-1005 -720 0
-1005 -721 0
-1005 -722 0
-1005 -723 0
-1005 -724 0
-1005 -725 0
-1005 -726 0
-1005 -727 0
-1005 -728 0
-1005 -729 0
-1005 -730 0
-1005 -731 0
-1005 -732 0
-1005 -733 0
-1005 -737 0
-1005 -738 0
-1005 -739 0
-1005 -740 0
-1005 -741 0
-1005 -742 0
-1005 -743 0
-1005 -744 0
-1005 -745 0
-1005 -746 0
-1005 -747 0
-1005 -748 0
-1005 -749 0
-1005 -750 0
-1005 -754 0
-1005 -755 0
-1005 -756 0
-1005 -757 0
-1005 -758 0
-1005 -759 0
-1005 -760 0
-1005 -761 0
-1005 -762 0
-1005 -763 0
-1005 -764 0
-1005 -765 0
-1006 -715 0
-1006 -716 0
-1006 -717 0
-1006 -721 0
-1006 -722 0
-1006 -723 0
-1006 -724 0
-1006 -725 0
-1006 -726 0
-1006 -727 0
-1006 -728 0
-1006 -729 0
-1006 -730 0
-1006 -731 0
-1006 -732 0
-1006 -733 0
-1006 -734 0
-1006 -738 0
-1006 -739 0
-1006 -740 0
-1006 -741 0
-1006 -742 0
-1006 -743 0
-1006 -744 0
-1006 -745 0
-1006 -746 0
-1006 -747 0
-1006 -748 0
-1006 -749 0
-1006 -750 0
-1006 -751 0
-1006 -755 0
-1006 -756 0
-1006 -757 0
-1006 -758 0
-1006 -759 0
-1006 -760 0
-1006 -761 0
-1006 -762 0
-1006 -763 0
-1006 -764 0
-1006 -765 0
-1007 -715 0
-1007 -716 0
-1007 -717 0
-1007 -718 0
-1007 -722 0
-1007 -723 0
-1007 -724 0
-1007 -725 0
-1007 -726 0
-1007 -727 0
-1007 -728 0
-1007 -729 0
-1007 -730 0
-1007 -731 0
-1007 -732 0
-1007 -733 0
-1007 -734 0
-1007 -735 0
-1007 -739 0
-1007 -740 0
-1007 -741 0
-1007 -742 0
-1007 -743 0
-1007 -744 0
-1007 -745 0
-1007 -746 0
-1007 -747 0
-1007 -748 0
-1007 -749 0
-1007 -750 0
-1007 -751 0
-1007 -752 0
-1007 -756 0
-1007 -757 0
-1007 -758 0
-1007 -759 0
-1007 -760 0
-1007 -761 0
-1007 -762 0
-1007 -763 0
-1007 -764 0
-1007 -765 0
-1008 -715 0
-1008 -716 0
-1008 -717 0
-1008 -718 0
-1008 -719 0
-1008 -723 0
-1008 -724 0
-1008 -725 0
-1008 -726 0
-1008 -727 0
-1008 -728 0
-1008 -729 0
-1008 -730 0
-1008 -731 0
-1008 -732 0
-1008 -733 0
-1008 -734 0
-1008 -735 0
-1008 -736 0
-1008 -740 0
-1008 -741 0
-1008 -742 0
-1008 -743 0
-1008 -744 0
-1008 -745 0
-1008 -746 0
-1008 -747 0
-1008 -748 0
-1008 -749 0
-1008 -750 0
-1008 -751 0
-1008 -752 0
-1008 -753 0
-1008 -757 0
-1008 -758 0
-1008 -759 0
-1008 -760 0
-1008 -761 0
-1008 -762 0
-1008 -763 0
-1008 -764 0
-1008 -765 0
-1009 -715 0
-1009 -716 0
-1009 -717 0
-1009 -718 0
-1009 -719 0
-1009 -720 0
-1009 -724 0
-1009 -725 0
-1009 -726 0
-1009 -727 0
-1009 -728 0
-1009 -729 0
-1009 -730 0
-1009 -731 0
-1009 -732 0
-1009 -733 0
-1009 -734 0
-1009 -735 0
-1009 -736 0
-1009 -737 0
-1009 -741 0
-1009 -742 0
-1009 -743 0
-1009 -744 0
-1009 -745 0
-1009 -746 0
-1009 -747 0
-1009 -748 0
-1009 -749 0
-1009 -750 0
-1009 -751 0
-1009 -752 0
-1009 -753 0
-1009 -754 0
-1009 -758 0
-1009 -759 0
-1009 -760 0
-1009 -761 0
-1009 -762 0
-1009 -763 0
-1009 -764 0
-1009 -765 0
-1010 -715 0
-1010 -716 0
-1010 -717 0
-1010 -718 0
-1010 -719 0
-1010 -720 0
-1010 -721 0
-1010 -725 0
-1010 -726 0
-1010 -727 0
-1010 -728 0
-1010 -729 0
-1010 -730 0
-1010 -731 0
-1010 -732 0
-1010 -733 0
-1010 -734 0
-1010 -735 0
-1010 -736 0
-1010 -737 0
-1010 -738 0
-1010 -742 0
-1010 -743 0
-1010 -744 0
-1010 -745 0
-1010 -746 0
-1010 -747 0
-1010 -748 0
-1010 -749 0
-1010 -750 0
-1010 -751 0
-1010 -752 0
-1010 -753 0
-1010 -754 0
-1010 -755 0
-1010 -759 0
-1010 -760 0
-1010 -761 0
-1010 -762 0
-1010 -763 0
-1010 -764 0
-1010 -765 0
-1011 -715 0
-1011 -716 0
-1011 -717 0
-1011 -718 0
-1011 -719 0
-1011 -720 0
-1011 -721 0
-1011 -722 0
-1011 -726 0
-1011 -727 0
-1011 -728 0
-1011 -729 0
-1011 -730 0
-1011 -731 0
-1011 -732 0
-1011 -733 0
-1011 -734 0
-1011 -735 0
-1011 -736 0
-1011 -737 0
-1011 -738 0
-1011 -739 0
-1011 -743 0
-1011 -744 0
-1011 -745 0
-1011 -746 0
-1011 -747 0
-1011 -748 0
-1011 -749 0
-1011 -750 0
-1011 -751 0
-1011 -752 0
-1011 -753 0
-1011 -754 0
-1011 -755 0
-1011 -756 0
-1011 -760 0
-1011 -761 0
-1011 -762 0
-1011 -763 0
-1011 -764 0
-1011 -765 0
-1012 -715 0
-1012 -716 0
-1012 -717 0
-1012 -718 0
-1012 -719 0
-1012 -720 0
-1012 -721 0
-1012 -722 0
-1012 -723 0
-1012 -727 0
-1012 -728 0
-1012 -729 0
-1012 -730 0
-1012 -731 0
-1012 -732 0
-1012 -733 0
-1012 -734 0
-1012 -735 0
-1012 -736 0
-1012 -737 0
-1012 -738 0
-1012 -739 0
-1012 -740 0
-1012 -744 0
-1012 -745 0
-1012 -746 0
-1012 -747 0
-1012 -748 0
-1012 -749 0
-1012 -750 0
-1012 -751 0
-1012 -752 0
-1012 -753 0
-1012 -754 0
-1012 -755 0
-1012 -756 0
-1012 -757 0
-1012 -761 0
-1012 -762 0
-1012 -763 0
-1012 -764 0
-1012 -765 0
-1013 -715 0
-1013 -716 0
-1013 -717 0
-1013 -718 0
-1013 -719 0
-1013 -720 0
-1013 -721 0
-1013 -722 0
-1013 -723 0
-1013 -724 0
-1013 -728 0
-1013 -729 0
-1013 -730 0
-1013 -731 0
-1013 -732 0
-1013 -733 0
-1013 -734 0
-1013 -735 0
-1013 -736 0
-1013 -737 0
-1013 -738 0
-1013 -739 0
-1013 -740 0
-1013 -741 0
-1013 -745 0
-1013 -746 0
-1013 -747 0
-1013 -748 0
-1013 -749 0
-1013 -750 0
-1013 -751 0
-1013 -752 0
-1013 -753 0
-1013 -754 0
-1013 -755 0
-1013 -756 0
-1013 -757 0
-1013 -758 0
-1013 -762 0
-1013 -763 0
-1013 -764 0
-1013 -765 0
-1014 -715 0
-1014 -716 0
-1014 -717 0
-1014 -718 0
-1014 -719 0
-1014 -720 0
-1014 -721 0
-1014 -722 0
-1014 -723 0
-1014 -724 0
-1014 -725 0
-1014 -729 0
-1014 -730 0
-1014 -731 0
-1014 -732 0
-1014 -733 0
-1014 -734 0
-1014 -735 0
-1014 -736 0
-1014 -737 0
-1014 -738 0
-1014 -739 0
-1014 -740 0
-1014 -741 0
-1014 -742 0
-1014 -746 0
-1014 -747 0
-1014 -748 0
-1014 -749 0
-1014 -750 0
-1014 -751 0
-1014 -752 0
-1014 -753 0
-1014 -754 0
-1014 -755 0
-1014 -756 0
-1014 -757 0
-1014 -758 0
-1014 -759 0
-1014 -763 0
-1014 -764 0
-1014 -765 0
-1015 -715 0
-1015 -716 0
-1015 -717 0
-1015 -718 0
-1015 -719 0
-1015 -720 0
-1015 -721 0
-1015 -722 0
-1015 -723 0
-1015 -724 0
-1015 -725 0
-1015 -726 0
-1015 -730 0
-1015 -731 0
-1015 -732 0
-1015 -733 0
-1015 -734 0
-1015 -735 0
-1015 -736 0
-1015 -737 0
-1015 -738 0
-1015 -739 0
-1015 -740 0
-1015 -741 0
-1015 -742 0
-1015 -743 0
-1015 -747 0
-1015 -748 0
-1015 -749 0
-1015 -750 0
-1015 -751 0
-1015 -752 0
-1015 -753 0
-1015 -754 0
-1015 -755 0
-1015 -756 0
-1015 -757 0
-1015 -758 0
-1015 -759 0
-1015 -760 0
-1015 -764 0
-1015 -765 0
-1016 -715 0
-1016 -716 0
-1016 -717 0
-1016 -718 0
-1016 -719 0
-1016 -720 0
-1016 -721 0
-1016 -722 0
-1016 -723 0
-1016 -724 0
-1016 -725 0
-1016 -726 0
-1016 -727 0
-1016 -731 0
-1016 -732 0
-1016 -733 0
-1016 -734 0
-1016 -735 0
-1016 -736 0
-1016 -737 0
-1016 -738 0
-1016 -739 0
-1016 -740 0
-1016 -741 0
-1016 -742 0
-1016 -743 0
-1016 -744 0
-1016 -748 0
-1016 -749 0
-1016 -750 0
-1016 -751 0
-1016 -752 0
-1016 -753 0
-1016 -754 0
-1016 -755 0
-1016 -756 0
-1016 -757 0
-1016 -758 0
-1016 -759 0
-1016 -760 0
-1016 -761 0
-1016 -765 0
-1017 -715 0
-1017 -716 0
-1017 -717 0
-1017 -718 0
-1017 -719 0
-1017 -720 0
-1017 -721 0
-1017 -722 0
-1017 -723 0
-1017 -724 0
-1017 -725 0
-1017 -726 0
-1017 -727 0
-1017 -728 0
-1017 -732 0
-1017 -733 0
-1017 -734 0
-1017 -735 0
-1017 -736 0
-1017 -737 0
-1017 -738 0
-1017 -739 0
-1017 -740 0
-1017 -741 0
-1017 -742 0
-1017 -743 0
-1017 -744 0
-1017 -745 0
-1017 -749 0
-1017 -750 0
-1017 -751 0
-1017 -752 0
-1017 -753 0
-1017 -754 0
-1017 -755 0
-1017 -756 0
-1017 -757 0
-1017 -758 0
-1017 -759 0
-1017 -760 0
-1017 -761 0
-1017 -762 0
1 18 35 52 69 86 103 120 137 154 171 188 205 222 239 256 273 290 307 324 341 358 375 392 409 426 443 460 477 494 511 528 545 562 579 596 613 630 647 664 681 698 715 732 749 0
2 19 36 53 70 87 104 121 138 155 172 189 206 223 240 257 274 291 308 325 342 359 376 393 410 427 444 461 478 495 512 529 546 563 580 597 614 631 648 665 682 699 716 733 750 0
3 20 37 54 71 88 105 122 139 156 173 190 207 224 241 258 275 292 309 326 343 360 377 394 411 428 445 462 479 496 513 530 547 564 581 598 615 632 649 666 683 700 717 734 751 0
4 21 38 55 72 89 106 123 140 157 174 191 208 225 242 259 276 293 310 327 344 361 378 395 412 429 446 463 480 497 514 531 548 565 582 599 616 633 650 667 684 701 718 735 752 0
5 22 39 56 73 90 107 124 141 158 175 192 209 226 243 260 277 294 311 328 345 362 379 396 413 430 447 464 481 498 515 532 549 566 583 600 617 634 651 668 685 702 719 736 753 0
6 23 40 57 74 91 108 125 142 159 176 193 210 227 244 261 278 295 312 329 346 363 380 397 414 431 448 465 482 499 516 533 550 567 584 601 618 635 652 669 686 703 720 737 754 0
7 24 41 58 75 92 109 126 143 160 177 194 211 228 245 262 279 296 313 330 347 364 381 398 415 432 449 466 483 500 517 534 551 568 585 602 619 636 653 670 687 704 721 738 755 0
8 25 42 59 76 93 110 127 144 161 178 195 212 229 246 263 280 297 314 331 348 365 382 399 416 433 450 467 484 501 518 535 552 569 586 603 620 637 654 671 688 705 722 739 756 0
9 26 43 60 77 94 111 128 145 162 179 196 213 230 247 264 281 298 315 332 349 366 383 400 417 434 451 468 485 502 519 536 553 570 587 604 621 638 655 672 689 706 723 740 757 0
10 27 44 61 78 95 112 129 146 163 180 197 214 231 248 265 282 299 316 333 350 367 384 401 418 435 452 469 486 503 520 537 554 571 588 605 622 639 656 673 690 707 724 741 758 0
11 28 45 62 79 96 113 130 147 164 181 198 215 232 249 266 283 300 317 334 351 368 385 402 419 436 453 470 487 504 521 538 555 572 589 606 623 640 657 674 691 708 725 742 759 0
12 29 46 63 80 97 114 131 148 165 182 199 216 233 250 267 284 301 318 335 352 369 386 403 420 437 454 471 488 505 522 539 556 573 590 607 624 641 658 675 692 709 726 743 760 0
13 30 47 64 81 98 115 132 149 166 183 200 217 234 251 268 285 302 319 336 353 370 387 404 421 438 455 472 489 506 523 540 557 574 591 608 625 642 659 676 693 710 727 744 761 0
14 31 48 65 82 99 116 133 150 167 184 201 218 235 252 269 286 303 320 337 354 371 388 405 422 439 456 473 490 507 524 541 558 575 592 609 626 643 660 677 694 711 728 745 762 0
15 32 49 66 83 100 117 134 151 168 185 202 219 236 253 270 287 304 321 338 355 372 389 406 423 440 457 474 491 508 525 542 559 576 593 610 627 644 661 678 695 712 729 746 763 0
16 33 50 67 84 101 118 135 152 169 186 203 220 237 254 271 288 305 322 339 356 373 390 407 424 441 458 475 492 509 526 543 560 577 594 611 628 645 662 679 696 713 730 747 764 0
17 34 51 68 85 102 119 136 153 170 187 204 221 238 255 272 289 306 323 340 357 374 391 408 425 442 459 476 493 510 527 544 561 578 595 612 629 646 663 680 697 714 731 748 765 0
