p cnf 953 22389
1 2 3 4 5 6 7 8 9 10 11 12 13 14 15 16 0
-1 -2 0
-1 -3 0
-1 -4 0
-1 -5 0
-1 -6 0
-1 -7 0
-1 -8 0
-1 -9 0
-1 -10 0
-1 -11 0
-1 -12 0
-1 -13 0
-1 -14 0
-1 -15 0
-1 -16 0
-2 -3 0
-2 -4 0
-2 -5 0
-2 -6 0
-2 -7 0
-2 -8 0
-2 -9 0
-2 -10 0
-2 -11 0
-2 -12 0
-2 -13 0
-2 -14 0
-2 -15 0
-2 -16 0
-3 -4 0
-3 -5 0
-3 -6 0
-3 -7 0
-3 -8 0
-3 -9 0
-3 -10 0
-3 -11 0
-3 -12 0
-3 -13 0
-3 -14 0
-3 -15 0
-3 -16 0
-4 -5 0
-4 -6 0
-4 -7 0
-4 -8 0
-4 -9 0
-4 -10 0
-4 -11 0
-4 -12 0
-4 -13 0
-4 -14 0
-4 -15 0
-4 -16 0
-5 -6 0
-5 -7 0
-5 -8 0
-5 -9 0
-5 -10 0
-5 -11 0
-5 -12 0
-5 -13 0
-5 -14 0
-5 -15 0
-5 -16 0
-6 -7 0
-6 -8 0
-6 -9 0
-6 -10 0
-6 -11 0
-6 -12 0
-6 -13 0
-6 -14 0
-6 -15 0
-6 -16 0
-7 -8 0
-7 -9 0
-7 -10 0
-7 -11 0
-7 -12 0
-7 -13 0
-7 -14 0
-7 -15 0
-7 -16 0
-8 -9 0
-8 -10 0
-8 -11 0
-8 -12 0
-8 -13 0
-8 -14 0
-8 -15 0
-8 -16 0
-9 -10 0
-9 -11 0
-9 -12 0
-9 -13 0
-9 -14 0
-9 -15 0
-9 -16 0
-10 -11 0
-10 -12 0
-10 -13 0
-10 -14 0
-10 -15 0
-10 -16 0
-11 -12 0
-11 -13 0
-11 -14 0
-11 -15 0
-11 -16 0
-12 -13 0
-12 -14 0
-12 -15 0
-12 -16 0
-13 -14 0
-13 -15 0
-13 -16 0
-14 -15 0
-14 -16 0
-15 -16 0
17 18 19 20 21 22 23 24 25 26 27 28 29 30 31 32 0
-17 -18 0
-17 -19 0
-17 -20 0
-17 -21 0
-17 -22 0
-17 -23 0
-17 -24 0
-17 -25 0
-17 -26 0
-17 -27 0
-17 -28 0
-17 -29 0
-17 -30 0
-17 -31 0
-17 -32 0
-18 -19 0
-18 -20 0
-18 -21 0
-18 -22 0
-18 -23 0
-18 -24 0
-18 -25 0
-18 -26 0
-18 -27 0
-18 -28 0
-18 -29 0
-18 -30 0
-18 -31 0
-18 -32 0
-19 -20 0
-19 -21 0
-19 -22 0
-19 -23 0
-19 -24 0
-19 -25 0
-19 -26 0
-19 -27 0
-19 -28 0
-19 -29 0
-19 -30 0
-19 -31 0
-19 -32 0
-20 -21 0
-20 -22 0
-20 -23 0
-20 -24 0
-20 -25 0
-20 -26 0
-20 -27 0
-20 -28 0
-20 -29 0
-20 -30 0
-20 -31 0
-20 -32 0
-21 -22 0
-21 -23 0
-21 -24 0
-21 -25 0
-21 -26 0
-21 -27 0
-21 -28 0
-21 -29 0
-21 -30 0
-21 -31 0
-21 -32 0
-22 -23 0
-22 -24 0
-22 -25 0
-22 -26 0
-22 -27 0
-22 -28 0
-22 -29 0
-22 -30 0
-22 -31 0
-22 -32 0
-23 -24 0
-23 -25 0
-23 -26 0
-23 -27 0
-23 -28 0
-23 -29 0
-23 -30 0
-23 -31 0
-23 -32 0
-24 -25 0
-24 -26 0
-24 -27 0
-24 -28 0
-24 -29 0
-24 -30 0
-24 -31 0
-24 -32 0
-25 -26 0
-25 -27 0
-25 -28 0
-25 -29 0
-25 -30 0
-25 -31 0
-25 -32 0
-26 -27 0
-26 -28 0
-26 -29 0
-26 -30 0
-26 -31 0
-26 -32 0
-27 -28 0
-27 -29 0
-27 -30 0
-27 -31 0
-27 -32 0
-28 -29 0
-28 -30 0
-28 -31 0
-28 -32 0
-29 -30 0
-29 -31 0
-29 -32 0
-30 -31 0
-30 -32 0
-31 -32 0
33 34 35 36 37 38 39 40 41 42 43 44 45 46 47 48 0
-33 -34 0
-33 -35 0
-33 -36 0
-33 -37 0
-33 -38 0
-33 -39 0
-33 -40 0
-33 -41 0
-33 -42 0
-33 -43 0
-33 -44 0
-33 -45 0
-33 -46 0
-33 -47 0
-33 -48 0
-34 -35 0
-34 -36 0
-34 -37 0
-34 -38 0
-34 -39 0
-34 -40 0
-34 -41 0
-34 -42 0
-34 -43 0
-34 -44 0
-34 -45 0
-34 -46 0
-34 -47 0
-34 -48 0
-35 -36 0
-35 -37 0
-35 -38 0
-35 -39 0
-35 -40 0
-35 -41 0
-35 -42 0
-35 -43 0
-35 -44 0
-35 -45 0
-35 -46 0
-35 -47 0
-35 -48 0
-36 -37 0
-36 -38 0
-36 -39 0
-36 -40 0
-36 -41 0
-36 -42 0
-36 -43 0
-36 -44 0
-36 -45 0
-36 -46 0
-36 -47 0
-36 -48 0
-37 -38 0
-37 -39 0
-37 -40 0
-37 -41 0
-37 -42 0
-37 -43 0
-37 -44 0
-37 -45 0
-37 -46 0
-37 -47 0
-37 -48 0
-38 -39 0
-38 -40 0
-38 -41 0
-38 -42 0
-38 -43 0
-38 -44 0
-38 -45 0
-38 -46 0
-38 -47 0
-38 -48 0
-39 -40 0
-39 -41 0
-39 -42 0
-39 -43 0
-39 -44 0
-39 -45 0
-39 -46 0
-39 -47 0
-39 -48 0
-40 -41 0
-40 -42 0
-40 -43 0
-40 -44 0
-40 -45 0
-40 -46 0
-40 -47 0
-40 -48 0
-41 -42 0
-41 -43 0
-41 -44 0
-41 -45 0
-41 -46 0
-41 -47 0
-41 -48 0
-42 -43 0
-42 -44 0
-42 -45 0
-42 -46 0
-42 -47 0
-42 -48 0
-43 -44 0
-43 -45 0
-43 -46 0
-43 -47 0
-43 -48 0
-44 -45 0
-44 -46 0
-44 -47 0
-44 -48 0
-45 -46 0
-45 -47 0
-45 -48 0
-46 -47 0
-46 -48 0
-47 -48 0
49 50 51 52 53 54 55 56 57 58 59 60 61 62 63 64 0
-49 -50 0
-49 -51 0
-49 -52 0
-49 -53 0
-49 -54 0
-49 -55 0
-49 -56 0
-49 -57 0
-49 -58 0
-49 -59 0
-49 -60 0
-49 -61 0
-49 -62 0
-49 -63 0
-49 -64 0
-50 -51 0
-50 -52 0
-50 -53 0
-50 -54 0
-50 -55 0
-50 -56 0
-50 -57 0
-50 -58 0
-50 -59 0
-50 -60 0
-50 -61 0
-50 -62 0
-50 -63 0
-50 -64 0
-51 -52 0
-51 -53 0
-51 -54 0
-51 -55 0
-51 -56 0
-51 -57 0
-51 -58 0
-51 -59 0
-51 -60 0
-51 -61 0
-51 -62 0
-51 -63 0
-51 -64 0
-52 -53 0
-52 -54 0
-52 -55 0
-52 -56 0
-52 -57 0
-52 -58 0
-52 -59 0
-52 -60 0
-52 -61 0
-52 -62 0
-52 -63 0
-52 -64 0
-53 -54 0
-53 -55 0
-53 -56 0
-53 -57 0
-53 -58 0
-53 -59 0
-53 -60 0
-53 -61 0
-53 -62 0
-53 -63 0
-53 -64 0
-54 -55 0
-54 -56 0
-54 -57 0
-54 -58 0
-54 -59 0
-54 -60 0
-54 -61 0
-54 -62 0
-54 -63 0
-54 -64 0
-55 -56 0
-55 -57 0
-55 -58 0
-55 -59 0
-55 -60 0
-55 -61 0
-55 -62 0
-55 -63 0
-55 -64 0
-56 -57 0
-56 -58 0
-56 -59 0
-56 -60 0
-56 -61 0
-56 -62 0
-56 -63 0
-56 -64 0
-57 -58 0
-57 -59 0
-57 -60 0
-57 -61 0
-57 -62 0
-57 -63 0
-57 -64 0
-58 -59 0
-58 -60 0
-58 -61 0
-58 -62 0
-58 -63 0
-58 -64 0
-59 -60 0
-59 -61 0
-59 -62 0
-59 -63 0
-59 -64 0
-60 -61 0
-60 -62 0
-60 -63 0
-60 -64 0
-61 -62 0
-61 -63 0
-61 -64 0
-62 -63 0
-62 -64 0
-63 -64 0
65 66 67 68 69 70 71 72 73 74 75 76 77 78 79 80 0
-65 -66 0
-65 -67 0
-65 -68 0
-65 -69 0
-65 -70 0
-65 -71 0
-65 -72 0
-65 -73 0
-65 -74 0
-65 -75 0
-65 -76 0
-65 -77 0
-65 -78 0
-65 -79 0
-65 -80 0
-66 -67 0
-66 -68 0
-66 -69 0
-66 -70 0
-66 -71 0
-66 -72 0
-66 -73 0
-66 -74 0
-66 -75 0
-66 -76 0
-66 -77 0
-66 -78 0
-66 -79 0
-66 -80 0
-67 -68 0
-67 -69 0
-67 -70 0
-67 -71 0
-67 -72 0
-67 -73 0
-67 -74 0
-67 -75 0
-67 -76 0
-67 -77 0
-67 -78 0
-67 -79 0
-67 -80 0
-68 -69 0
-68 -70 0
-68 -71 0
-68 -72 0
-68 -73 0
-68 -74 0
-68 -75 0
-68 -76 0
-68 -77 0
-68 -78 0
-68 -79 0
-68 -80 0
-69 -70 0
-69 -71 0
-69 -72 0
-69 -73 0
-69 -74 0
-69 -75 0
-69 -76 0
-69 -77 0
-69 -78 0
-69 -79 0
-69 -80 0
-70 -71 0
-70 -72 0
-70 -73 0
-70 -74 0
-70 -75 0
-70 -76 0
-70 -77 0
-70 -78 0
-70 -79 0
-70 -80 0
-71 -72 0
-71 -73 0
-71 -74 0
-71 -75 0
-71 -76 0
-71 -77 0
-71 -78 0
-71 -79 0
-71 -80 0
-72 -73 0
-72 -74 0
-72 -75 0
-72 -76 0
-72 -77 0
-72 -78 0
-72 -79 0
-72 -80 0
-73 -74 0
-73 -75 0
-73 -76 0
-73 -77 0
-73 -78 0
-73 -79 0
-73 -80 0
-74 -75 0
-74 -76 0
-74 -77 0
-74 -78 0
-74 -79 0
-74 -80 0
-75 -76 0
-75 -77 0
-75 -78 0
-75 -79 0
-75 -80 0
-76 -77 0
-76 -78 0
-76 -79 0
-76 -80 0
-77 -78 0
-77 -79 0
-77 -80 0
-78 -79 0
-78 -80 0
-79 -80 0
81 82 83 84 85 86 87 88 89 90 91 92 93 94 95 96 0
-81 -82 0
-81 -83 0
-81 -84 0
-81 -85 0
-81 -86 0
-81 -87 0
-81 -88 0
-81 -89 0
-81 -90 0
-81 -91 0
-81 -92 0
-81 -93 0
-81 -94 0
-81 -95 0
-81 -96 0
-82 -83 0
-82 -84 0
-82 -85 0
-82 -86 0
-82 -87 0
-82 -88 0
-82 -89 0
-82 -90 0
-82 -91 0
-82 -92 0
-82 -93 0
-82 -94 0
-82 -95 0
-82 -96 0
-83 -84 0
-83 -85 0
-83 -86 0
-83 -87 0
-83 -88 0
-83 -89 0
-83 -90 0
-83 -91 0
-83 -92 0
-83 -93 0
-83 -94 0
-83 -95 0
-83 -96 0
-84 -85 0
-84 -86 0
-84 -87 0
-84 -88 0
-84 -89 0
-84 -90 0
-84 -91 0
-84 -92 0
-84 -93 0
-84 -94 0
-84 -95 0
-84 -96 0
-85 -86 0
-85 -87 0
-85 -88 0
-85 -89 0
-85 -90 0
-85 -91 0
-85 -92 0
-85 -93 0
-85 -94 0
-85 -95 0
-85 -96 0
-86 -87 0
-86 -88 0
-86 -89 0
-86 -90 0
-86 -91 0
-86 -92 0
-86 -93 0
-86 -94 0
-86 -95 0
-86 -96 0
-87 -88 0
-87 -89 0
-87 -90 0
-87 -91 0
-87 -92 0
-87 -93 0
-87 -94 0
-87 -95 0
-87 -96 0
-88 -89 0
-88 -90 0
-88 -91 0
-88 -92 0
-88 -93 0
-88 -94 0
-88 -95 0
-88 -96 0
-89 -90 0
-89 -91 0
-89 -92 0
-89 -93 0
-89 -94 0
-89 -95 0
-89 -96 0
-90 -91 0
-90 -92 0
-90 -93 0
-90 -94 0
-90 -95 0
-90 -96 0
-91 -92 0
-91 -93 0
-91 -94 0
-91 -95 0
-91 -96 0
-92 -93 0
-92 -94 0
-92 -95 0
-92 -96 0
-93 -94 0
-93 -95 0
-93 -96 0
-94 -95 0
-94 -96 0
-95 -96 0
97 98 99 100 101 102 103 104 105 106 107 108 109 110 111 112 0
-97 -98 0
-97 -99 0
-97 -100 0
-97 -101 0
-97 -102 0
-97 -103 0
-97 -104 0
-97 -105 0
-97 -106 0
-97 -107 0
-97 -108 0
-97 -109 0
-97 -110 0
-97 -111 0
-97 -112 0
-98 -99 0
-98 -100 0
-98 -101 0
-98 -102 0
-98 -103 0
-98 -104 0
-98 -105 0
-98 -106 0
-98 -107 0
-98 -108 0
-98 -109 0
-98 -110 0
-98 -111 0
-98 -112 0
-99 -100 0
-99 -101 0
-99 -102 0
-99 -103 0
-99 -104 0
-99 -105 0
-99 -106 0
-99 -107 0
-99 -108 0
-99 -109 0
-99 -110 0
-99 -111 0
-99 -112 0
-100 -101 0
-100 -102 0
-100 -103 0
-100 -104 0
-100 -105 0
-100 -106 0
-100 -107 0
-100 -108 0
-100 -109 0
-100 -110 0
-100 -111 0
-100 -112 0
-101 -102 0
-101 -103 0
-101 -104 0
-101 -105 0
-101 -106 0
-101 -107 0
-101 -108 0
-101 -109 0
-101 -110 0
-101 -111 0
-101 -112 0
-102 -103 0
-102 -104 0
-102 -105 0
-102 -106 0
-102 -107 0
-102 -108 0
-102 -109 0
-102 -110 0
-102 -111 0
-102 -112 0
-103 -104 0
-103 -105 0
-103 -106 0
-103 -107 0
-103 -108 0
-103 -109 0
-103 -110 0
-103 -111 0
-103 -112 0
-104 -105 0
-104 -106 0
-104 -107 0
-104 -108 0
-104 -109 0
-104 -110 0
-104 -111 0
-104 -112 0
-105 -106 0
-105 -107 0
-105 -108 0
-105 -109 0
-105 -110 0
-105 -111 0
-105 -112 0
-106 -107 0
-106 -108 0
-106 -109 0
-106 -110 0
-106 -111 0
-106 -112 0
-107 -108 0
-107 -109 0
-107 -110 0
-107 -111 0
-107 -112 0
-108 -109 0
-108 -110 0
-108 -111 0
-108 -112 0
-109 -110 0
-109 -111 0
-109 -112 0
-110 -111 0
-110 -112 0
-111 -112 0
113 114 115 116 117 118 119 120 121 122 123 124 125 126 127 128 0
-113 -114 0
-113 -115 0
-113 -116 0
-113 -117 0
-113 -118 0
-113 -119 0
-113 -120 0
-113 -121 0
-113 -122 0
-113 -123 0
-113 -124 0
-113 -125 0
-113 -126 0
-113 -127 0
-113 -128 0
-114 -115 0
-114 -116 0
-114 -117 0
-114 -118 0
-114 -119 0
-114 -120 0
-114 -121 0
-114 -122 0
-114 -123 0
-114 -124 0
-114 -125 0
-114 -126 0
-114 -127 0
-114 -128 0
-115 -116 0
-115 -117 0
-115 -118 0
-115 -119 0
-115 -120 0
-115 -121 0
-115 -122 0
-115 -123 0
-115 -124 0
-115 -125 0
-115 -126 0
-115 -127 0
-115 -128 0
-116 -117 0
-116 -118 0
-116 -119 0
-116 -120 0
-116 -121 0
-116 -122 0
-116 -123 0
-116 -124 0
-116 -125 0
-116 -126 0
-116 -127 0
-116 -128 0
-117 -118 0
-117 -119 0
-117 -120 0
-117 -121 0
-117 -122 0
-117 -123 0
-117 -124 0
-117 -125 0
-117 -126 0
-117 -127 0
-117 -128 0
-118 -119 0
-118 -120 0
-118 -121 0
-118 -122 0
-118 -123 0
-118 -124 0
-118 -125 0
-118 -126 0
-118 -127 0
-118 -128 0
-119 -120 0
-119 -121 0
-119 -122 0
-119 -123 0
-119 -124 0
-119 -125 0
-119 -126 0
-119 -127 0
-119 -128 0
-120 -121 0
-120 -122 0
-120 -123 0
-120 -124 0
-120 -125 0
-120 -126 0
-120 -127 0
-120 -128 0
-121 -122 0
-121 -123 0
-121 -124 0
-121 -125 0
-121 -126 0
-121 -127 0
-121 -128 0
-122 -123 0
-122 -124 0
-122 -125 0
-122 -126 0
-122 -127 0
-122 -128 0
-123 -124 0
-123 -125 0
-123 -126 0
-123 -127 0
-123 -128 0
-124 -125 0
-124 -126 0
-124 -127 0
-124 -128 0
-125 -126 0
-125 -127 0
-125 -128 0
-126 -127 0
-126 -128 0
-127 -128 0
129 130 131 132 133 134 135 136 137 138 139 140 141 142 143 144 0
-129 -130 0
-129 -131 0
-129 -132 0
-129 -133 0
-129 -134 0
-129 -135 0
-129 -136 0
-129 -137 0
-129 -138 0
-129 -139 0
-129 -140 0
-129 -141 0
-129 -142 0
-129 -143 0
-129 -144 0
-130 -131 0
-130 -132 0
-130 -133 0
-130 -134 0
-130 -135 0
-130 -136 0
-130 -137 0
-130 -138 0
-130 -139 0
-130 -140 0
-130 -141 0
-130 -142 0
-130 -143 0
-130 -144 0
-131 -132 0
-131 -133 0
-131 -134 0
-131 -135 0
-131 -136 0
-131 -137 0
-131 -138 0
-131 -139 0
-131 -140 0
-131 -141 0
-131 -142 0
-131 -143 0
-131 -144 0
-132 -133 0
-132 -134 0
-132 -135 0
-132 -136 0
-132 -137 0
-132 -138 0
-132 -139 0
-132 -140 0
-132 -141 0
-132 -142 0
-132 -143 0
-132 -144 0
-133 -134 0
-133 -135 0
-133 -136 0
-133 -137 0
-133 -138 0
-133 -139 0
-133 -140 0
-133 -141 0
-133 -142 0
-133 -143 0
-133 -144 0
-134 -135 0
-134 -136 0
-134 -137 0
-134 -138 0
-134 -139 0
-134 -140 0
-134 -141 0
-134 -142 0
-134 -143 0
-134 -144 0
-135 -136 0
-135 -137 0
-135 -138 0
-135 -139 0
-135 -140 0
-135 -141 0
-135 -142 0
-135 -143 0
-135 -144 0
-136 -137 0
-136 -138 0
-136 -139 0
-136 -140 0
-136 -141 0
-136 -142 0
-136 -143 0
-136 -144 0
-137 -138 0
-137 -139 0
-137 -140 0
-137 -141 0
-137 -142 0
-137 -143 0
-137 -144 0
-138 -139 0
-138 -140 0
-138 -141 0
-138 -142 0
-138 -143 0
-138 -144 0
-139 -140 0
-139 -141 0
-139 -142 0
-139 -143 0
-139 -144 0
-140 -141 0
-140 -142 0
-140 -143 0
-140 -144 0
-141 -142 0
-141 -143 0
-141 -144 0
-142 -143 0
-142 -144 0
-143 -144 0
145 146 147 148 149 150 151 152 153 154 155 156 157 158 159 160 0
-145 -146 0
-145 -147 0
-145 -148 0
-145 -149 0
-145 -150 0
-145 -151 0
-145 -152 0
-145 -153 0
-145 -154 0
-145 -155 0
-145 -156 0
-145 -157 0
-145 -158 0
-145 -159 0
-145 -160 0
-146 -147 0
-146 -148 0
-146 -149 0
-146 -150 0
-146 -151 0
-146 -152 0
-146 -153 0
-146 -154 0
-146 -155 0
-146 -156 0
-146 -157 0
-146 -158 0
-146 -159 0
-146 -160 0
-147 -148 0
-147 -149 0
-147 -150 0
-147 -151 0
-147 -152 0
-147 -153 0
-147 -154 0
-147 -155 0
-147 -156 0
-147 -157 0
-147 -158 0
-147 -159 0
-147 -160 0
-148 -149 0
-148 -150 0
-148 -151 0
-148 -152 0
-148 -153 0
-148 -154 0
-148 -155 0
-148 -156 0
-148 -157 0
-148 -158 0
-148 -159 0
-148 -160 0
-149 -150 0
-149 -151 0
-149 -152 0
-149 -153 0
-149 -154 0
-149 -155 0
-149 -156 0
-149 -157 0
-149 -158 0
-149 -159 0
-149 -160 0
-150 -151 0
-150 -152 0
-150 -153 0
-150 -154 0
-150 -155 0
-150 -156 0
-150 -157 0
-150 -158 0
-150 -159 0
-150 -160 0
-151 -152 0
-151 -153 0
-151 -154 0
-151 -155 0
-151 -156 0
-151 -157 0
-151 -158 0
-151 -159 0
-151 -160 0
-152 -153 0
-152 -154 0
-152 -155 0
-152 -156 0
-152 -157 0
-152 -158 0
-152 -159 0
-152 -160 0
-153 -154 0
-153 -155 0
-153 -156 0
-153 -157 0
-153 -158 0
-153 -159 0
-153 -160 0
-154 -155 0
-154 -156 0
-154 -157 0
-154 -158 0
-154 -159 0
-154 -160 0
-155 -156 0
-155 -157 0
-155 -158 0
-155 -159 0
-155 -160 0
-156 -157 0
-156 -158 0
-156 -159 0
-156 -160 0
-157 -158 0
-157 -159 0
-157 -160 0
-158 -159 0
-158 -160 0
-159 -160 0
161 162 163 164 165 166 167 168 169 170 171 172 173 174 175 176 0
-161 -162 0
-161 -163 0
-161 -164 0
-161 -165 0
-161 -166 0
-161 -167 0
-161 -168 0
-161 -169 0
-161 -170 0
-161 -171 0
-161 -172 0
-161 -173 0
-161 -174 0
-161 -175 0
-161 -176 0
-162 -163 0
-162 -164 0
-162 -165 0
-162 -166 0
-162 -167 0
-162 -168 0
-162 -169 0
-162 -170 0
-162 -171 0
-162 -172 0
-162 -173 0
-162 -174 0
-162 -175 0
-162 -176 0
-163 -164 0
-163 -165 0
-163 -166 0
-163 -167 0
-163 -168 0
-163 -169 0
-163 -170 0
-163 -171 0
-163 -172 0
-163 -173 0
-163 -174 0
-163 -175 0
-163 -176 0
-164 -165 0
-164 -166 0
-164 -167 0
-164 -168 0
-164 -169 0
-164 -170 0
-164 -171 0
-164 -172 0
-164 -173 0
-164 -174 0
-164 -175 0
-164 -176 0
-165 -166 0
-165 -167 0
-165 -168 0
-165 -169 0
-165 -170 0
-165 -171 0
-165 -172 0
-165 -173 0
-165 -174 0
-165 -175 0
-165 -176 0
-166 -167 0
-166 -168 0
-166 -169 0
-166 -170 0
-166 -171 0
-166 -172 0
-166 -173 0
-166 -174 0
-166 -175 0
-166 -176 0
-167 -168 0
-167 -169 0
-167 -170 0
-167 -171 0
-167 -172 0
-167 -173 0
-167 -174 0
-167 -175 0
-167 -176 0
-168 -169 0
-168 -170 0
-168 -171 0
-168 -172 0
-168 -173 0
-168 -174 0
-168 -175 0
-168 -176 0
-169 -170 0
-169 -171 0
-169 -172 0
-169 -173 0
-169 -174 0
-169 -175 0
-169 -176 0
-170 -171 0
-170 -172 0
-170 -173 0
-170 -174 0
-170 -175 0
-170 -176 0
-171 -172 0
-171 -173 0
-171 -174 0
-171 -175 0
-171 -176 0
-172 -173 0
-172 -174 0
-172 -175 0
-172 -176 0
-173 -174 0
-173 -175 0
-173 -176 0
-174 -175 0
-174 -176 0
-175 -176 0
177 178 179 180 181 182 183 184 185 186 187 188 189 190 191 192 0
-177 -178 0
-177 -179 0
-177 -180 0
-177 -181 0
-177 -182 0
-177 -183 0
-177 -184 0
-177 -185 0
-177 -186 0
-177 -187 0
-177 -188 0
-177 -189 0
-177 -190 0
-177 -191 0
-177 -192 0
-178 -179 0
-178 -180 0
-178 -181 0
-178 -182 0
-178 -183 0
-178 -184 0
-178 -185 0
-178 -186 0
-178 -187 0
-178 -188 0
-178 -189 0
-178 -190 0
-178 -191 0
-178 -192 0
-179 -180 0
-179 -181 0
-179 -182 0
-179 -183 0
-179 -184 0
-179 -185 0
-179 -186 0
-179 -187 0
-179 -188 0
-179 -189 0
-179 -190 0
-179 -191 0
-179 -192 0
-180 -181 0
-180 -182 0
-180 -183 0
-180 -184 0
-180 -185 0
-180 -186 0
-180 -187 0
-180 -188 0
-180 -189 0
-180 -190 0
-180 -191 0
-180 -192 0
-181 -182 0
-181 -183 0
-181 -184 0
-181 -185 0
-181 -186 0
-181 -187 0
-181 -188 0
-181 -189 0
-181 -190 0
-181 -191 0
-181 -192 0
-182 -183 0
-182 -184 0
-182 -185 0
-182 -186 0
-182 -187 0
-182 -188 0
-182 -189 0
-182 -190 0
-182 -191 0
-182 -192 0
-183 -184 0
-183 -185 0
-183 -186 0
-183 -187 0
-183 -188 0
-183 -189 0
-183 -190 0
-183 -191 0
-183 -192 0
-184 -185 0
-184 -186 0
-184 -187 0
-184 -188 0
-184 -189 0
-184 -190 0
-184 -191 0
-184 -192 0
-185 -186 0
-185 -187 0
-185 -188 0
-185 -189 0
-185 -190 0
-185 -191 0
-185 -192 0
-186 -187 0
-186 -188 0
-186 -189 0
-186 -190 0
-186 -191 0
-186 -192 0
-187 -188 0
-187 -189 0
-187 -190 0
-187 -191 0
-187 -192 0
-188 -189 0
-188 -190 0
-188 -191 0
-188 -192 0
-189 -190 0
-189 -191 0
-189 -192 0
-190 -191 0
-190 -192 0
-191 -192 0
193 194 195 196 197 198 199 200 201 202 203 204 205 206 207 208 0
-193 -194 0
-193 -195 0
-193 -196 0
-193 -197 0
-193 -198 0
-193 -199 0
-193 -200 0
-193 -201 0
-193 -202 0
-193 -203 0
-193 -204 0
-193 -205 0
-193 -206 0
-193 -207 0
-193 -208 0
-194 -195 0
-194 -196 0
-194 -197 0
-194 -198 0
-194 -199 0
-194 -200 0
-194 -201 0
-194 -202 0
-194 -203 0
-194 -204 0
-194 -205 0
-194 -206 0
-194 -207 0
-194 -208 0
-195 -196 0
-195 -197 0
-195 -198 0
-195 -199 0
-195 -200 0
-195 -201 0
-195 -202 0
-195 -203 0
-195 -204 0
-195 -205 0
-195 -206 0
-195 -207 0
-195 -208 0
-196 -197 0
-196 -198 0
-196 -199 0
-196 -200 0
-196 -201 0
-196 -202 0
-196 -203 0
-196 -204 0
-196 -205 0
-196 -206 0
-196 -207 0
-196 -208 0
-197 -198 0
-197 -199 0
-197 -200 0
-197 -201 0
-197 -202 0
-197 -203 0
-197 -204 0
-197 -205 0
-197 -206 0
-197 -207 0
-197 -208 0
-198 -199 0
-198 -200 0
-198 -201 0
-198 -202 0
-198 -203 0
-198 -204 0
-198 -205 0
-198 -206 0
-198 -207 0
-198 -208 0
-199 -200 0
-199 -201 0
-199 -202 0
-199 -203 0
-199 -204 0
-199 -205 0
-199 -206 0
-199 -207 0
-199 -208 0
-200 -201 0
-200 -202 0
-200 -203 0
-200 -204 0
-200 -205 0
-200 -206 0
-200 -207 0
-200 -208 0
-201 -202 0
-201 -203 0
-201 -204 0
-201 -205 0
-201 -206 0
-201 -207 0
-201 -208 0
-202 -203 0
-202 -204 0
-202 -205 0
-202 -206 0
-202 -207 0
-202 -208 0
-203 -204 0
-203 -205 0
-203 -206 0
-203 -207 0
-203 -208 0
-204 -205 0
-204 -206 0
-204 -207 0
-204 -208 0
-205 -206 0
-205 -207 0
-205 -208 0
-206 -207 0
-206 -208 0
-207 -208 0
209 210 211 212 213 214 215 216 217 218 219 220 221 222 223 224 0
-209 -210 0
-209 -211 0
-209 -212 0
-209 -213 0
-209 -214 0
-209 -215 0
-209 -216 0
-209 -217 0
-209 -218 0
-209 -219 0
-209 -220 0
-209 -221 0
-209 -222 0
-209 -223 0
-209 -224 0
-210 -211 0
-210 -212 0
-210 -213 0
-210 -214 0
-210 -215 0
-210 -216 0
-210 -217 0
-210 -218 0
-210 -219 0
-210 -220 0
-210 -221 0
-210 -222 0
-210 -223 0
-210 -224 0
-211 -212 0
-211 -213 0
-211 -214 0
-211 -215 0
-211 -216 0
-211 -217 0
-211 -218 0
-211 -219 0
-211 -220 0
-211 -221 0
-211 -222 0
-211 -223 0
-211 -224 0
-212 -213 0
-212 -214 0
-212 -215 0
-212 -216 0
-212 -217 0
-212 -218 0
-212 -219 0
-212 -220 0
-212 -221 0
-212 -222 0
-212 -223 0
-212 -224 0
-213 -214 0
-213 -215 0
-213 -216 0
-213 -217 0
-213 -218 0
-213 -219 0
-213 -220 0
-213 -221 0
-213 -222 0
-213 -223 0
-213 -224 0
-214 -215 0
-214 -216 0
-214 -217 0
-214 -218 0
-214 -219 0
-214 -220 0
-214 -221 0
-214 -222 0
-214 -223 0
-214 -224 0
-215 -216 0
-215 -217 0
-215 -218 0
-215 -219 0
-215 -220 0
-215 -221 0
-215 -222 0
-215 -223 0
-215 -224 0
-216 -217 0
-216 -218 0
-216 -219 0
-216 -220 0
-216 -221 0
-216 -222 0
-216 -223 0
-216 -224 0
-217 -218 0
-217 -219 0
-217 -220 0
-217 -221 0
-217 -222 0
-217 -223 0
-217 -224 0
-218 -219 0
-218 -220 0
-218 -221 0
-218 -222 0
-218 -223 0
-218 -224 0
-219 -220 0
-219 -221 0
-219 -222 0
-219 -223 0
-219 -224 0
-220 -221 0
-220 -222 0
-220 -223 0
-220 -224 0
-221 -222 0
-221 -223 0
-221 -224 0
-222 -223 0
-222 -224 0
-223 -224 0
225 226 227 228 229 230 231 232 233 234 235 236 237 238 239 240 0
-225 -226 0
-225 -227 0
-225 -228 0
-225 -229 0
-225 -230 0
-225 -231 0
-225 -232 0
-225 -233 0
-225 -234 0
-225 -235 0
-225 -236 0
-225 -237 0
-225 -238 0
-225 -239 0
-225 -240 0
-226 -227 0
-226 -228 0
-226 -229 0
-226 -230 0
-226 -231 0
-226 -232 0
-226 -233 0
-226 -234 0
-226 -235 0
-226 -236 0
-226 -237 0
-226 -238 0
-226 -239 0
-226 -240 0
-227 -228 0
-227 -229 0
-227 -230 0
-227 -231 0
-227 -232 0
-227 -233 0
-227 -234 0
-227 -235 0
-227 -236 0
-227 -237 0
-227 -238 0
-227 -239 0
-227 -240 0
-228 -229 0
-228 -230 0
-228 -231 0
-228 -232 0
-228 -233 0
-228 -234 0
-228 -235 0
-228 -236 0
-228 -237 0
-228 -238 0
-228 -239 0
-228 -240 0
-229 -230 0
-229 -231 0
-229 -232 0
-229 -233 0
-229 -234 0
-229 -235 0
-229 -236 0
-229 -237 0
-229 -238 0
-229 -239 0
-229 -240 0
-230 -231 0
-230 -232 0
-230 -233 0
-230 -234 0
-230 -235 0
-230 -236 0
-230 -237 0
-230 -238 0
-230 -239 0
-230 -240 0
-231 -232 0
-231 -233 0
-231 -234 0
-231 -235 0
-231 -236 0
-231 -237 0
-231 -238 0
-231 -239 0
-231 -240 0
-232 -233 0
-232 -234 0
-232 -235 0
-232 -236 0
-232 -237 0
-232 -238 0
-232 -239 0
-232 -240 0
-233 -234 0
-233 -235 0
-233 -236 0
-233 -237 0
-233 -238 0
-233 -239 0
-233 -240 0
-234 -235 0
-234 -236 0
-234 -237 0
-234 -238 0
-234 -239 0
-234 -240 0
-235 -236 0
-235 -237 0
-235 -238 0
-235 -239 0
-235 -240 0
-236 -237 0
-236 -238 0
-236 -239 0
-236 -240 0
-237 -238 0
-237 -239 0
-237 -240 0
-238 -239 0
-238 -240 0
-239 -240 0
241 242 243 244 245 246 247 248 249 250 251 252 253 254 255 256 0
-241 -242 0
-241 -243 0
-241 -244 0
-241 -245 0
-241 -246 0
-241 -247 0
-241 -248 0
-241 -249 0
-241 -250 0
-241 -251 0
-241 -252 0
-241 -253 0
-241 -254 0
-241 -255 0
-241 -256 0
-242 -243 0
-242 -244 0
-242 -245 0
-242 -246 0
-242 -247 0
-242 -248 0
-242 -249 0
-242 -250 0
-242 -251 0
-242 -252 0
-242 -253 0
-242 -254 0
-242 -255 0
-242 -256 0
-243 -244 0
-243 -245 0
-243 -246 0
-243 -247 0
-243 -248 0
-243 -249 0
-243 -250 0
-243 -251 0
-243 -252 0
-243 -253 0
-243 -254 0
-243 -255 0
-243 -256 0
-244 -245 0
-244 -246 0
-244 -247 0
-244 -248 0
-244 -249 0
-244 -250 0
-244 -251 0
-244 -252 0
-244 -253 0
-244 -254 0
-244 -255 0
-244 -256 0
-245 -246 0
-245 -247 0
-245 -248 0
-245 -249 0
-245 -250 0
-245 -251 0
-245 -252 0
-245 -253 0
-245 -254 0
-245 -255 0
-245 -256 0
-246 -247 0
-246 -248 0
-246 -249 0
-246 -250 0
-246 -251 0
-246 -252 0
-246 -253 0
-246 -254 0
-246 -255 0
-246 -256 0
-247 -248 0
-247 -249 0
-247 -250 0
-247 -251 0
-247 -252 0
-247 -253 0
-247 -254 0
-247 -255 0
-247 -256 0
-248 -249 0
-248 -250 0
-248 -251 0
-248 -252 0
-248 -253 0
-248 -254 0
-248 -255 0
-248 -256 0
-249 -250 0
-249 -251 0
-249 -252 0
-249 -253 0
-249 -254 0
-249 -255 0
-249 -256 0
-250 -251 0
-250 -252 0
-250 -253 0
-250 -254 0
-250 -255 0
-250 -256 0
-251 -252 0
-251 -253 0
-251 -254 0
-251 -255 0
-251 -256 0
-252 -253 0
-252 -254 0
-252 -255 0
-252 -256 0
-253 -254 0
-253 -255 0
-253 -256 0
-254 -255 0
-254 -256 0
-255 -256 0
257 258 259 260 261 262 263 264 265 266 267 268 269 270 271 272 0
-257 -258 0
-257 -259 0
-257 -260 0
-257 -261 0
-257 -262 0
-257 -263 0
-257 -264 0
-257 -265 0
-257 -266 0
-257 -267 0
-257 -268 0
-257 -269 0
-257 -270 0
-257 -271 0
-257 -272 0
-258 -259 0
-258 -260 0
-258 -261 0
-258 -262 0
-258 -263 0
-258 -264 0
-258 -265 0
-258 -266 0
-258 -267 0
-258 -268 0
-258 -269 0
-258 -270 0
-258 -271 0
-258 -272 0
-259 -260 0
-259 -261 0
-259 -262 0
-259 -263 0
-259 -264 0
-259 -265 0
-259 -266 0
-259 -267 0
-259 -268 0
-259 -269 0
-259 -270 0
-259 -271 0
-259 -272 0
-260 -261 0
-260 -262 0
-260 -263 0
-260 -264 0
-260 -265 0
-260 -266 0
-260 -267 0
-260 -268 0
-260 -269 0
-260 -270 0
-260 -271 0
-260 -272 0
-261 -262 0
-261 -263 0
-261 -264 0
-261 -265 0
-261 -266 0
-261 -267 0
-261 -268 0
-261 -269 0
-261 -270 0
-261 -271 0
-261 -272 0
-262 -263 0
-262 -264 0
-262 -265 0
-262 -266 0
-262 -267 0
-262 -268 0
-262 -269 0
-262 -270 0
-262 -271 0
-262 -272 0
-263 -264 0
-263 -265 0
-263 -266 0
-263 -267 0
-263 -268 0
-263 -269 0
-263 -270 0
-263 -271 0
-263 -272 0
-264 -265 0
-264 -266 0
-264 -267 0
-264 -268 0
-264 -269 0
-264 -270 0
-264 -271 0
-264 -272 0
-265 -266 0
-265 -267 0
-265 -268 0
-265 -269 0
-265 -270 0
-265 -271 0
-265 -272 0
-266 -267 0
-266 -268 0
-266 -269 0
-266 -270 0
-266 -271 0
-266 -272 0
-267 -268 0
-267 -269 0
-267 -270 0
-267 -271 0
-267 -272 0
-268 -269 0
-268 -270 0
-268 -271 0
-268 -272 0
-269 -270 0
-269 -271 0
-269 -272 0
-270 -271 0
-270 -272 0
-271 -272 0
273 274 275 276 277 278 279 280 281 282 283 284 285 286 287 288 0
-273 -274 0
-273 -275 0
-273 -276 0
-273 -277 0
-273 -278 0
-273 -279 0
-273 -280 0
-273 -281 0
-273 -282 0
-273 -283 0
-273 -284 0
-273 -285 0
-273 -286 0
-273 -287 0
-273 -288 0
-274 -275 0
-274 -276 0
-274 -277 0
-274 -278 0
-274 -279 0
-274 -280 0
-274 -281 0
-274 -282 0
-274 -283 0
-274 -284 0
-274 -285 0
-274 -286 0
-274 -287 0
-274 -288 0
-275 -276 0
-275 -277 0
-275 -278 0
-275 -279 0
-275 -280 0
-275 -281 0
-275 -282 0
-275 -283 0
-275 -284 0
-275 -285 0
-275 -286 0
-275 -287 0
-275 -288 0
-276 -277 0
-276 -278 0
-276 -279 0
-276 -280 0
-276 -281 0
-276 -282 0
-276 -283 0
-276 -284 0
-276 -285 0
-276 -286 0
-276 -287 0
-276 -288 0
-277 -278 0
-277 -279 0
-277 -280 0
-277 -281 0
-277 -282 0
-277 -283 0
-277 -284 0
-277 -285 0
-277 -286 0
-277 -287 0
-277 -288 0
-278 -279 0
-278 -280 0
-278 -281 0
-278 -282 0
-278 -283 0
-278 -284 0
-278 -285 0
-278 -286 0
-278 -287 0
-278 -288 0
-279 -280 0
-279 -281 0
-279 -282 0
-279 -283 0
-279 -284 0
-279 -285 0
-279 -286 0
-279 -287 0
-279 -288 0
-280 -281 0
-280 -282 0
-280 -283 0
-280 -284 0
-280 -285 0
-280 -286 0
-280 -287 0
-280 -288 0
-281 -282 0
-281 -283 0
-281 -284 0
-281 -285 0
-281 -286 0
-281 -287 0
-281 -288 0
-282 -283 0
-282 -284 0
-282 -285 0
-282 -286 0
-282 -287 0
-282 -288 0
-283 -284 0
-283 -285 0
-283 -286 0
-283 -287 0
-283 -288 0
-284 -285 0
-284 -286 0
-284 -287 0
-284 -288 0
-285 -286 0
-285 -287 0
-285 -288 0
-286 -287 0
-286 -288 0
-287 -288 0
289 290 291 292 293 294 295 296 297 298 299 300 301 302 303 304 0
-289 -290 0
-289 -291 0
-289 -292 0
-289 -293 0
-289 -294 0
-289 -295 0
-289 -296 0
-289 -297 0
-289 -298 0
-289 -299 0
-289 -300 0
-289 -301 0
-289 -302 0
-289 -303 0
-289 -304 0
-290 -291 0
-290 -292 0
-290 -293 0
-290 -294 0
-290 -295 0
-290 -296 0
-290 -297 0
-290 -298 0
-290 -299 0
-290 -300 0
-290 -301 0
-290 -302 0
-290 -303 0
-290 -304 0
-291 -292 0
-291 -293 0
-291 -294 0
-291 -295 0
-291 -296 0
-291 -297 0
-291 -298 0
-291 -299 0
-291 -300 0
-291 -301 0
-291 -302 0
-291 -303 0
-291 -304 0
-292 -293 0
-292 -294 0
-292 -295 0
-292 -296 0
-292 -297 0
-292 -298 0
-292 -299 0
-292 -300 0
-292 -301 0
-292 -302 0
-292 -303 0
-292 -304 0
-293 -294 0
-293 -295 0
-293 -296 0
-293 -297 0
-293 -298 0
-293 -299 0
-293 -300 0
-293 -301 0
-293 -302 0
-293 -303 0
-293 -304 0
-294 -295 0
-294 -296 0
-294 -297 0
-294 -298 0
-294 -299 0
-294 -300 0
-294 -301 0
-294 -302 0
-294 -303 0
-294 -304 0
-295 -296 0
-295 -297 0
-295 -298 0
-295 -299 0
-295 -300 0
-295 -301 0
-295 -302 0
-295 -303 0
-295 -304 0
-296 -297 0
-296 -298 0
-296 -299 0
-296 -300 0
-296 -301 0
-296 -302 0
-296 -303 0
-296 -304 0
-297 -298 0
-297 -299 0
-297 -300 0
-297 -301 0
-297 -302 0
-297 -303 0
-297 -304 0
-298 -299 0
-298 -300 0
-298 -301 0
-298 -302 0
-298 -303 0
-298 -304 0
-299 -300 0
-299 -301 0
-299 -302 0
-299 -303 0
-299 -304 0
-300 -301 0
-300 -302 0
-300 -303 0
-300 -304 0
-301 -302 0
-301 -303 0
-301 -304 0
-302 -303 0
-302 -304 0
-303 -304 0
305 306 307 308 309 310 311 312 313 314 315 316 317 318 319 320 0
-305 -306 0
-305 -307 0
-305 -308 0
-305 -309 0
-305 -310 0
-305 -311 0
-305 -312 0
-305 -313 0
-305 -314 0
-305 -315 0
-305 -316 0
-305 -317 0
-305 -318 0
-305 -319 0
-305 -320 0
-306 -307 0
-306 -308 0
-306 -309 0
-306 -310 0
-306 -311 0
-306 -312 0
-306 -313 0
-306 -314 0
-306 -315 0
-306 -316 0
-306 -317 0
-306 -318 0
-306 -319 0
-306 -320 0
-307 -308 0
-307 -309 0
-307 -310 0
-307 -311 0
-307 -312 0
-307 -313 0
-307 -314 0
-307 -315 0
-307 -316 0
-307 -317 0
-307 -318 0
-307 -319 0
-307 -320 0
-308 -309 0
-308 -310 0
-308 -311 0
-308 -312 0
-308 -313 0
-308 -314 0
-308 -315 0
-308 -316 0
-308 -317 0
-308 -318 0
-308 -319 0
-308 -320 0
-309 -310 0
-309 -311 0
-309 -312 0
-309 -313 0
-309 -314 0
-309 -315 0
-309 -316 0
-309 -317 0
-309 -318 0
-309 -319 0
-309 -320 0
-310 -311 0
-310 -312 0
-310 -313 0
-310 -314 0
-310 -315 0
-310 -316 0
-310 -317 0
-310 -318 0
-310 -319 0
-310 -320 0
-311 -312 0
-311 -313 0
-311 -314 0
-311 -315 0
-311 -316 0
-311 -317 0
-311 -318 0
-311 -319 0
-311 -320 0
-312 -313 0
-312 -314 0
-312 -315 0
-312 -316 0
-312 -317 0
-312 -318 0
-312 -319 0
-312 -320 0
-313 -314 0
-313 -315 0
-313 -316 0
-313 -317 0
-313 -318 0
-313 -319 0
-313 -320 0
-314 -315 0
-314 -316 0
-314 -317 0
-314 -318 0
-314 -319 0
-314 -320 0
-315 -316 0
-315 -317 0
-315 -318 0
-315 -319 0
-315 -320 0
-316 -317 0
-316 -318 0
-316 -319 0
-316 -320 0
-317 -318 0
-317 -319 0
-317 -320 0
-318 -319 0
-318 -320 0
-319 -320 0
321 322 323 324 325 326 327 328 329 330 331 332 333 334 335 336 0
-321 -322 0
-321 -323 0
-321 -324 0
-321 -325 0
-321 -326 0
-321 -327 0
-321 -328 0
-321 -329 0
-321 -330 0
-321 -331 0
-321 -332 0
-321 -333 0
-321 -334 0
-321 -335 0
-321 -336 0
-322 -323 0
-322 -324 0
-322 -325 0
-322 -326 0
-322 -327 0
-322 -328 0
-322 -329 0
-322 -330 0
-322 -331 0
-322 -332 0
-322 -333 0
-322 -334 0
-322 -335 0
-322 -336 0
-323 -324 0
-323 -325 0
-323 -326 0
-323 -327 0
-323 -328 0
-323 -329 0
-323 -330 0
-323 -331 0
-323 -332 0
-323 -333 0
-323 -334 0
-323 -335 0
-323 -336 0
-324 -325 0
-324 -326 0
-324 -327 0
-324 -328 0
-324 -329 0
-324 -330 0
-324 -331 0
-324 -332 0
-324 -333 0
-324 -334 0
-324 -335 0
-324 -336 0
-325 -326 0
-325 -327 0
-325 -328 0
-325 -329 0
-325 -330 0
-325 -331 0
-325 -332 0
-325 -333 0
-325 -334 0
-325 -335 0
-325 -336 0
-326 -327 0
-326 -328 0
-326 -329 0
-326 -330 0
-326 -331 0
-326 -332 0
-326 -333 0
-326 -334 0
-326 -335 0
-326 -336 0
-327 -328 0
-327 -329 0
-327 -330 0
-327 -331 0
-327 -332 0
-327 -333 0
-327 -334 0
-327 -335 0
-327 -336 0
-328 -329 0
-328 -330 0
-328 -331 0
-328 -332 0
-328 -333 0
-328 -334 0
-328 -335 0
-328 -336 0
-329 -330 0
-329 -331 0
-329 -332 0
-329 -333 0
-329 -334 0
-329 -335 0
-329 -336 0
-330 -331 0
-330 -332 0
-330 -333 0
-330 -334 0
-330 -335 0
-330 -336 0
-331 -332 0
-331 -333 0
-331 -334 0
-331 -335 0
-331 -336 0
-332 -333 0
-332 -334 0
-332 -335 0
-332 -336 0
-333 -334 0
-333 -335 0
-333 -336 0
-334 -335 0
-334 -336 0
-335 -336 0
337 338 339 340 341 342 343 344 345 346 347 348 349 350 351 352 0
-337 -338 0
-337 -339 0
-337 -340 0
-337 -341 0
-337 -342 0
-337 -343 0
-337 -344 0
-337 -345 0
-337 -346 0
-337 -347 0
-337 -348 0
-337 -349 0
-337 -350 0
-337 -351 0
-337 -352 0
-338 -339 0
-338 -340 0
-338 -341 0
-338 -342 0
-338 -343 0
-338 -344 0
-338 -345 0
-338 -346 0
-338 -347 0
-338 -348 0
-338 -349 0
-338 -350 0
-338 -351 0
-338 -352 0
-339 -340 0
-339 -341 0
-339 -342 0
-339 -343 0
-339 -344 0
-339 -345 0
-339 -346 0
-339 -347 0
-339 -348 0
-339 -349 0
-339 -350 0
-339 -351 0
-339 -352 0
-340 -341 0
-340 -342 0
-340 -343 0
-340 -344 0
-340 -345 0
-340 -346 0
-340 -347 0
-340 -348 0
-340 -349 0
-340 -350 0
-340 -351 0
-340 -352 0
-341 -342 0
-341 -343 0
-341 -344 0
-341 -345 0
-341 -346 0
-341 -347 0
-341 -348 0
-341 -349 0
-341 -350 0
-341 -351 0
-341 -352 0
-342 -343 0
-342 -344 0
-342 -345 0
-342 -346 0
-342 -347 0
-342 -348 0
-342 -349 0
-342 -350 0
-342 -351 0
-342 -352 0
-343 -344 0
-343 -345 0
-343 -346 0
-343 -347 0
-343 -348 0
-343 -349 0
-343 -350 0
-343 -351 0
-343 -352 0
-344 -345 0
-344 -346 0
-344 -347 0
-344 -348 0
-344 -349 0
-344 -350 0
-344 -351 0
-344 -352 0
-345 -346 0
-345 -347 0
-345 -348 0
-345 -349 0
-345 -350 0
-345 -351 0
-345 -352 0
-346 -347 0
-346 -348 0
-346 -349 0
-346 -350 0
-346 -351 0
-346 -352 0
-347 -348 0
-347 -349 0
-347 -350 0
-347 -351 0
-347 -352 0
-348 -349 0
-348 -350 0
-348 -351 0
-348 -352 0
-349 -350 0
-349 -351 0
-349 -352 0
-350 -351 0
-350 -352 0
-351 -352 0
353 354 355 356 357 358 359 360 361 362 363 364 365 366 367 368 0
-353 -354 0
-353 -355 0
-353 -356 0
-353 -357 0
-353 -358 0
-353 -359 0
-353 -360 0
-353 -361 0
-353 -362 0
-353 -363 0
-353 -364 0
-353 -365 0
-353 -366 0
-353 -367 0
-353 -368 0
-354 -355 0
-354 -356 0
-354 -357 0
-354 -358 0
-354 -359 0
-354 -360 0
-354 -361 0
-354 -362 0
-354 -363 0
-354 -364 0
-354 -365 0
-354 -366 0
-354 -367 0
-354 -368 0
-355 -356 0
-355 -357 0
-355 -358 0
-355 -359 0
-355 -360 0
-355 -361 0
-355 -362 0
-355 -363 0
-355 -364 0
-355 -365 0
-355 -366 0
-355 -367 0
-355 -368 0
-356 -357 0
-356 -358 0
-356 -359 0
-356 -360 0
-356 -361 0
-356 -362 0
-356 -363 0
-356 -364 0
-356 -365 0
-356 -366 0
-356 -367 0
-356 -368 0
-357 -358 0
-357 -359 0
-357 -360 0
-357 -361 0
-357 -362 0
-357 -363 0
-357 -364 0
-357 -365 0
-357 -366 0
-357 -367 0
-357 -368 0
-358 -359 0
-358 -360 0
-358 -361 0
-358 -362 0
-358 -363 0
-358 -364 0
-358 -365 0
-358 -366 0
-358 -367 0
-358 -368 0
-359 -360 0
-359 -361 0
-359 -362 0
-359 -363 0
-359 -364 0
-359 -365 0
-359 -366 0
-359 -367 0
-359 -368 0
-360 -361 0
-360 -362 0
-360 -363 0
-360 -364 0
-360 -365 0
-360 -366 0
-360 -367 0
-360 -368 0
-361 -362 0
-361 -363 0
-361 -364 0
-361 -365 0
-361 -366 0
-361 -367 0
-361 -368 0
-362 -363 0
-362 -364 0
-362 -365 0
-362 -366 0
-362 -367 0
-362 -368 0
-363 -364 0
-363 -365 0
-363 -366 0
-363 -367 0
-363 -368 0
-364 -365 0
-364 -366 0
-364 -367 0
-364 -368 0
-365 -366 0
-365 -367 0
-365 -368 0
-366 -367 0
-366 -368 0
-367 -368 0
369 370 371 372 373 374 375 376 377 378 379 380 381 382 383 384 0
-369 -370 0
-369 -371 0
-369 -372 0
-369 -373 0
-369 -374 0
-369 -375 0
-369 -376 0
-369 -377 0
-369 -378 0
-369 -379 0
-369 -380 0
-369 -381 0
-369 -382 0
-369 -383 0
-369 -384 0
-370 -371 0
-370 -372 0
-370 -373 0
-370 -374 0
-370 -375 0
-370 -376 0
-370 -377 0
-370 -378 0
-370 -379 0
-370 -380 0
-370 -381 0
-370 -382 0
-370 -383 0
-370 -384 0
-371 -372 0
-371 -373 0
-371 -374 0
-371 -375 0
-371 -376 0
-371 -377 0
-371 -378 0
-371 -379 0
-371 -380 0
-371 -381 0
-371 -382 0
-371 -383 0
-371 -384 0
-372 -373 0
-372 -374 0
-372 -375 0
-372 -376 0
-372 -377 0
-372 -378 0
-372 -379 0
-372 -380 0
-372 -381 0
-372 -382 0
-372 -383 0
-372 -384 0
-373 -374 0
-373 -375 0
-373 -376 0
-373 -377 0
-373 -378 0
-373 -379 0
-373 -380 0
-373 -381 0
-373 -382 0
-373 -383 0
-373 -384 0
-374 -375 0
-374 -376 0
-374 -377 0
-374 -378 0
-374 -379 0
-374 -380 0
-374 -381 0
-374 -382 0
-374 -383 0
-374 -384 0
-375 -376 0
-375 -377 0
-375 -378 0
-375 -379 0
-375 -380 0
-375 -381 0
-375 -382 0
-375 -383 0
-375 -384 0
-376 -377 0
-376 -378 0
-376 -379 0
-376 -380 0
-376 -381 0
-376 -382 0
-376 -383 0
-376 -384 0
-377 -378 0
-377 -379 0
-377 -380 0
-377 -381 0
-377 -382 0
-377 -383 0
-377 -384 0
-378 -379 0
-378 -380 0
-378 -381 0
-378 -382 0
-378 -383 0
-378 -384 0
-379 -380 0
-379 -381 0
-379 -382 0
-379 -383 0
-379 -384 0
-380 -381 0
-380 -382 0
-380 -383 0
-380 -384 0
-381 -382 0
-381 -383 0
-381 -384 0
-382 -383 0
-382 -384 0
-383 -384 0
385 386 387 388 389 390 391 392 393 394 395 396 397 398 399 400 0
-385 -386 0
-385 -387 0
-385 -388 0
-385 -389 0
-385 -390 0
-385 -391 0
-385 -392 0
-385 -393 0
-385 -394 0
-385 -395 0
-385 -396 0
-385 -397 0
-385 -398 0
-385 -399 0
-385 -400 0
-386 -387 0
-386 -388 0
-386 -389 0
-386 -390 0
-386 -391 0
-386 -392 0
-386 -393 0
-386 -394 0
-386 -395 0
-386 -396 0
-386 -397 0
-386 -398 0
-386 -399 0
-386 -400 0
-387 -388 0
-387 -389 0
-387 -390 0
-387 -391 0
-387 -392 0
-387 -393 0
-387 -394 0
-387 -395 0
-387 -396 0
-387 -397 0
-387 -398 0
-387 -399 0
-387 -400 0
-388 -389 0
-388 -390 0
-388 -391 0
-388 -392 0
-388 -393 0
-388 -394 0
-388 -395 0
-388 -396 0
-388 -397 0
-388 -398 0
-388 -399 0
-388 -400 0
-389 -390 0
-389 -391 0
-389 -392 0
-389 -393 0
-389 -394 0
-389 -395 0
-389 -396 0
-389 -397 0
-389 -398 0
-389 -399 0
-389 -400 0
-390 -391 0
-390 -392 0
-390 -393 0
-390 -394 0
-390 -395 0
-390 -396 0
-390 -397 0
-390 -398 0
-390 -399 0
-390 -400 0
-391 -392 0
-391 -393 0
-391 -394 0
-391 -395 0
-391 -396 0
-391 -397 0
-391 -398 0
-391 -399 0
-391 -400 0
-392 -393 0
-392 -394 0
-392 -395 0
-392 -396 0
-392 -397 0
-392 -398 0
-392 -399 0
-392 -400 0
-393 -394 0
-393 -395 0
-393 -396 0
-393 -397 0
-393 -398 0
-393 -399 0
-393 -400 0
-394 -395 0
-394 -396 0
-394 -397 0
-394 -398 0
-394 -399 0
-394 -400 0
-395 -396 0
-395 -397 0
-395 -398 0
-395 -399 0
-395 -400 0
-396 -397 0
-396 -398 0
-396 -399 0
-396 -400 0
-397 -398 0
-397 -399 0
-397 -400 0
-398 -399 0
-398 -400 0
-399 -400 0
401 402 403 404 405 406 407 408 409 410 411 412 413 414 415 416 0
-401 -402 0
-401 -403 0
-401 -404 0
-401 -405 0
-401 -406 0
-401 -407 0
-401 -408 0
-401 -409 0
-401 -410 0
-401 -411 0
-401 -412 0
-401 -413 0
-401 -414 0
-401 -415 0
-401 -416 0
-402 -403 0
-402 -404 0
-402 -405 0
-402 -406 0
-402 -407 0
-402 -408 0
-402 -409 0
-402 -410 0
-402 -411 0
-402 -412 0
-402 -413 0
-402 -414 0
-402 -415 0
-402 -416 0
-403 -404 0
-403 -405 0
-403 -406 0
-403 -407 0
-403 -408 0
-403 -409 0
-403 -410 0
-403 -411 0
-403 -412 0
-403 -413 0
-403 -414 0
-403 -415 0
-403 -416 0
-404 -405 0
-404 -406 0
-404 -407 0
-404 -408 0
-404 -409 0
-404 -410 0
-404 -411 0
-404 -412 0
-404 -413 0
-404 -414 0
-404 -415 0
-404 -416 0
-405 -406 0
-405 -407 0
-405 -408 0
-405 -409 0
-405 -410 0
-405 -411 0
-405 -412 0
-405 -413 0
-405 -414 0
-405 -415 0
-405 -416 0
-406 -407 0
-406 -408 0
-406 -409 0
-406 -410 0
-406 -411 0
-406 -412 0
-406 -413 0
-406 -414 0
-406 -415 0
-406 -416 0
-407 -408 0
-407 -409 0
-407 -410 0
-407 -411 0
-407 -412 0
-407 -413 0
-407 -414 0
-407 -415 0
-407 -416 0
-408 -409 0
-408 -410 0
-408 -411 0
-408 -412 0
-408 -413 0
-408 -414 0
-408 -415 0
-408 -416 0
-409 -410 0
-409 -411 0
-409 -412 0
-409 -413 0
-409 -414 0
-409 -415 0
-409 -416 0
-410 -411 0
-410 -412 0
-410 -413 0
-410 -414 0
-410 -415 0
-410 -416 0
-411 -412 0
-411 -413 0
-411 -414 0
-411 -415 0
-411 -416 0
-412 -413 0
-412 -414 0
-412 -415 0
-412 -416 0
-413 -414 0
-413 -415 0
-413 -416 0
-414 -415 0
-414 -416 0
-415 -416 0
417 418 419 420 421 422 423 424 425 426 427 428 429 430 431 432 0
-417 -418 0
-417 -419 0
-417 -420 0
-417 -421 0
-417 -422 0
-417 -423 0
-417 -424 0
-417 -425 0
-417 -426 0
-417 -427 0
-417 -428 0
-417 -429 0
-417 -430 0
-417 -431 0
-417 -432 0
-418 -419 0
-418 -420 0
-418 -421 0
-418 -422 0
-418 -423 0
-418 -424 0
-418 -425 0
-418 -426 0
-418 -427 0
-418 -428 0
-418 -429 0
-418 -430 0
-418 -431 0
-418 -432 0
-419 -420 0
-419 -421 0
-419 -422 0
-419 -423 0
-419 -424 0
-419 -425 0
-419 -426 0
-419 -427 0
-419 -428 0
-419 -429 0
-419 -430 0
-419 -431 0
-419 -432 0
-420 -421 0
-420 -422 0
-420 -423 0
-420 -424 0
-420 -425 0
-420 -426 0
-420 -427 0
-420 -428 0
-420 -429 0
-420 -430 0
-420 -431 0
-420 -432 0
-421 -422 0
-421 -423 0
-421 -424 0
-421 -425 0
-421 -426 0
-421 -427 0
-421 -428 0
-421 -429 0
-421 -430 0
-421 -431 0
-421 -432 0
-422 -423 0
-422 -424 0
-422 -425 0
-422 -426 0
-422 -427 0
-422 -428 0
-422 -429 0
-422 -430 0
-422 -431 0
-422 -432 0
-423 -424 0
-423 -425 0
-423 -426 0
-423 -427 0
-423 -428 0
-423 -429 0
-423 -430 0
-423 -431 0
-423 -432 0
-424 -425 0
-424 -426 0
-424 -427 0
-424 -428 0
-424 -429 0
-424 -430 0
-424 -431 0
-424 -432 0
-425 -426 0
-425 -427 0
-425 -428 0
-425 -429 0
-425 -430 0
-425 -431 0
-425 -432 0
-426 -427 0
-426 -428 0
-426 -429 0
-426 -430 0
-426 -431 0
-426 -432 0
-427 -428 0
-427 -429 0
-427 -430 0
-427 -431 0
-427 -432 0
-428 -429 0
-428 -430 0
-428 -431 0
-428 -432 0
-429 -430 0
-429 -431 0
-429 -432 0
-430 -431 0
-430 -432 0
-431 -432 0
433 434 435 436 437 438 439 440 441 442 443 444 445 446 447 448 0
-433 -434 0
-433 -435 0
-433 -436 0
-433 -437 0
-433 -438 0
-433 -439 0
-433 -440 0
-433 -441 0
-433 -442 0
-433 -443 0
-433 -444 0
-433 -445 0
-433 -446 0
-433 -447 0
-433 -448 0
-434 -435 0
-434 -436 0
-434 -437 0
-434 -438 0
-434 -439 0
-434 -440 0
-434 -441 0
-434 -442 0
-434 -443 0
-434 -444 0
-434 -445 0
-434 -446 0
-434 -447 0
-434 -448 0
-435 -436 0
-435 -437 0
-435 -438 0
-435 -439 0
-435 -440 0
-435 -441 0
-435 -442 0
-435 -443 0
-435 -444 0
-435 -445 0
-435 -446 0
-435 -447 0
-435 -448 0
-436 -437 0
-436 -438 0
-436 -439 0
-436 -440 0
-436 -441 0
-436 -442 0
-436 -443 0
-436 -444 0
-436 -445 0
-436 -446 0
-436 -447 0
-436 -448 0
-437 -438 0
-437 -439 0
-437 -440 0
-437 -441 0
-437 -442 0
-437 -443 0
-437 -444 0
-437 -445 0
-437 -446 0
-437 -447 0
-437 -448 0
-438 -439 0
-438 -440 0
-438 -441 0
-438 -442 0
-438 -443 0
-438 -444 0
-438 -445 0
-438 -446 0
-438 -447 0
-438 -448 0
-439 -440 0
-439 -441 0
-439 -442 0
-439 -443 0
-439 -444 0
-439 -445 0
-439 -446 0
-439 -447 0
-439 -448 0
-440 -441 0
-440 -442 0
-440 -443 0
-440 -444 0
-440 -445 0
-440 -446 0
-440 -447 0
-440 -448 0
-441 -442 0
-441 -443 0
-441 -444 0
-441 -445 0
-441 -446 0
-441 -447 0
-441 -448 0
-442 -443 0
-442 -444 0
-442 -445 0
-442 -446 0
-442 -447 0
-442 -448 0
-443 -444 0
-443 -445 0
-443 -446 0
-443 -447 0
-443 -448 0
-444 -445 0
-444 -446 0
-444 -447 0
-444 -448 0
-445 -446 0
-445 -447 0
-445 -448 0
-446 -447 0
-446 -448 0
-447 -448 0
449 450 451 452 453 454 455 456 457 458 459 460 461 462 463 464 0
-449 -450 0
-449 -451 0
-449 -452 0
-449 -453 0
-449 -454 0
-449 -455 0
-449 -456 0
-449 -457 0
-449 -458 0
-449 -459 0
-449 -460 0
-449 -461 0
-449 -462 0
-449 -463 0
-449 -464 0
-450 -451 0
-450 -452 0
-450 -453 0
-450 -454 0
-450 -455 0
-450 -456 0
-450 -457 0
-450 -458 0
-450 -459 0
-450 -460 0
-450 -461 0
-450 -462 0
-450 -463 0
-450 -464 0
-451 -452 0
-451 -453 0
-451 -454 0
-451 -455 0
-451 -456 0
-451 -457 0
-451 -458 0
-451 -459 0
-451 -460 0
-451 -461 0
-451 -462 0
-451 -463 0
-451 -464 0
-452 -453 0
-452 -454 0
-452 -455 0
-452 -456 0
-452 -457 0
-452 -458 0
-452 -459 0
-452 -460 0
-452 -461 0
-452 -462 0
-452 -463 0
-452 -464 0
-453 -454 0
-453 -455 0
-453 -456 0
-453 -457 0
-453 -458 0
-453 -459 0
-453 -460 0
-453 -461 0
-453 -462 0
-453 -463 0
-453 -464 0
-454 -455 0
-454 -456 0
-454 -457 0
-454 -458 0
-454 -459 0
-454 -460 0
-454 -461 0
-454 -462 0
-454 -463 0
-454 -464 0
-455 -456 0
-455 -457 0
-455 -458 0
-455 -459 0
-455 -460 0
-455 -461 0
-455 -462 0
-455 -463 0
-455 -464 0
-456 -457 0
-456 -458 0
-456 -459 0
-456 -460 0
-456 -461 0
-456 -462 0
-456 -463 0
-456 -464 0
-457 -458 0
-457 -459 0
-457 -460 0
-457 -461 0
-457 -462 0
-457 -463 0
-457 -464 0
-458 -459 0
-458 -460 0
-458 -461 0
-458 -462 0
-458 -463 0
-458 -464 0
-459 -460 0
-459 -461 0
-459 -462 0
-459 -463 0
-459 -464 0
-460 -461 0
-460 -462 0
-460 -463 0
-460 -464 0
-461 -462 0
-461 -463 0
-461 -464 0
-462 -463 0
-462 -464 0
-463 -464 0
465 466 467 468 469 470 471 472 473 474 475 476 477 478 479 480 0
-465 -466 0
-465 -467 0
-465 -468 0
-465 -469 0
-465 -470 0
-465 -471 0
-465 -472 0
-465 -473 0
-465 -474 0
-465 -475 0
-465 -476 0
-465 -477 0
-465 -478 0
-465 -479 0
-465 -480 0
-466 -467 0
-466 -468 0
-466 -469 0
-466 -470 0
-466 -471 0
-466 -472 0
-466 -473 0
-466 -474 0
-466 -475 0
-466 -476 0
-466 -477 0
-466 -478 0
-466 -479 0
-466 -480 0
-467 -468 0
-467 -469 0
-467 -470 0
-467 -471 0
-467 -472 0
-467 -473 0
-467 -474 0
-467 -475 0
-467 -476 0
-467 -477 0
-467 -478 0
-467 -479 0
-467 -480 0
-468 -469 0
-468 -470 0
-468 -471 0
-468 -472 0
-468 -473 0
-468 -474 0
-468 -475 0
-468 -476 0
-468 -477 0
-468 -478 0
-468 -479 0
-468 -480 0
-469 -470 0
-469 -471 0
-469 -472 0
-469 -473 0
-469 -474 0
-469 -475 0
-469 -476 0
-469 -477 0
-469 -478 0
-469 -479 0
-469 -480 0
-470 -471 0
-470 -472 0
-470 -473 0
-470 -474 0
-470 -475 0
-470 -476 0
-470 -477 0
-470 -478 0
-470 -479 0
-470 -480 0
-471 -472 0
-471 -473 0
-471 -474 0
-471 -475 0
-471 -476 0
-471 -477 0
-471 -478 0
-471 -479 0
-471 -480 0
-472 -473 0
-472 -474 0
-472 -475 0
-472 -476 0
-472 -477 0
-472 -478 0
-472 -479 0
-472 -480 0
-473 -474 0
-473 -475 0
-473 -476 0
-473 -477 0
-473 -478 0
-473 -479 0
-473 -480 0
-474 -475 0
-474 -476 0
-474 -477 0
-474 -478 0
-474 -479 0
-474 -480 0
-475 -476 0
-475 -477 0
-475 -478 0
-475 -479 0
-475 -480 0
-476 -477 0
-476 -478 0
-476 -479 0
-476 -480 0
-477 -478 0
-477 -479 0
-477 -480 0
-478 -479 0
-478 -480 0
-479 -480 0
481 482 483 484 485 486 487 488 489 490 491 492 493 494 495 496 0
-481 -482 0
-481 -483 0
-481 -484 0
-481 -485 0
-481 -486 0
-481 -487 0
-481 -488 0
-481 -489 0
-481 -490 0
-481 -491 0
-481 -492 0
-481 -493 0
-481 -494 0
-481 -495 0
-481 -496 0
-482 -483 0
-482 -484 0
-482 -485 0
-482 -486 0
-482 -487 0
-482 -488 0
-482 -489 0
-482 -490 0
-482 -491 0
-482 -492 0
-482 -493 0
-482 -494 0
-482 -495 0
-482 -496 0
-483 -484 0
-483 -485 0
-483 -486 0
-483 -487 0
-483 -488 0
-483 -489 0
-483 -490 0
-483 -491 0
-483 -492 0
-483 -493 0
-483 -494 0
-483 -495 0
-483 -496 0
-484 -485 0
-484 -486 0
-484 -487 0
-484 -488 0
-484 -489 0
-484 -490 0
-484 -491 0
-484 -492 0
-484 -493 0
-484 -494 0
-484 -495 0
-484 -496 0
-485 -486 0
-485 -487 0
-485 -488 0
-485 -489 0
-485 -490 0
-485 -491 0
-485 -492 0
-485 -493 0
-485 -494 0
-485 -495 0
-485 -496 0
-486 -487 0
-486 -488 0
-486 -489 0
-486 -490 0
-486 -491 0
-486 -492 0
-486 -493 0
-486 -494 0
-486 -495 0
-486 -496 0
-487 -488 0
-487 -489 0
-487 -490 0
-487 -491 0
-487 -492 0
-487 -493 0
-487 -494 0
-487 -495 0
-487 -496 0
-488 -489 0
-488 -490 0
-488 -491 0
-488 -492 0
-488 -493 0
-488 -494 0
-488 -495 0
-488 -496 0
-489 -490 0
-489 -491 0
-489 -492 0
-489 -493 0
-489 -494 0
-489 -495 0
-489 -496 0
-490 -491 0
-490 -492 0
-490 -493 0
-490 -494 0
-490 -495 0
-490 -496 0
-491 -492 0
-491 -493 0
-491 -494 0
-491 -495 0
-491 -496 0
-492 -493 0
-492 -494 0
-492 -495 0
-492 -496 0
-493 -494 0
-493 -495 0
-493 -496 0
-494 -495 0
-494 -496 0
-495 -496 0
497 498 499 500 501 502 503 504 505 506 507 508 509 510 511 512 0
-497 -498 0
-497 -499 0
-497 -500 0
-497 -501 0
-497 -502 0
-497 -503 0
-497 -504 0
-497 -505 0
-497 -506 0
-497 -507 0
-497 -508 0
-497 -509 0
-497 -510 0
-497 -511 0
-497 -512 0
-498 -499 0
-498 -500 0
-498 -501 0
-498 -502 0
-498 -503 0
-498 -504 0
-498 -505 0
-498 -506 0
-498 -507 0
-498 -508 0
-498 -509 0
-498 -510 0
-498 -511 0
-498 -512 0
-499 -500 0
-499 -501 0
-499 -502 0
-499 -503 0
-499 -504 0
-499 -505 0
-499 -506 0
-499 -507 0
-499 -508 0
-499 -509 0
-499 -510 0
-499 -511 0
-499 -512 0
-500 -501 0
-500 -502 0
-500 -503 0
-500 -504 0
-500 -505 0
-500 -506 0
-500 -507 0
-500 -508 0
-500 -509 0
-500 -510 0
-500 -511 0
-500 -512 0
-501 -502 0
-501 -503 0
-501 -504 0
-501 -505 0
-501 -506 0
-501 -507 0
-501 -508 0
-501 -509 0
-501 -510 0
-501 -511 0
-501 -512 0
-502 -503 0
-502 -504 0
-502 -505 0
-502 -506 0
-502 -507 0
-502 -508 0
-502 -509 0
-502 -510 0
-502 -511 0
-502 -512 0
-503 -504 0
-503 -505 0
-503 -506 0
-503 -507 0
-503 -508 0
-503 -509 0
-503 -510 0
-503 -511 0
-503 -512 0
-504 -505 0
-504 -506 0
-504 -507 0
-504 -508 0
-504 -509 0
-504 -510 0
-504 -511 0
-504 -512 0
-505 -506 0
-505 -507 0
-505 -508 0
-505 -509 0
-505 -510 0
-505 -511 0
-505 -512 0
-506 -507 0
-506 -508 0
-506 -509 0
-506 -510 0
-506 -511 0
-506 -512 0
-507 -508 0
-507 -509 0
-507 -510 0
-507 -511 0
-507 -512 0
-508 -509 0
-508 -510 0
-508 -511 0
-508 -512 0
-509 -510 0
-509 -511 0
-509 -512 0
-510 -511 0
-510 -512 0
-511 -512 0
513 514 515 516 517 518 519 520 521 522 523 524 525 526 527 528 0
-513 -514 0
-513 -515 0
-513 -516 0
-513 -517 0
-513 -518 0
-513 -519 0
-513 -520 0
-513 -521 0
-513 -522 0
-513 -523 0
-513 -524 0
-513 -525 0
-513 -526 0
-513 -527 0
-513 -528 0
-514 -515 0
-514 -516 0
-514 -517 0
-514 -518 0
-514 -519 0
-514 -520 0
-514 -521 0
-514 -522 0
-514 -523 0
-514 -524 0
-514 -525 0
-514 -526 0
-514 -527 0
-514 -528 0
-515 -516 0
-515 -517 0
-515 -518 0
-515 -519 0
-515 -520 0
-515 -521 0
-515 -522 0
-515 -523 0
-515 -524 0
-515 -525 0
-515 -526 0
-515 -527 0
-515 -528 0
-516 -517 0
-516 -518 0
-516 -519 0
-516 -520 0
-516 -521 0
-516 -522 0
-516 -523 0
-516 -524 0
-516 -525 0
-516 -526 0
-516 -527 0
-516 -528 0
-517 -518 0
-517 -519 0
-517 -520 0
-517 -521 0
-517 -522 0
-517 -523 0
-517 -524 0
-517 -525 0
-517 -526 0
-517 -527 0
-517 -528 0
-518 -519 0
-518 -520 0
-518 -521 0
-518 -522 0
-518 -523 0
-518 -524 0
-518 -525 0
-518 -526 0
-518 -527 0
-518 -528 0
-519 -520 0
-519 -521 0
-519 -522 0
-519 -523 0
-519 -524 0
-519 -525 0
-519 -526 0
-519 -527 0
-519 -528 0
-520 -521 0
-520 -522 0
-520 -523 0
-520 -524 0
-520 -525 0
-520 -526 0
-520 -527 0
-520 -528 0
-521 -522 0
-521 -523 0
-521 -524 0
-521 -525 0
-521 -526 0
-521 -527 0
-521 -528 0
-522 -523 0
-522 -524 0
-522 -525 0
-522 -526 0
-522 -527 0
-522 -528 0
-523 -524 0
-523 -525 0
-523 -526 0
-523 -527 0
-523 -528 0
-524 -525 0
-524 -526 0
-524 -527 0
-524 -528 0
-525 -526 0
-525 -527 0
-525 -528 0
-526 -527 0
-526 -528 0
-527 -528 0
529 530 531 532 533 534 535 536 537 538 539 540 541 542 543 544 0
-529 -530 0
-529 -531 0
-529 -532 0
-529 -533 0
-529 -534 0
-529 -535 0
-529 -536 0
-529 -537 0
-529 -538 0
-529 -539 0
-529 -540 0
-529 -541 0
-529 -542 0
-529 -543 0
-529 -544 0
-530 -531 0
-530 -532 0
-530 -533 0
-530 -534 0
-530 -535 0
-530 -536 0
-530 -537 0
-530 -538 0
-530 -539 0
-530 -540 0
-530 -541 0
-530 -542 0
-530 -543 0
-530 -544 0
-531 -532 0
-531 -533 0
-531 -534 0
-531 -535 0
-531 -536 0
-531 -537 0
-531 -538 0
-531 -539 0
-531 -540 0
-531 -541 0
-531 -542 0
-531 -543 0
-531 -544 0
-532 -533 0
-532 -534 0
-532 -535 0
-532 -536 0
-532 -537 0
-532 -538 0
-532 -539 0
-532 -540 0
-532 -541 0
-532 -542 0
-532 -543 0
-532 -544 0
-533 -534 0
-533 -535 0
-533 -536 0
-533 -537 0
-533 -538 0
-533 -539 0
-533 -540 0
-533 -541 0
-533 -542 0
-533 -543 0
-533 -544 0
-534 -535 0
-534 -536 0
-534 -537 0
-534 -538 0
-534 -539 0
-534 -540 0
-534 -541 0
-534 -542 0
-534 -543 0
-534 -544 0
-535 -536 0
-535 -537 0
-535 -538 0
-535 -539 0
-535 -540 0
-535 -541 0
-535 -542 0
-535 -543 0
-535 -544 0
-536 -537 0
-536 -538 0
-536 -539 0
-536 -540 0
-536 -541 0
-536 -542 0
-536 -543 0
-536 -544 0
-537 -538 0
-537 -539 0
-537 -540 0
-537 -541 0
-537 -542 0
-537 -543 0
-537 -544 0
-538 -539 0
-538 -540 0
-538 -541 0
-538 -542 0
-538 -543 0
-538 -544 0
-539 -540 0
-539 -541 0
-539 -542 0
-539 -543 0
-539 -544 0
-540 -541 0
-540 -542 0
-540 -543 0
-540 -544 0
-541 -542 0
-541 -543 0
-541 -544 0
-542 -543 0
-542 -544 0
-543 -544 0
545 546 547 548 549 550 551 552 553 554 555 556 557 558 559 560 0
-545 -546 0
-545 -547 0
-545 -548 0
-545 -549 0
-545 -550 0
-545 -551 0
-545 -552 0
-545 -553 0
-545 -554 0
-545 -555 0
-545 -556 0
-545 -557 0
-545 -558 0
-545 -559 0
-545 -560 0
-546 -547 0
-546 -548 0
-546 -549 0
-546 -550 0
-546 -551 0
-546 -552 0
-546 -553 0
-546 -554 0
-546 -555 0
-546 -556 0
-546 -557 0
-546 -558 0
-546 -559 0
-546 -560 0
-547 -548 0
-547 -549 0
-547 -550 0
-547 -551 0
-547 -552 0
-547 -553 0
-547 -554 0
-547 -555 0
-547 -556 0
-547 -557 0
-547 -558 0
-547 -559 0
-547 -560 0
-548 -549 0
-548 -550 0
-548 -551 0
-548 -552 0
-548 -553 0
-548 -554 0
-548 -555 0
-548 -556 0
-548 -557 0
-548 -558 0
-548 -559 0
-548 -560 0
-549 -550 0
-549 -551 0
-549 -552 0
-549 -553 0
-549 -554 0
-549 -555 0
-549 -556 0
-549 -557 0
-549 -558 0
-549 -559 0
-549 -560 0
-550 -551 0
-550 -552 0
-550 -553 0
-550 -554 0
-550 -555 0
-550 -556 0
-550 -557 0
-550 -558 0
-550 -559 0
-550 -560 0
-551 -552 0
-551 -553 0
-551 -554 0
-551 -555 0
-551 -556 0
-551 -557 0
-551 -558 0
-551 -559 0
-551 -560 0
-552 -553 0
-552 -554 0
-552 -555 0
-552 -556 0
-552 -557 0
-552 -558 0
-552 -559 0
-552 -560 0
-553 -554 0
-553 -555 0
-553 -556 0
-553 -557 0
-553 -558 0
-553 -559 0
-553 -560 0
-554 -555 0
-554 -556 0
-554 -557 0
-554 -558 0
-554 -559 0
-554 -560 0
-555 -556 0
-555 -557 0
-555 -558 0
-555 -559 0
-555 -560 0
-556 -557 0
-556 -558 0
-556 -559 0
-556 -560 0
-557 -558 0
-557 -559 0
-557 -560 0
-558 -559 0
-558 -560 0
-559 -560 0
561 562 563 564 565 566 567 568 569 570 571 572 573 574 575 576 0
-561 -562 0
-561 -563 0
-561 -564 0
-561 -565 0
-561 -566 0
-561 -567 0
-561 -568 0
-561 -569 0
-561 -570 0
-561 -571 0
-561 -572 0
-561 -573 0
-561 -574 0
-561 -575 0
-561 -576 0
-562 -563 0
-562 -564 0
-562 -565 0
-562 -566 0
-562 -567 0
-562 -568 0
-562 -569 0
-562 -570 0
-562 -571 0
-562 -572 0
-562 -573 0
-562 -574 0
-562 -575 0
-562 -576 0
-563 -564 0
-563 -565 0
-563 -566 0
-563 -567 0
-563 -568 0
-563 -569 0
-563 -570 0
-563 -571 0
-563 -572 0
-563 -573 0
-563 -574 0
-563 -575 0
-563 -576 0
-564 -565 0
-564 -566 0
-564 -567 0
-564 -568 0
-564 -569 0
-564 -570 0
-564 -571 0
-564 -572 0
-564 -573 0
-564 -574 0
-564 -575 0
-564 -576 0
-565 -566 0
-565 -567 0
-565 -568 0
-565 -569 0
-565 -570 0
-565 -571 0
-565 -572 0
-565 -573 0
-565 -574 0
-565 -575 0
-565 -576 0
-566 -567 0
-566 -568 0
-566 -569 0
-566 -570 0
-566 -571 0
-566 -572 0
-566 -573 0
-566 -574 0
-566 -575 0
-566 -576 0
-567 -568 0
-567 -569 0
-567 -570 0
-567 -571 0
-567 -572 0
-567 -573 0
-567 -574 0
-567 -575 0
-567 -576 0
-568 -569 0
-568 -570 0
-568 -571 0
-568 -572 0
-568 -573 0
-568 -574 0
-568 -575 0
-568 -576 0
-569 -570 0
-569 -571 0
-569 -572 0
-569 -573 0
-569 -574 0
-569 -575 0
-569 -576 0
-570 -571 0
-570 -572 0
-570 -573 0
-570 -574 0
-570 -575 0
-570 -576 0
-571 -572 0
-571 -573 0
-571 -574 0
-571 -575 0
-571 -576 0
-572 -573 0
-572 -574 0
-572 -575 0
-572 -576 0
-573 -574 0
-573 -575 0
-573 -576 0
-574 -575 0
-574 -576 0
-575 -576 0
577 578 579 580 581 582 583 584 585 586 587 588 589 590 591 592 0
-577 -578 0
-577 -579 0
-577 -580 0
-577 -581 0
-577 -582 0
-577 -583 0
-577 -584 0
-577 -585 0
-577 -586 0
-577 -587 0
-577 -588 0
-577 -589 0
-577 -590 0
-577 -591 0
-577 -592 0
-578 -579 0
-578 -580 0
-578 -581 0
-578 -582 0
-578 -583 0
-578 -584 0
-578 -585 0
-578 -586 0
-578 -587 0
-578 -588 0
-578 -589 0
-578 -590 0
-578 -591 0
-578 -592 0
-579 -580 0
-579 -581 0
-579 -582 0
-579 -583 0
-579 -584 0
-579 -585 0
-579 -586 0
-579 -587 0
-579 -588 0
-579 -589 0
-579 -590 0
-579 -591 0
-579 -592 0
-580 -581 0
-580 -582 0
-580 -583 0
-580 -584 0
-580 -585 0
-580 -586 0
-580 -587 0
-580 -588 0
-580 -589 0
-580 -590 0
-580 -591 0
-580 -592 0
-581 -582 0
-581 -583 0
-581 -584 0
-581 -585 0
-581 -586 0
-581 -587 0
-581 -588 0
-581 -589 0
-581 -590 0
-581 -591 0
-581 -592 0
-582 -583 0
-582 -584 0
-582 -585 0
-582 -586 0
-582 -587 0
-582 -588 0
-582 -589 0
-582 -590 0
-582 -591 0
-582 -592 0
-583 -584 0
-583 -585 0
-583 -586 0
-583 -587 0
-583 -588 0
-583 -589 0
-583 -590 0
-583 -591 0
-583 -592 0
-584 -585 0
-584 -586 0
-584 -587 0
-584 -588 0
-584 -589 0
-584 -590 0
-584 -591 0
-584 -592 0
-585 -586 0
-585 -587 0
-585 -588 0
-585 -589 0
-585 -590 0
-585 -591 0
-585 -592 0
-586 -587 0
-586 -588 0
-586 -589 0
-586 -590 0
-586 -591 0
-586 -592 0
-587 -588 0
-587 -589 0
-587 -590 0
-587 -591 0
-587 -592 0
-588 -589 0
-588 -590 0
-588 -591 0
-588 -592 0
-589 -590 0
-589 -591 0
-589 -592 0
-590 -591 0
-590 -592 0
-591 -592 0
593 594 595 596 597 598 599 600 601 602 603 604 605 606 607 608 0
-593 -594 0
-593 -595 0
-593 -596 0
-593 -597 0
-593 -598 0
-593 -599 0
-593 -600 0
-593 -601 0
-593 -602 0
-593 -603 0
-593 -604 0
-593 -605 0
-593 -606 0
-593 -607 0
-593 -608 0
-594 -595 0
-594 -596 0
-594 -597 0
-594 -598 0
-594 -599 0
-594 -600 0
-594 -601 0
-594 -602 0
-594 -603 0
-594 -604 0
-594 -605 0
-594 -606 0
-594 -607 0
-594 -608 0
-595 -596 0
-595 -597 0
-595 -598 0
-595 -599 0
-595 -600 0
-595 -601 0
-595 -602 0
-595 -603 0
-595 -604 0
-595 -605 0
-595 -606 0
-595 -607 0
-595 -608 0
-596 -597 0
-596 -598 0
-596 -599 0
-596 -600 0
-596 -601 0
-596 -602 0
-596 -603 0
-596 -604 0
-596 -605 0
-596 -606 0
-596 -607 0
-596 -608 0
-597 -598 0
-597 -599 0
-597 -600 0
-597 -601 0
-597 -602 0
-597 -603 0
-597 -604 0
-597 -605 0
-597 -606 0
-597 -607 0
-597 -608 0
-598 -599 0
-598 -600 0
-598 -601 0
-598 -602 0
-598 -603 0
-598 -604 0
-598 -605 0
-598 -606 0
-598 -607 0
-598 -608 0
-599 -600 0
-599 -601 0
-599 -602 0
-599 -603 0
-599 -604 0
-599 -605 0
-599 -606 0
-599 -607 0
-599 -608 0
-600 -601 0
-600 -602 0
-600 -603 0
-600 -604 0
-600 -605 0
-600 -606 0
-600 -607 0
-600 -608 0
-601 -602 0
-601 -603 0
-601 -604 0
-601 -605 0
-601 -606 0
-601 -607 0
-601 -608 0
-602 -603 0
-602 -604 0
-602 -605 0
-602 -606 0
-602 -607 0
-602 -608 0
-603 -604 0
-603 -605 0
-603 -606 0
-603 -607 0
-603 -608 0
-604 -605 0
-604 -606 0
-604 -607 0
-604 -608 0
-605 -606 0
-605 -607 0
-605 -608 0
-606 -607 0
-606 -608 0
-607 -608 0
609 610 611 612 613 614 615 616 617 618 619 620 621 622 623 624 0
-609 -610 0
-609 -611 0
-609 -612 0
-609 -613 0
-609 -614 0
-609 -615 0
-609 -616 0
-609 -617 0
-609 -618 0
-609 -619 0
-609 -620 0
-609 -621 0
-609 -622 0
-609 -623 0
-609 -624 0
-610 -611 0
-610 -612 0
-610 -613 0
-610 -614 0
-610 -615 0
-610 -616 0
-610 -617 0
-610 -618 0
-610 -619 0
-610 -620 0
-610 -621 0
-610 -622 0
-610 -623 0
-610 -624 0
-611 -612 0
-611 -613 0
-611 -614 0
-611 -615 0
-611 -616 0
-611 -617 0
-611 -618 0
-611 -619 0
-611 -620 0
-611 -621 0
-611 -622 0
-611 -623 0
-611 -624 0
-612 -613 0
-612 -614 0
-612 -615 0
-612 -616 0
-612 -617 0
-612 -618 0
-612 -619 0
-612 -620 0
-612 -621 0
-612 -622 0
-612 -623 0
-612 -624 0
-613 -614 0
-613 -615 0
-613 -616 0
-613 -617 0
-613 -618 0
-613 -619 0
-613 -620 0
-613 -621 0
-613 -622 0
-613 -623 0
-613 -624 0
-614 -615 0
-614 -616 0
-614 -617 0
-614 -618 0
-614 -619 0
-614 -620 0
-614 -621 0
-614 -622 0
-614 -623 0
-614 -624 0
-615 -616 0
-615 -617 0
-615 -618 0
-615 -619 0
-615 -620 0
-615 -621 0
-615 -622 0
-615 -623 0
-615 -624 0
-616 -617 0
-616 -618 0
-616 -619 0
-616 -620 0
-616 -621 0
-616 -622 0
-616 -623 0
-616 -624 0
-617 -618 0
-617 -619 0
-617 -620 0
-617 -621 0
-617 -622 0
-617 -623 0
-617 -624 0
-618 -619 0
-618 -620 0
-618 -621 0
-618 -622 0
-618 -623 0
-618 -624 0
-619 -620 0
-619 -621 0
-619 -622 0
-619 -623 0
-619 -624 0
-620 -621 0
-620 -622 0
-620 -623 0
-620 -624 0
-621 -622 0
-621 -623 0
-621 -624 0
-622 -623 0
-622 -624 0
-623 -624 0
625 626 627 628 629 630 631 632 633 634 635 636 637 638 639 640 0
-625 -626 0
-625 -627 0
-625 -628 0
-625 -629 0
-625 -630 0
-625 -631 0
-625 -632 0
-625 -633 0
-625 -634 0
-625 -635 0
-625 -636 0
-625 -637 0
-625 -638 0
-625 -639 0
-625 -640 0
-626 -627 0
-626 -628 0
-626 -629 0
-626 -630 0
-626 -631 0
-626 -632 0
-626 -633 0
-626 -634 0
-626 -635 0
-626 -636 0
-626 -637 0
-626 -638 0
-626 -639 0
-626 -640 0
-627 -628 0
-627 -629 0
-627 -630 0
-627 -631 0
-627 -632 0
-627 -633 0
-627 -634 0
-627 -635 0
-627 -636 0
-627 -637 0
-627 -638 0
-627 -639 0
-627 -640 0
-628 -629 0
-628 -630 0
-628 -631 0
-628 -632 0
-628 -633 0
-628 -634 0
-628 -635 0
-628 -636 0
-628 -637 0
-628 -638 0
-628 -639 0
-628 -640 0
-629 -630 0
-629 -631 0
-629 -632 0
-629 -633 0
-629 -634 0
-629 -635 0
-629 -636 0
-629 -637 0
-629 -638 0
-629 -639 0
-629 -640 0
-630 -631 0
-630 -632 0
-630 -633 0
-630 -634 0
-630 -635 0
-630 -636 0
-630 -637 0
-630 -638 0
-630 -639 0
-630 -640 0
-631 -632 0
-631 -633 0
-631 -634 0
-631 -635 0
-631 -636 0
-631 -637 0
-631 -638 0
-631 -639 0
-631 -640 0
-632 -633 0
-632 -634 0
-632 -635 0
-632 -636 0
-632 -637 0
-632 -638 0
-632 -639 0
-632 -640 0
-633 -634 0
-633 -635 0
-633 -636 0
-633 -637 0
-633 -638 0
-633 -639 0
-633 -640 0
-634 -635 0
-634 -636 0
-634 -637 0
-634 -638 0
-634 -639 0
-634 -640 0
-635 -636 0
-635 -637 0
-635 -638 0
-635 -639 0
-635 -640 0
-636 -637 0
-636 -638 0
-636 -639 0
-636 -640 0
-637 -638 0
-637 -639 0
-637 -640 0
-638 -639 0
-638 -640 0
-639 -640 0
641 642 643 644 645 646 647 648 649 650 651 652 653 654 655 656 0
-641 -642 0
-641 -643 0
-641 -644 0
-641 -645 0
-641 -646 0
-641 -647 0
-641 -648 0
-641 -649 0
-641 -650 0
-641 -651 0
-641 -652 0
-641 -653 0
-641 -654 0
-641 -655 0
-641 -656 0
-642 -643 0
-642 -644 0
-642 -645 0
-642 -646 0
-642 -647 0
-642 -648 0
-642 -649 0
-642 -650 0
-642 -651 0
-642 -652 0
-642 -653 0
-642 -654 0
-642 -655 0
-642 -656 0
-643 -644 0
-643 -645 0
-643 -646 0
-643 -647 0
-643 -648 0
-643 -649 0
-643 -650 0
-643 -651 0
-643 -652 0
-643 -653 0
-643 -654 0
-643 -655 0
-643 -656 0
-644 -645 0
-644 -646 0
-644 -647 0
-644 -648 0
-644 -649 0
-644 -650 0
-644 -651 0
-644 -652 0
-644 -653 0
-644 -654 0
-644 -655 0
-644 -656 0
-645 -646 0
-645 -647 0
-645 -648 0
-645 -649 0
-645 -650 0
-645 -651 0
-645 -652 0
-645 -653 0
-645 -654 0
-645 -655 0
-645 -656 0
-646 -647 0
-646 -648 0
-646 -649 0
-646 -650 0
-646 -651 0
-646 -652 0
-646 -653 0
-646 -654 0
-646 -655 0
-646 -656 0
-647 -648 0
-647 -649 0
-647 -650 0
-647 -651 0
-647 -652 0
-647 -653 0
-647 -654 0
-647 -655 0
-647 -656 0
-648 -649 0
-648 -650 0
-648 -651 0
-648 -652 0
-648 -653 0
-648 -654 0
-648 -655 0
-648 -656 0
-649 -650 0
-649 -651 0
-649 -652 0
-649 -653 0
-649 -654 0
-649 -655 0
-649 -656 0
-650 -651 0
-650 -652 0
-650 -653 0
-650 -654 0
-650 -655 0
-650 -656 0
-651 -652 0
-651 -653 0
-651 -654 0
-651 -655 0
-651 -656 0
-652 -653 0
-652 -654 0
-652 -655 0
-652 -656 0
-653 -654 0
-653 -655 0
-653 -656 0
-654 -655 0
-654 -656 0
-655 -656 0
657 658 659 660 661 662 663 664 665 666 667 668 669 670 671 672 0
-657 -658 0
-657 -659 0
-657 -660 0
-657 -661 0
-657 -662 0
-657 -663 0
-657 -664 0
-657 -665 0
-657 -666 0
-657 -667 0
-657 -668 0
-657 -669 0
-657 -670 0
-657 -671 0
-657 -672 0
-658 -659 0
-658 -660 0
-658 -661 0
-658 -662 0
-658 -663 0
-658 -664 0
-658 -665 0
-658 -666 0
-658 -667 0
-658 -668 0
-658 -669 0
-658 -670 0
-658 -671 0
-658 -672 0
-659 -660 0
-659 -661 0
-659 -662 0
-659 -663 0
-659 -664 0
-659 -665 0
-659 -666 0
-659 -667 0
-659 -668 0
-659 -669 0
-659 -670 0
-659 -671 0
-659 -672 0
-660 -661 0
-660 -662 0
-660 -663 0
-660 -664 0
-660 -665 0
-660 -666 0
-660 -667 0
-660 -668 0
-660 -669 0
-660 -670 0
-660 -671 0
-660 -672 0
-661 -662 0
-661 -663 0
-661 -664 0
-661 -665 0
-661 -666 0
-661 -667 0
-661 -668 0
-661 -669 0
-661 -670 0
-661 -671 0
-661 -672 0
-662 -663 0
-662 -664 0
-662 -665 0
-662 -666 0
-662 -667 0
-662 -668 0
-662 -669 0
-662 -670 0
-662 -671 0
-662 -672 0
-663 -664 0
-663 -665 0
-663 -666 0
-663 -667 0
-663 -668 0
-663 -669 0
-663 -670 0
-663 -671 0
-663 -672 0
-664 -665 0
-664 -666 0
-664 -667 0
-664 -668 0
-664 -669 0
-664 -670 0
-664 -671 0
-664 -672 0
-665 -666 0
-665 -667 0
-665 -668 0
-665 -669 0
-665 -670 0
-665 -671 0
-665 -672 0
-666 -667 0
-666 -668 0
-666 -669 0
-666 -670 0
-666 -671 0
-666 -672 0
-667 -668 0
-667 -669 0
-667 -670 0
-667 -671 0
-667 -672 0
-668 -669 0
-668 -670 0
-668 -671 0
-668 -672 0
-669 -670 0
-669 -671 0
-669 -672 0
-670 -671 0
-670 -672 0
-671 -672 0
673 674 675 676 677 678 679 680 681 682 683 684 685 686 687 688 0
-673 -674 0
-673 -675 0
-673 -676 0
-673 -677 0
-673 -678 0
-673 -679 0
-673 -680 0
-673 -681 0
-673 -682 0
-673 -683 0
-673 -684 0
-673 -685 0
-673 -686 0
-673 -687 0
-673 -688 0
-674 -675 0
-674 -676 0
-674 -677 0
-674 -678 0
-674 -679 0
-674 -680 0
-674 -681 0
-674 -682 0
-674 -683 0
-674 -684 0
-674 -685 0
-674 -686 0
-674 -687 0
-674 -688 0
-675 -676 0
-675 -677 0
-675 -678 0
-675 -679 0
-675 -680 0
-675 -681 0
-675 -682 0
-675 -683 0
-675 -684 0
-675 -685 0
-675 -686 0
-675 -687 0
-675 -688 0
-676 -677 0
-676 -678 0
-676 -679 0
-676 -680 0
-676 -681 0
-676 -682 0
-676 -683 0
-676 -684 0
-676 -685 0
-676 -686 0
-676 -687 0
-676 -688 0
-677 -678 0
-677 -679 0
-677 -680 0
-677 -681 0
-677 -682 0
-677 -683 0
-677 -684 0
-677 -685 0
-677 -686 0
-677 -687 0
-677 -688 0
-678 -679 0
-678 -680 0
-678 -681 0
-678 -682 0
-678 -683 0
-678 -684 0
-678 -685 0
-678 -686 0
-678 -687 0
-678 -688 0
-679 -680 0
-679 -681 0
-679 -682 0
-679 -683 0
-679 -684 0
-679 -685 0
-679 -686 0
-679 -687 0
-679 -688 0
-680 -681 0
-680 -682 0
-680 -683 0
-680 -684 0
-680 -685 0
-680 -686 0
-680 -687 0
-680 -688 0
-681 -682 0
-681 -683 0
-681 -684 0
-681 -685 0
-681 -686 0
-681 -687 0
-681 -688 0
-682 -683 0
-682 -684 0
-682 -685 0
-682 -686 0
-682 -687 0
-682 -688 0
-683 -684 0
-683 -685 0
-683 -686 0
-683 -687 0
-683 -688 0
-684 -685 0
-684 -686 0
-684 -687 0
-684 -688 0
-685 -686 0
-685 -687 0
-685 -688 0
-686 -687 0
-686 -688 0
-687 -688 0
689 690 691 692 693 694 695 696 697 698 699 700 701 702 703 704 0
-689 -690 0
-689 -691 0
-689 -692 0
-689 -693 0
-689 -694 0
-689 -695 0
-689 -696 0
-689 -697 0
-689 -698 0
-689 -699 0
-689 -700 0
-689 -701 0
-689 -702 0
-689 -703 0
-689 -704 0
-690 -691 0
-690 -692 0
-690 -693 0
-690 -694 0
-690 -695 0
-690 -696 0
-690 -697 0
-690 -698 0
-690 -699 0
-690 -700 0
-690 -701 0
-690 -702 0
-690 -703 0
-690 -704 0
-691 -692 0
-691 -693 0
-691 -694 0
-691 -695 0
-691 -696 0
-691 -697 0
-691 -698 0
-691 -699 0
-691 -700 0
-691 -701 0
-691 -702 0
-691 -703 0
-691 -704 0
-692 -693 0
-692 -694 0
-692 -695 0
-692 -696 0
-692 -697 0
-692 -698 0
-692 -699 0
-692 -700 0
-692 -701 0
-692 -702 0
-692 -703 0
-692 -704 0
-693 -694 0
-693 -695 0
-693 -696 0
-693 -697 0
-693 -698 0
-693 -699 0
-693 -700 0
-693 -701 0
-693 -702 0
-693 -703 0
-693 -704 0
-694 -695 0
-694 -696 0
-694 -697 0
-694 -698 0
-694 -699 0
-694 -700 0
-694 -701 0
-694 -702 0
-694 -703 0
-694 -704 0
-695 -696 0
-695 -697 0
-695 -698 0
-695 -699 0
-695 -700 0
-695 -701 0
-695 -702 0
-695 -703 0
-695 -704 0
-696 -697 0
-696 -698 0
-696 -699 0
-696 -700 0
-696 -701 0
-696 -702 0
-696 -703 0
-696 -704 0
-697 -698 0
-697 -699 0
-697 -700 0
-697 -701 0
-697 -702 0
-697 -703 0
-697 -704 0
-698 -699 0
-698 -700 0
-698 -701 0
-698 -702 0
-698 -703 0
-698 -704 0
-699 -700 0
-699 -701 0
-699 -702 0
-699 -703 0
-699 -704 0
-700 -701 0
-700 -702 0
-700 -703 0
-700 -704 0
-701 -702 0
-701 -703 0
-701 -704 0
-702 -703 0
-702 -704 0
-703 -704 0
705 706 707 708 709 710 711 712 713 714 715 716 717 718 719 720 0
-705 -706 0
-705 -707 0
-705 -708 0
-705 -709 0
-705 -710 0
-705 -711 0
-705 -712 0
-705 -713 0
-705 -714 0
-705 -715 0
-705 -716 0
-705 -717 0
-705 -718 0
-705 -719 0
-705 -720 0
-706 -707 0
-706 -708 0
-706 -709 0
-706 -710 0
-706 -711 0
-706 -712 0
-706 -713 0
-706 -714 0
-706 -715 0
-706 -716 0
-706 -717 0
-706 -718 0
-706 -719 0
-706 -720 0
-707 -708 0
-707 -709 0
-707 -710 0
-707 -711 0
-707 -712 0
-707 -713 0
-707 -714 0
-707 -715 0
-707 -716 0
-707 -717 0
-707 -718 0
-707 -719 0
-707 -720 0
-708 -709 0
-708 -710 0
-708 -711 0
-708 -712 0
-708 -713 0
-708 -714 0
-708 -715 0
-708 -716 0
-708 -717 0
-708 -718 0
-708 -719 0
-708 -720 0
-709 -710 0
-709 -711 0
-709 -712 0
-709 -713 0
-709 -714 0
-709 -715 0
-709 -716 0
-709 -717 0
-709 -718 0
-709 -719 0
-709 -720 0
-710 -711 0
-710 -712 0
-710 -713 0
-710 -714 0
-710 -715 0
-710 -716 0
-710 -717 0
-710 -718 0
-710 -719 0
-710 -720 0
-711 -712 0
-711 -713 0
-711 -714 0
-711 -715 0
-711 -716 0
-711 -717 0
-711 -718 0
-711 -719 0
-711 -720 0
-712 -713 0
-712 -714 0
-712 -715 0
-712 -716 0
-712 -717 0
-712 -718 0
-712 -719 0
-712 -720 0
-713 -714 0
-713 -715 0
-713 -716 0
-713 -717 0
-713 -718 0
-713 -719 0
-713 -720 0
-714 -715 0
-714 -716 0
-714 -717 0
-714 -718 0
-714 -719 0
-714 -720 0
-715 -716 0
-715 -717 0
-715 -718 0
-715 -719 0
-715 -720 0
-716 -717 0
-716 -718 0
-716 -719 0
-716 -720 0
-717 -718 0
-717 -719 0
-717 -720 0
-718 -719 0
-718 -720 0
-719 -720 0
-1 -49 0
-1 -97 0
-1 -145 0
-1 -193 0
-1 -241 0
-1 -289 0
-1 -337 0
-1 -385 0
-1 -433 0
-1 -481 0
-1 -529 0
-1 -577 0
-1 -625 0
-1 -673 0
-49 -97 0
-49 -145 0
-49 -193 0
-49 -241 0
-49 -289 0
-49 -337 0
-49 -385 0
-49 -433 0
-49 -481 0
-49 -529 0
-49 -577 0
-49 -625 0
-49 -673 0
-97 -145 0
-97 -193 0
-97 -241 0
-97 -289 0
-97 -337 0
-97 -385 0
-97 -433 0
-97 -481 0
-97 -529 0
-97 -577 0
-97 -625 0
-97 -673 0
-145 -193 0
-145 -241 0
-145 -289 0
-145 -337 0
-145 -385 0
-145 -433 0
-145 -481 0
-145 -529 0
-145 -577 0
-145 -625 0
-145 -673 0
-193 -241 0
-193 -289 0
-193 -337 0
-193 -385 0
-193 -433 0
-193 -481 0
-193 -529 0
-193 -577 0
-193 -625 0
-193 -673 0
-241 -289 0
-241 -337 0
-241 -385 0
-241 -433 0
-241 -481 0
-241 -529 0
-241 -577 0
-241 -625 0
-241 -673 0
-289 -337 0
-289 -385 0
-289 -433 0
-289 -481 0
-289 -529 0
-289 -577 0
-289 -625 0
-289 -673 0
-337 -385 0
-337 -433 0
-337 -481 0
-337 -529 0
-337 -577 0
-337 -625 0
-337 -673 0
-385 -433 0
-385 -481 0
-385 -529 0
-385 -577 0
-385 -625 0
-385 -673 0
-433 -481 0
-433 -529 0
-433 -577 0
-433 -625 0
-433 -673 0
-481 -529 0
-481 -577 0
-481 -625 0
-481 -673 0
-529 -577 0
-529 -625 0
-529 -673 0
-577 -625 0
-577 -673 0
-625 -673 0
-2 -50 0
-2 -98 0
-2 -146 0
-2 -194 0
-2 -242 0
-2 -290 0
-2 -338 0
-2 -386 0
-2 -434 0
-2 -482 0
-2 -530 0
-2 -578 0
-2 -626 0
-2 -674 0
-50 -98 0
-50 -146 0
-50 -194 0
-50 -242 0
-50 -290 0
-50 -338 0
-50 -386 0
-50 -434 0
-50 -482 0
-50 -530 0
-50 -578 0
-50 -626 0
-50 -674 0
-98 -146 0
-98 -194 0
-98 -242 0
-98 -290 0
-98 -338 0
-98 -386 0
-98 -434 0
-98 -482 0
-98 -530 0
-98 -578 0
-98 -626 0
-98 -674 0
-146 -194 0
-146 -242 0
-146 -290 0
-146 -338 0
-146 -386 0
-146 -434 0
-146 -482 0
-146 -530 0
-146 -578 0
-146 -626 0
-146 -674 0
-194 -242 0
-194 -290 0
-194 -338 0
-194 -386 0
-194 -434 0
-194 -482 0
-194 -530 0
-194 -578 0
-194 -626 0
-194 -674 0
-242 -290 0
-242 -338 0
-242 -386 0
-242 -434 0
-242 -482 0
-242 -530 0
-242 -578 0
-242 -626 0
-242 -674 0
-290 -338 0
-290 -386 0
-290 -434 0
-290 -482 0
-290 -530 0
-290 -578 0
-290 -626 0
-290 -674 0
-338 -386 0
-338 -434 0
-338 -482 0
-338 -530 0
-338 -578 0
-338 -626 0
-338 -674 0
-386 -434 0
-386 -482 0
-386 -530 0
-386 -578 0
-386 -626 0
-386 -674 0
-434 -482 0
-434 -530 0
-434 -578 0
-434 -626 0
-434 -674 0
-482 -530 0
-482 -578 0
-482 -626 0
-482 -674 0
-530 -578 0
-530 -626 0
-530 -674 0
-578 -626 0
-578 -674 0
-626 -674 0
-3 -51 0
-3 -99 0
-3 -147 0
-3 -195 0
-3 -243 0
-3 -291 0
-3 -339 0
-3 -387 0
-3 -435 0
-3 -483 0
-3 -531 0
-3 -579 0
-3 -627 0
-3 -675 0
-51 -99 0
-51 -147 0
-51 -195 0
-51 -243 0
-51 -291 0
-51 -339 0
-51 -387 0
-51 -435 0
-51 -483 0
-51 -531 0
-51 -579 0
-51 -627 0
-51 -675 0
-99 -147 0
-99 -195 0
-99 -243 0
-99 -291 0
-99 -339 0
-99 -387 0
-99 -435 0
-99 -483 0
-99 -531 0
-99 -579 0
-99 -627 0
-99 -675 0
-147 -195 0
-147 -243 0
-147 -291 0
-147 -339 0
-147 -387 0
-147 -435 0
-147 -483 0
-147 -531 0
-147 -579 0
-147 -627 0
-147 -675 0
-195 -243 0
-195 -291 0
-195 -339 0
-195 -387 0
-195 -435 0
-195 -483 0
-195 -531 0
-195 -579 0
-195 -627 0
-195 -675 0
-243 -291 0
-243 -339 0
-243 -387 0
-243 -435 0
-243 -483 0
-243 -531 0
-243 -579 0
-243 -627 0
-243 -675 0
-291 -339 0
-291 -387 0
-291 -435 0
-291 -483 0
-291 -531 0
-291 -579 0
-291 -627 0
-291 -675 0
-339 -387 0
-339 -435 0
-339 -483 0
-339 -531 0
-339 -579 0
-339 -627 0
-339 -675 0
-387 -435 0
-387 -483 0
-387 -531 0
-387 -579 0
-387 -627 0
-387 -675 0
-435 -483 0
-435 -531 0
-435 -579 0
-435 -627 0
-435 -675 0
-483 -531 0
-483 -579 0
-483 -627 0
-483 -675 0
-531 -579 0
-531 -627 0
-531 -675 0
-579 -627 0
-579 -675 0
-627 -675 0
-4 -52 0
-4 -100 0
-4 -148 0
-4 -196 0
-4 -244 0
-4 -292 0
-4 -340 0
-4 -388 0
-4 -436 0
-4 -484 0
-4 -532 0
-4 -580 0
-4 -628 0
-4 -676 0
-52 -100 0
-52 -148 0
-52 -196 0
-52 -244 0
-52 -292 0
-52 -340 0
-52 -388 0
-52 -436 0
-52 -484 0
-52 -532 0
-52 -580 0
-52 -628 0
-52 -676 0
-100 -148 0
-100 -196 0
-100 -244 0
-100 -292 0
-100 -340 0
-100 -388 0
-100 -436 0
-100 -484 0
-100 -532 0
-100 -580 0
-100 -628 0
-100 -676 0
-148 -196 0
-148 -244 0
-148 -292 0
-148 -340 0
-148 -388 0
-148 -436 0
-148 -484 0
-148 -532 0
-148 -580 0
-148 -628 0
-148 -676 0
-196 -244 0
-196 -292 0
-196 -340 0
-196 -388 0
-196 -436 0
-196 -484 0
-196 -532 0
-196 -580 0
-196 -628 0
-196 -676 0
-244 -292 0
-244 -340 0
-244 -388 0
-244 -436 0
-244 -484 0
-244 -532 0
-244 -580 0
-244 -628 0
-244 -676 0
-292 -340 0
-292 -388 0
-292 -436 0
-292 -484 0
-292 -532 0
-292 -580 0
-292 -628 0
-292 -676 0
-340 -388 0
-340 -436 0
-340 -484 0
-340 -532 0
-340 -580 0
-340 -628 0
-340 -676 0
-388 -436 0
-388 -484 0
-388 -532 0
-388 -580 0
-388 -628 0
-388 -676 0
-436 -484 0
-436 -532 0
-436 -580 0
-436 -628 0
-436 -676 0
-484 -532 0
-484 -580 0
-484 -628 0
-484 -676 0
-532 -580 0
-532 -628 0
-532 -676 0
-580 -628 0
-580 -676 0
-628 -676 0
-5 -53 0
-5 -101 0
-5 -149 0
-5 -197 0
-5 -245 0
-5 -293 0
-5 -341 0
-5 -389 0
-5 -437 0
-5 -485 0
-5 -533 0
-5 -581 0
-5 -629 0
-5 -677 0
-53 -101 0
-53 -149 0
-53 -197 0
-53 -245 0
-53 -293 0
-53 -341 0
-53 -389 0
-53 -437 0
-53 -485 0
-53 -533 0
-53 -581 0
-53 -629 0
-53 -677 0
-101 -149 0
-101 -197 0
-101 -245 0
-101 -293 0
-101 -341 0
-101 -389 0
-101 -437 0
-101 -485 0
-101 -533 0
-101 -581 0
-101 -629 0
-101 -677 0
-149 -197 0
-149 -245 0
-149 -293 0
-149 -341 0
-149 -389 0
-149 -437 0
-149 -485 0
-149 -533 0
-149 -581 0
-149 -629 0
-149 -677 0
-197 -245 0
-197 -293 0
-197 -341 0
-197 -389 0
-197 -437 0
-197 -485 0
-197 -533 0
-197 -581 0
-197 -629 0
-197 -677 0
-245 -293 0
-245 -341 0
-245 -389 0
-245 -437 0
-245 -485 0
-245 -533 0
-245 -581 0
-245 -629 0
-245 -677 0
-293 -341 0
-293 -389 0
-293 -437 0
-293 -485 0
-293 -533 0
-293 -581 0
-293 -629 0
-293 -677 0
-341 -389 0
-341 -437 0
-341 -485 0
-341 -533 0
-341 -581 0
-341 -629 0
-341 -677 0
-389 -437 0
-389 -485 0
-389 -533 0
-389 -581 0
-389 -629 0
-389 -677 0
-437 -485 0
-437 -533 0
-437 -581 0
-437 -629 0
-437 -677 0
-485 -533 0
-485 -581 0
-485 -629 0
-485 -677 0
-533 -581 0
-533 -629 0
-533 -677 0
-581 -629 0
-581 -677 0
-629 -677 0
-6 -54 0
-6 -102 0
-6 -150 0
-6 -198 0
-6 -246 0
-6 -294 0
-6 -342 0
-6 -390 0
-6 -438 0
-6 -486 0
-6 -534 0
-6 -582 0
-6 -630 0
-6 -678 0
-54 -102 0
-54 -150 0
-54 -198 0
-54 -246 0
-54 -294 0
-54 -342 0
-54 -390 0
-54 -438 0
-54 -486 0
-54 -534 0
-54 -582 0
-54 -630 0
-54 -678 0
-102 -150 0
-102 -198 0
-102 -246 0
-102 -294 0
-102 -342 0
-102 -390 0
-102 -438 0
-102 -486 0
-102 -534 0
-102 -582 0
-102 -630 0
-102 -678 0
-150 -198 0
-150 -246 0
-150 -294 0
-150 -342 0
-150 -390 0
-150 -438 0
-150 -486 0
-150 -534 0
-150 -582 0
-150 -630 0
-150 -678 0
-198 -246 0
-198 -294 0
-198 -342 0
-198 -390 0
-198 -438 0
-198 -486 0
-198 -534 0
-198 -582 0
-198 -630 0
-198 -678 0
-246 -294 0
-246 -342 0
-246 -390 0
-246 -438 0
-246 -486 0
-246 -534 0
-246 -582 0
-246 -630 0
-246 -678 0
-294 -342 0
-294 -390 0
-294 -438 0
-294 -486 0
-294 -534 0
-294 -582 0
-294 -630 0
-294 -678 0
-342 -390 0
-342 -438 0
-342 -486 0
-342 -534 0
-342 -582 0
-342 -630 0
-342 -678 0
-390 -438 0
-390 -486 0
-390 -534 0
-390 -582 0
-390 -630 0
-390 -678 0
-438 -486 0
-438 -534 0
-438 -582 0
-438 -630 0
-438 -678 0
-486 -534 0
-486 -582 0
-486 -630 0
-486 -678 0
-534 -582 0
-534 -630 0
-534 -678 0
-582 -630 0
-582 -678 0
-630 -678 0
-7 -55 0
-7 -103 0
-7 -151 0
-7 -199 0
-7 -247 0
-7 -295 0
-7 -343 0
-7 -391 0
-7 -439 0
-7 -487 0
-7 -535 0
-7 -583 0
-7 -631 0
-7 -679 0
-55 -103 0
-55 -151 0
-55 -199 0
-55 -247 0
-55 -295 0
-55 -343 0
-55 -391 0
-55 -439 0
-55 -487 0
-55 -535 0
-55 -583 0
-55 -631 0
-55 -679 0
-103 -151 0
-103 -199 0
-103 -247 0
-103 -295 0
-103 -343 0
-103 -391 0
-103 -439 0
-103 -487 0
-103 -535 0
-103 -583 0
-103 -631 0
-103 -679 0
-151 -199 0
-151 -247 0
-151 -295 0
-151 -343 0
-151 -391 0
-151 -439 0
-151 -487 0
-151 -535 0
-151 -583 0
-151 -631 0
-151 -679 0
-199 -247 0
-199 -295 0
-199 -343 0
-199 -391 0
-199 -439 0
-199 -487 0
-199 -535 0
-199 -583 0
-199 -631 0
-199 -679 0
-247 -295 0
-247 -343 0
-247 -391 0
-247 -439 0
-247 -487 0
-247 -535 0
-247 -583 0
-247 -631 0
-247 -679 0
-295 -343 0
-295 -391 0
-295 -439 0
-295 -487 0
-295 -535 0
-295 -583 0
-295 -631 0
-295 -679 0
-343 -391 0
-343 -439 0
-343 -487 0
-343 -535 0
-343 -583 0
-343 -631 0
-343 -679 0
-391 -439 0
-391 -487 0
-391 -535 0
-391 -583 0
-391 -631 0
-391 -679 0
-439 -487 0
-439 -535 0
-439 -583 0
-439 -631 0
-439 -679 0
-487 -535 0
-487 -583 0
-487 -631 0
-487 -679 0
-535 -583 0
-535 -631 0
-535 -679 0
-583 -631 0
-583 -679 0
-631 -679 0
-8 -56 0
-8 -104 0
-8 -152 0
-8 -200 0
-8 -248 0
-8 -296 0
-8 -344 0
-8 -392 0
-8 -440 0
-8 -488 0
-8 -536 0
-8 -584 0
-8 -632 0
-8 -680 0
-56 -104 0
-56 -152 0
-56 -200 0
-56 -248 0
-56 -296 0
-56 -344 0
-56 -392 0
-56 -440 0
-56 -488 0
-56 -536 0
-56 -584 0
-56 -632 0
-56 -680 0
-104 -152 0
-104 -200 0
-104 -248 0
-104 -296 0
-104 -344 0
-104 -392 0
-104 -440 0
-104 -488 0
-104 -536 0
-104 -584 0
-104 -632 0
-104 -680 0
-152 -200 0
-152 -248 0
-152 -296 0
-152 -344 0
-152 -392 0
-152 -440 0
-152 -488 0
-152 -536 0
-152 -584 0
-152 -632 0
-152 -680 0
-200 -248 0
-200 -296 0
-200 -344 0
-200 -392 0
-200 -440 0
-200 -488 0
-200 -536 0
-200 -584 0
-200 -632 0
-200 -680 0
-248 -296 0
-248 -344 0
-248 -392 0
-248 -440 0
-248 -488 0
-248 -536 0
-248 -584 0
-248 -632 0
-248 -680 0
-296 -344 0
-296 -392 0
-296 -440 0
-296 -488 0
-296 -536 0
-296 -584 0
-296 -632 0
-296 -680 0
-344 -392 0
-344 -440 0
-344 -488 0
-344 -536 0
-344 -584 0
-344 -632 0
-344 -680 0
-392 -440 0
-392 -488 0
-392 -536 0
-392 -584 0
-392 -632 0
-392 -680 0
-440 -488 0
-440 -536 0
-440 -584 0
-440 -632 0
-440 -680 0
-488 -536 0
-488 -584 0
-488 -632 0
-488 -680 0
-536 -584 0
-536 -632 0
-536 -680 0
-584 -632 0
-584 -680 0
-632 -680 0
-9 -57 0
-9 -105 0
-9 -153 0
-9 -201 0
-9 -249 0
-9 -297 0
-9 -345 0
-9 -393 0
-9 -441 0
-9 -489 0
-9 -537 0
-9 -585 0
-9 -633 0
-9 -681 0
-57 -105 0
-57 -153 0
-57 -201 0
-57 -249 0
-57 -297 0
-57 -345 0
-57 -393 0
-57 -441 0
-57 -489 0
-57 -537 0
-57 -585 0
-57 -633 0
-57 -681 0
-105 -153 0
-105 -201 0
-105 -249 0
-105 -297 0
-105 -345 0
-105 -393 0
-105 -441 0
-105 -489 0
-105 -537 0
-105 -585 0
-105 -633 0
-105 -681 0
-153 -201 0
-153 -249 0
-153 -297 0
-153 -345 0
-153 -393 0
-153 -441 0
-153 -489 0
-153 -537 0
-153 -585 0
-153 -633 0
-153 -681 0
-201 -249 0
-201 -297 0
-201 -345 0
-201 -393 0
-201 -441 0
-201 -489 0
-201 -537 0
-201 -585 0
-201 -633 0
-201 -681 0
-249 -297 0
-249 -345 0
-249 -393 0
-249 -441 0
-249 -489 0
-249 -537 0
-249 -585 0
-249 -633 0
-249 -681 0
-297 -345 0
-297 -393 0
-297 -441 0
-297 -489 0
-297 -537 0
-297 -585 0
-297 -633 0
-297 -681 0
-345 -393 0
-345 -441 0
-345 -489 0
-345 -537 0
-345 -585 0
-345 -633 0
-345 -681 0
-393 -441 0
-393 -489 0
-393 -537 0
-393 -585 0
-393 -633 0
-393 -681 0
-441 -489 0
-441 -537 0
-441 -585 0
-441 -633 0
-441 -681 0
-489 -537 0
-489 -585 0
-489 -633 0
-489 -681 0
-537 -585 0
-537 -633 0
-537 -681 0
-585 -633 0
-585 -681 0
-633 -681 0
-10 -58 0
-10 -106 0
-10 -154 0
-10 -202 0
-10 -250 0
-10 -298 0
-10 -346 0
-10 -394 0
-10 -442 0
-10 -490 0
-10 -538 0
-10 -586 0
-10 -634 0
-10 -682 0
-58 -106 0
-58 -154 0
-58 -202 0
-58 -250 0
-58 -298 0
-58 -346 0
-58 -394 0
-58 -442 0
-58 -490 0
-58 -538 0
-58 -586 0
-58 -634 0
-58 -682 0
-106 -154 0
-106 -202 0
-106 -250 0
-106 -298 0
-106 -346 0
-106 -394 0
-106 -442 0
-106 -490 0
-106 -538 0
-106 -586 0
-106 -634 0
-106 -682 0
-154 -202 0
-154 -250 0
-154 -298 0
-154 -346 0
-154 -394 0
-154 -442 0
-154 -490 0
-154 -538 0
-154 -586 0
-154 -634 0
-154 -682 0
-202 -250 0
-202 -298 0
-202 -346 0
-202 -394 0
-202 -442 0
-202 -490 0
-202 -538 0
-202 -586 0
-202 -634 0
-202 -682 0
-250 -298 0
-250 -346 0
-250 -394 0
-250 -442 0
-250 -490 0
-250 -538 0
-250 -586 0
-250 -634 0
-250 -682 0
-298 -346 0
-298 -394 0
-298 -442 0
-298 -490 0
-298 -538 0
-298 -586 0
-298 -634 0
-298 -682 0
-346 -394 0
-346 -442 0
-346 -490 0
-346 -538 0
-346 -586 0
-346 -634 0
-346 -682 0
-394 -442 0
-394 -490 0
-394 -538 0
-394 -586 0
-394 -634 0
-394 -682 0
-442 -490 0
-442 -538 0
-442 -586 0
-442 -634 0
-442 -682 0
-490 -538 0
-490 -586 0
-490 -634 0
-490 -682 0
-538 -586 0
-538 -634 0
-538 -682 0
-586 -634 0
-586 -682 0
-634 -682 0
-11 -59 0
-11 -107 0
-11 -155 0
-11 -203 0
-11 -251 0
-11 -299 0
-11 -347 0
-11 -395 0
-11 -443 0
-11 -491 0
-11 -539 0
-11 -587 0
-11 -635 0
-11 -683 0
-59 -107 0
-59 -155 0
-59 -203 0
-59 -251 0
-59 -299 0
-59 -347 0
-59 -395 0
-59 -443 0
-59 -491 0
-59 -539 0
-59 -587 0
-59 -635 0
-59 -683 0
-107 -155 0
-107 -203 0
-107 -251 0
-107 -299 0
-107 -347 0
-107 -395 0
-107 -443 0
-107 -491 0
-107 -539 0
-107 -587 0
-107 -635 0
-107 -683 0
-155 -203 0
-155 -251 0
-155 -299 0
-155 -347 0
-155 -395 0
-155 -443 0
-155 -491 0
-155 -539 0
-155 -587 0
-155 -635 0
-155 -683 0
-203 -251 0
-203 -299 0
-203 -347 0
-203 -395 0
-203 -443 0
-203 -491 0
-203 -539 0
-203 -587 0
-203 -635 0
-203 -683 0
-251 -299 0
-251 -347 0
-251 -395 0
-251 -443 0
-251 -491 0
-251 -539 0
-251 -587 0
-251 -635 0
-251 -683 0
-299 -347 0
-299 -395 0
-299 -443 0
-299 -491 0
-299 -539 0
-299 -587 0
-299 -635 0
-299 -683 0
-347 -395 0
-347 -443 0
-347 -491 0
-347 -539 0
-347 -587 0
-347 -635 0
-347 -683 0
-395 -443 0
-395 -491 0
-395 -539 0
-395 -587 0
-395 -635 0
-395 -683 0
-443 -491 0
-443 -539 0
-443 -587 0
-443 -635 0
-443 -683 0
-491 -539 0
-491 -587 0
-491 -635 0
-491 -683 0
-539 -587 0
-539 -635 0
-539 -683 0
-587 -635 0
-587 -683 0
-635 -683 0
-12 -60 0
-12 -108 0
-12 -156 0
-12 -204 0
-12 -252 0
-12 -300 0
-12 -348 0
-12 -396 0
-12 -444 0
-12 -492 0
-12 -540 0
-12 -588 0
-12 -636 0
-12 -684 0
-60 -108 0
-60 -156 0
-60 -204 0
-60 -252 0
-60 -300 0
-60 -348 0
-60 -396 0
-60 -444 0
-60 -492 0
-60 -540 0
-60 -588 0
-60 -636 0
-60 -684 0
-108 -156 0
-108 -204 0
-108 -252 0
-108 -300 0
-108 -348 0
-108 -396 0
-108 -444 0
-108 -492 0
-108 -540 0
-108 -588 0
-108 -636 0
-108 -684 0
-156 -204 0
-156 -252 0
-156 -300 0
-156 -348 0
-156 -396 0
-156 -444 0
-156 -492 0
-156 -540 0
-156 -588 0
-156 -636 0
-156 -684 0
-204 -252 0
-204 -300 0
-204 -348 0
-204 -396 0
-204 -444 0
-204 -492 0
-204 -540 0
-204 -588 0
-204 -636 0
-204 -684 0
-252 -300 0
-252 -348 0
-252 -396 0
-252 -444 0
-252 -492 0
-252 -540 0
-252 -588 0
-252 -636 0
-252 -684 0
-300 -348 0
-300 -396 0
-300 -444 0
-300 -492 0
-300 -540 0
-300 -588 0
-300 -636 0
-300 -684 0
-348 -396 0
-348 -444 0
-348 -492 0
-348 -540 0
-348 -588 0
-348 -636 0
-348 -684 0
-396 -444 0
-396 -492 0
-396 -540 0
-396 -588 0
-396 -636 0
-396 -684 0
-444 -492 0
-444 -540 0
-444 -588 0
-444 -636 0
-444 -684 0
-492 -540 0
-492 -588 0
-492 -636 0
-492 -684 0
-540 -588 0
-540 -636 0
-540 -684 0
-588 -636 0
-588 -684 0
-636 -684 0
-13 -61 0
-13 -109 0
-13 -157 0
-13 -205 0
-13 -253 0
-13 -301 0
-13 -349 0
-13 -397 0
-13 -445 0
-13 -493 0
-13 -541 0
-13 -589 0
-13 -637 0
-13 -685 0
-61 -109 0
-61 -157 0
-61 -205 0
-61 -253 0
-61 -301 0
-61 -349 0
-61 -397 0
-61 -445 0
-61 -493 0
-61 -541 0
-61 -589 0
-61 -637 0
-61 -685 0
-109 -157 0
-109 -205 0
-109 -253 0
-109 -301 0
-109 -349 0
-109 -397 0
-109 -445 0
-109 -493 0
-109 -541 0
-109 -589 0
-109 -637 0
-109 -685 0
-157 -205 0
-157 -253 0
-157 -301 0
-157 -349 0
-157 -397 0
-157 -445 0
-157 -493 0
-157 -541 0
-157 -589 0
-157 -637 0
-157 -685 0
-205 -253 0
-205 -301 0
-205 -349 0
-205 -397 0
-205 -445 0
-205 -493 0
-205 -541 0
-205 -589 0
-205 -637 0
-205 -685 0
-253 -301 0
-253 -349 0
-253 -397 0
-253 -445 0
-253 -493 0
-253 -541 0
-253 -589 0
-253 -637 0
-253 -685 0
-301 -349 0
-301 -397 0
-301 -445 0
-301 -493 0
-301 -541 0
-301 -589 0
-301 -637 0
-301 -685 0
-349 -397 0
-349 -445 0
-349 -493 0
-349 -541 0
-349 -589 0
-349 -637 0
-349 -685 0
-397 -445 0
-397 -493 0
-397 -541 0
-397 -589 0
-397 -637 0
-397 -685 0
-445 -493 0
-445 -541 0
-445 -589 0
-445 -637 0
-445 -685 0
-493 -541 0
-493 -589 0
-493 -637 0
-493 -685 0
-541 -589 0
-541 -637 0
-541 -685 0
-589 -637 0
-589 -685 0
-637 -685 0
-14 -62 0
-14 -110 0
-14 -158 0
-14 -206 0
-14 -254 0
-14 -302 0
-14 -350 0
-14 -398 0
-14 -446 0
-14 -494 0
-14 -542 0
-14 -590 0
-14 -638 0
-14 -686 0
-62 -110 0
-62 -158 0
-62 -206 0
-62 -254 0
-62 -302 0
-62 -350 0
-62 -398 0
-62 -446 0
-62 -494 0
-62 -542 0
-62 -590 0
-62 -638 0
-62 -686 0
-110 -158 0
-110 -206 0
-110 -254 0
-110 -302 0
-110 -350 0
-110 -398 0
-110 -446 0
-110 -494 0
-110 -542 0
-110 -590 0
-110 -638 0
-110 -686 0
-158 -206 0
-158 -254 0
-158 -302 0
-158 -350 0
-158 -398 0
-158 -446 0
-158 -494 0
-158 -542 0
-158 -590 0
-158 -638 0
-158 -686 0
-206 -254 0
-206 -302 0
-206 -350 0
-206 -398 0
-206 -446 0
-206 -494 0
-206 -542 0
-206 -590 0
-206 -638 0
-206 -686 0
-254 -302 0
-254 -350 0
-254 -398 0
-254 -446 0
-254 -494 0
-254 -542 0
-254 -590 0
-254 -638 0
-254 -686 0
-302 -350 0
-302 -398 0
-302 -446 0
-302 -494 0
-302 -542 0
-302 -590 0
-302 -638 0
-302 -686 0
-350 -398 0
-350 -446 0
-350 -494 0
-350 -542 0
-350 -590 0
-350 -638 0
-350 -686 0
-398 -446 0
-398 -494 0
-398 -542 0
-398 -590 0
-398 -638 0
-398 -686 0
-446 -494 0
-446 -542 0
-446 -590 0
-446 -638 0
-446 -686 0
-494 -542 0
-494 -590 0
-494 -638 0
-494 -686 0
-542 -590 0
-542 -638 0
-542 -686 0
-590 -638 0
-590 -686 0
-638 -686 0
-15 -63 0
-15 -111 0
-15 -159 0
-15 -207 0
-15 -255 0
-15 -303 0
-15 -351 0
-15 -399 0
-15 -447 0
-15 -495 0
-15 -543 0
-15 -591 0
-15 -639 0
-15 -687 0
-63 -111 0
-63 -159 0
-63 -207 0
-63 -255 0
-63 -303 0
-63 -351 0
-63 -399 0
-63 -447 0
-63 -495 0
-63 -543 0
-63 -591 0
-63 -639 0
-63 -687 0
-111 -159 0
-111 -207 0
-111 -255 0
-111 -303 0
-111 -351 0
-111 -399 0
-111 -447 0
-111 -495 0
-111 -543 0
-111 -591 0
-111 -639 0
-111 -687 0
-159 -207 0
-159 -255 0
-159 -303 0
-159 -351 0
-159 -399 0
-159 -447 0
-159 -495 0
-159 -543 0
-159 -591 0
-159 -639 0
-159 -687 0
-207 -255 0
-207 -303 0
-207 -351 0
-207 -399 0
-207 -447 0
-207 -495 0
-207 -543 0
-207 -591 0
-207 -639 0
-207 -687 0
-255 -303 0
-255 -351 0
-255 -399 0
-255 -447 0
-255 -495 0
-255 -543 0
-255 -591 0
-255 -639 0
-255 -687 0
-303 -351 0
-303 -399 0
-303 -447 0
-303 -495 0
-303 -543 0
-303 -591 0
-303 -639 0
-303 -687 0
-351 -399 0
-351 -447 0
-351 -495 0
-351 -543 0
-351 -591 0
-351 -639 0
-351 -687 0
-399 -447 0
-399 -495 0
-399 -543 0
-399 -591 0
-399 -639 0
-399 -687 0
-447 -495 0
-447 -543 0
-447 -591 0
-447 -639 0
-447 -687 0
-495 -543 0
-495 -591 0
-495 -639 0
-495 -687 0
-543 -591 0
-543 -639 0
-543 -687 0
-591 -639 0
-591 -687 0
-639 -687 0
-16 -64 0
-16 -112 0
-16 -160 0
-16 -208 0
-16 -256 0
-16 -304 0
-16 -352 0
-16 -400 0
-16 -448 0
-16 -496 0
-16 -544 0
-16 -592 0
-16 -640 0
-16 -688 0
-64 -112 0
-64 -160 0
-64 -208 0
-64 -256 0
-64 -304 0
-64 -352 0
-64 -400 0
-64 -448 0
-64 -496 0
-64 -544 0
-64 -592 0
-64 -640 0
-64 -688 0
-112 -160 0
-112 -208 0
-112 -256 0
-112 -304 0
-112 -352 0
-112 -400 0
-112 -448 0
-112 -496 0
-112 -544 0
-112 -592 0
-112 -640 0
-112 -688 0
-160 -208 0
-160 -256 0
-160 -304 0
-160 -352 0
-160 -400 0
-160 -448 0
-160 -496 0
-160 -544 0
-160 -592 0
-160 -640 0
-160 -688 0
-208 -256 0
-208 -304 0
-208 -352 0
-208 -400 0
-208 -448 0
-208 -496 0
-208 -544 0
-208 -592 0
-208 -640 0
-208 -688 0
-256 -304 0
-256 -352 0
-256 -400 0
-256 -448 0
-256 -496 0
-256 -544 0
-256 -592 0
-256 -640 0
-256 -688 0
-304 -352 0
-304 -400 0
-304 -448 0
-304 -496 0
-304 -544 0
-304 -592 0
-304 -640 0
-304 -688 0
-352 -400 0
-352 -448 0
-352 -496 0
-352 -544 0
-352 -592 0
-352 -640 0
-352 -688 0
-400 -448 0
-400 -496 0
-400 -544 0
-400 -592 0
-400 -640 0
-400 -688 0
-448 -496 0
-448 -544 0
-448 -592 0
-448 -640 0
-448 -688 0
-496 -544 0
-496 -592 0
-496 -640 0
-496 -688 0
-544 -592 0
-544 -640 0
-544 -688 0
-592 -640 0
-592 -688 0
-640 -688 0
721 722 0
-721 -722 0
-1 721 0
-2 721 722 0
-3 721 722 0
-4 721 722 0
-5 721 722 0
-6 721 722 0
-7 721 722 0
-8 721 722 0
-9 721 722 0
-10 721 722 0
-11 721 722 0
-12 721 722 0
-13 721 722 0
-14 721 722 0
-15 721 722 0
-16 722 0
-49 721 0
-50 721 722 0
-51 721 722 0
-52 721 722 0
-53 721 722 0
-54 721 722 0
-55 721 722 0
-56 721 722 0
-57 721 722 0
-58 721 722 0
-59 721 722 0
-60 721 722 0
-61 721 722 0
-62 721 722 0
-63 721 722 0
-64 722 0
-97 721 0
-98 721 722 0
-99 721 722 0
-100 721 722 0
-101 721 722 0
-102 721 722 0
-103 721 722 0
-104 721 722 0
-105 721 722 0
-106 721 722 0
-107 721 722 0
-108 721 722 0
-109 721 722 0
-110 721 722 0
-111 721 722 0
-112 722 0
-145 721 0
-146 721 722 0
-147 721 722 0
-148 721 722 0
-149 721 722 0
-150 721 722 0
-151 721 722 0
-152 721 722 0
-153 721 722 0
-154 721 722 0
-155 721 722 0
-156 721 722 0
-157 721 722 0
-158 721 722 0
-159 721 722 0
-160 722 0
-193 721 0
-194 721 722 0
-195 721 722 0
-196 721 722 0
-197 721 722 0
-198 721 722 0
-199 721 722 0
-200 721 722 0
-201 721 722 0
-202 721 722 0
-203 721 722 0
-204 721 722 0
-205 721 722 0
-206 721 722 0
-207 721 722 0
-208 722 0
-241 721 0
-242 721 722 0
-243 721 722 0
-244 721 722 0
-245 721 722 0
-246 721 722 0
-247 721 722 0
-248 721 722 0
-249 721 722 0
-250 721 722 0
-251 721 722 0
-252 721 722 0
-253 721 722 0
-254 721 722 0
-255 721 722 0
-256 722 0
-289 721 0
-290 721 722 0
-291 721 722 0
-292 721 722 0
-293 721 722 0
-294 721 722 0
-295 721 722 0
-296 721 722 0
-297 721 722 0
-298 721 722 0
-299 721 722 0
-300 721 722 0
-301 721 722 0
-302 721 722 0
-303 721 722 0
-304 722 0
-337 721 0
-338 721 722 0
-339 721 722 0
-340 721 722 0
-341 721 722 0
-342 721 722 0
-343 721 722 0
-344 721 722 0
-345 721 722 0
-346 721 722 0
-347 721 722 0
-348 721 722 0
-349 721 722 0
-350 721 722 0
-351 721 722 0
-352 722 0
-385 721 0
-386 721 722 0
-387 721 722 0
-388 721 722 0
-389 721 722 0
-390 721 722 0
-391 721 722 0
-392 721 722 0
-393 721 722 0
-394 721 722 0
-395 721 722 0
-396 721 722 0
-397 721 722 0
-398 721 722 0
-399 721 722 0
-400 722 0
-433 721 0
-434 721 722 0
-435 721 722 0
-436 721 722 0
-437 721 722 0
-438 721 722 0
-439 721 722 0
-440 721 722 0
-441 721 722 0
-442 721 722 0
-443 721 722 0
-444 721 722 0
-445 721 722 0
-446 721 722 0
-447 721 722 0
-448 722 0
-481 721 0
-482 721 722 0
-483 721 722 0
-484 721 722 0
-485 721 722 0
-486 721 722 0
-487 721 722 0
-488 721 722 0
-489 721 722 0
-490 721 722 0
-491 721 722 0
-492 721 722 0
-493 721 722 0
-494 721 722 0
-495 721 722 0
-496 722 0
-529 721 0
-530 721 722 0
-531 721 722 0
-532 721 722 0
-533 721 722 0
-534 721 722 0
-535 721 722 0
-536 721 722 0
-537 721 722 0
-538 721 722 0
-539 721 722 0
-540 721 722 0
-541 721 722 0
-542 721 722 0
-543 721 722 0
-544 722 0
-577 721 0
-578 721 722 0
-579 721 722 0
-580 721 722 0
-581 721 722 0
-582 721 722 0
-583 721 722 0
-584 721 722 0
-585 721 722 0
-586 721 722 0
-587 721 722 0
-588 721 722 0
-589 721 722 0
-590 721 722 0
-591 721 722 0
-592 722 0
-625 721 0
-626 721 722 0
-627 721 722 0
-628 721 722 0
-629 721 722 0
-630 721 722 0
-631 721 722 0
-632 721 722 0
-633 721 722 0
-634 721 722 0
-635 721 722 0
-636 721 722 0
-637 721 722 0
-638 721 722 0
-639 721 722 0
-640 722 0
-673 721 0
-674 721 722 0
-675 721 722 0
-676 721 722 0
-677 721 722 0
-678 721 722 0
-679 721 722 0
-680 721 722 0
-681 721 722 0
-682 721 722 0
-683 721 722 0
-684 721 722 0
-685 721 722 0
-686 721 722 0
-687 721 722 0
-688 722 0
-721 -16 0
-721 -64 0
-721 -112 0
-721 -160 0
-721 -208 0
-721 -256 0
-721 -304 0
-721 -352 0
-721 -400 0
-721 -448 0
-721 -496 0
-721 -544 0
-721 -592 0
-721 -640 0
-721 -688 0
-722 -1 0
-722 -49 0
-722 -97 0
-722 -145 0
-722 -193 0
-722 -241 0
-722 -289 0
-722 -337 0
-722 -385 0
-722 -433 0
-722 -481 0
-722 -529 0
-722 -577 0
-722 -625 0
-722 -673 0
-17 -65 0
-17 -113 0
-17 -161 0
-17 -209 0
-17 -257 0
-17 -305 0
-17 -353 0
-17 -401 0
-17 -449 0
-65 -113 0
-65 -161 0
-65 -209 0
-65 -257 0
-65 -305 0
-65 -353 0
-65 -401 0
-65 -449 0
-113 -161 0
-113 -209 0
-113 -257 0
-113 -305 0
-113 -353 0
-113 -401 0
-113 -449 0
-161 -209 0
-161 -257 0
-161 -305 0
-161 -353 0
-161 -401 0
-161 -449 0
-209 -257 0
-209 -305 0
-209 -353 0
-209 -401 0
-209 -449 0
-257 -305 0
-257 -353 0
-257 -401 0
-257 -449 0
-305 -353 0
-305 -401 0
-305 -449 0
-353 -401 0
-353 -449 0
-401 -449 0
-18 -66 0
-18 -114 0
-18 -162 0
-18 -210 0
-18 -258 0
-18 -306 0
-18 -354 0
-18 -402 0
-18 -450 0
-66 -114 0
-66 -162 0
-66 -210 0
-66 -258 0
-66 -306 0
-66 -354 0
-66 -402 0
-66 -450 0
-114 -162 0
-114 -210 0
-114 -258 0
-114 -306 0
-114 -354 0
-114 -402 0
-114 -450 0
-162 -210 0
-162 -258 0
-162 -306 0
-162 -354 0
-162 -402 0
-162 -450 0
-210 -258 0
-210 -306 0
-210 -354 0
-210 -402 0
-210 -450 0
-258 -306 0
-258 -354 0
-258 -402 0
-258 -450 0
-306 -354 0
-306 -402 0
-306 -450 0
-354 -402 0
-354 -450 0
-402 -450 0
-19 -67 0
-19 -115 0
-19 -163 0
-19 -211 0
-19 -259 0
-19 -307 0
-19 -355 0
-19 -403 0
-19 -451 0
-67 -115 0
-67 -163 0
-67 -211 0
-67 -259 0
-67 -307 0
-67 -355 0
-67 -403 0
-67 -451 0
-115 -163 0
-115 -211 0
-115 -259 0
-115 -307 0
-115 -355 0
-115 -403 0
-115 -451 0
-163 -211 0
-163 -259 0
-163 -307 0
-163 -355 0
-163 -403 0
-163 -451 0
-211 -259 0
-211 -307 0
-211 -355 0
-211 -403 0
-211 -451 0
-259 -307 0
-259 -355 0
-259 -403 0
-259 -451 0
-307 -355 0
-307 -403 0
-307 -451 0
-355 -403 0
-355 -451 0
-403 -451 0
-20 -68 0
-20 -116 0
-20 -164 0
-20 -212 0
-20 -260 0
-20 -308 0
-20 -356 0
-20 -404 0
-20 -452 0
-68 -116 0
-68 -164 0
-68 -212 0
-68 -260 0
-68 -308 0
-68 -356 0
-68 -404 0
-68 -452 0
-116 -164 0
-116 -212 0
-116 -260 0
-116 -308 0
-116 -356 0
-116 -404 0
-116 -452 0
-164 -212 0
-164 -260 0
-164 -308 0
-164 -356 0
-164 -404 0
-164 -452 0
-212 -260 0
-212 -308 0
-212 -356 0
-212 -404 0
-212 -452 0
-260 -308 0
-260 -356 0
-260 -404 0
-260 -452 0
-308 -356 0
-308 -404 0
-308 -452 0
-356 -404 0
-356 -452 0
-404 -452 0
-21 -69 0
-21 -117 0
-21 -165 0
-21 -213 0
-21 -261 0
-21 -309 0
-21 -357 0
-21 -405 0
-21 -453 0
-69 -117 0
-69 -165 0
-69 -213 0
-69 -261 0
-69 -309 0
-69 -357 0
-69 -405 0
-69 -453 0
-117 -165 0
-117 -213 0
-117 -261 0
-117 -309 0
-117 -357 0
-117 -405 0
-117 -453 0
-165 -213 0
-165 -261 0
-165 -309 0
-165 -357 0
-165 -405 0
-165 -453 0
-213 -261 0
-213 -309 0
-213 -357 0
-213 -405 0
-213 -453 0
-261 -309 0
-261 -357 0
-261 -405 0
-261 -453 0
-309 -357 0
-309 -405 0
-309 -453 0
-357 -405 0
-357 -453 0
-405 -453 0
-22 -70 0
-22 -118 0
-22 -166 0
-22 -214 0
-22 -262 0
-22 -310 0
-22 -358 0
-22 -406 0
-22 -454 0
-70 -118 0
-70 -166 0
-70 -214 0
-70 -262 0
-70 -310 0
-70 -358 0
-70 -406 0
-70 -454 0
-118 -166 0
-118 -214 0
-118 -262 0
-118 -310 0
-118 -358 0
-118 -406 0
-118 -454 0
-166 -214 0
-166 -262 0
-166 -310 0
-166 -358 0
-166 -406 0
-166 -454 0
-214 -262 0
-214 -310 0
-214 -358 0
-214 -406 0
-214 -454 0
-262 -310 0
-262 -358 0
-262 -406 0
-262 -454 0
-310 -358 0
-310 -406 0
-310 -454 0
-358 -406 0
-358 -454 0
-406 -454 0
-23 -71 0
-23 -119 0
-23 -167 0
-23 -215 0
-23 -263 0
-23 -311 0
-23 -359 0
-23 -407 0
-23 -455 0
-71 -119 0
-71 -167 0
-71 -215 0
-71 -263 0
-71 -311 0
-71 -359 0
-71 -407 0
-71 -455 0
-119 -167 0
-119 -215 0
-119 -263 0
-119 -311 0
-119 -359 0
-119 -407 0
-119 -455 0
-167 -215 0
-167 -263 0
-167 -311 0
-167 -359 0
-167 -407 0
-167 -455 0
-215 -263 0
-215 -311 0
-215 -359 0
-215 -407 0
-215 -455 0
-263 -311 0
-263 -359 0
-263 -407 0
-263 -455 0
-311 -359 0
-311 -407 0
-311 -455 0
-359 -407 0
-359 -455 0
-407 -455 0
-24 -72 0
-24 -120 0
-24 -168 0
-24 -216 0
-24 -264 0
-24 -312 0
-24 -360 0
-24 -408 0
-24 -456 0
-72 -120 0
-72 -168 0
-72 -216 0
-72 -264 0
-72 -312 0
-72 -360 0
-72 -408 0
-72 -456 0
-120 -168 0
-120 -216 0
-120 -264 0
-120 -312 0
-120 -360 0
-120 -408 0
-120 -456 0
-168 -216 0
-168 -264 0
-168 -312 0
-168 -360 0
-168 -408 0
-168 -456 0
-216 -264 0
-216 -312 0
-216 -360 0
-216 -408 0
-216 -456 0
-264 -312 0
-264 -360 0
-264 -408 0
-264 -456 0
-312 -360 0
-312 -408 0
-312 -456 0
-360 -408 0
-360 -456 0
-408 -456 0
-25 -73 0
-25 -121 0
-25 -169 0
-25 -217 0
-25 -265 0
-25 -313 0
-25 -361 0
-25 -409 0
-25 -457 0
-73 -121 0
-73 -169 0
-73 -217 0
-73 -265 0
-73 -313 0
-73 -361 0
-73 -409 0
-73 -457 0
-121 -169 0
-121 -217 0
-121 -265 0
-121 -313 0
-121 -361 0
-121 -409 0
-121 -457 0
-169 -217 0
-169 -265 0
-169 -313 0
-169 -361 0
-169 -409 0
-169 -457 0
-217 -265 0
-217 -313 0
-217 -361 0
-217 -409 0
-217 -457 0
-265 -313 0
-265 -361 0
-265 -409 0
-265 -457 0
-313 -361 0
-313 -409 0
-313 -457 0
-361 -409 0
-361 -457 0
-409 -457 0
-26 -74 0
-26 -122 0
-26 -170 0
-26 -218 0
-26 -266 0
-26 -314 0
-26 -362 0
-26 -410 0
-26 -458 0
-74 -122 0
-74 -170 0
-74 -218 0
-74 -266 0
-74 -314 0
-74 -362 0
-74 -410 0
-74 -458 0
-122 -170 0
-122 -218 0
-122 -266 0
-122 -314 0
-122 -362 0
-122 -410 0
-122 -458 0
-170 -218 0
-170 -266 0
-170 -314 0
-170 -362 0
-170 -410 0
-170 -458 0
-218 -266 0
-218 -314 0
-218 -362 0
-218 -410 0
-218 -458 0
-266 -314 0
-266 -362 0
-266 -410 0
-266 -458 0
-314 -362 0
-314 -410 0
-314 -458 0
-362 -410 0
-362 -458 0
-410 -458 0
-27 -75 0
-27 -123 0
-27 -171 0
-27 -219 0
-27 -267 0
-27 -315 0
-27 -363 0
-27 -411 0
-27 -459 0
-75 -123 0
-75 -171 0
-75 -219 0
-75 -267 0
-75 -315 0
-75 -363 0
-75 -411 0
-75 -459 0
-123 -171 0
-123 -219 0
-123 -267 0
-123 -315 0
-123 -363 0
-123 -411 0
-123 -459 0
-171 -219 0
-171 -267 0
-171 -315 0
-171 -363 0
-171 -411 0
-171 -459 0
-219 -267 0
-219 -315 0
-219 -363 0
-219 -411 0
-219 -459 0
-267 -315 0
-267 -363 0
-267 -411 0
-267 -459 0
-315 -363 0
-315 -411 0
-315 -459 0
-363 -411 0
-363 -459 0
-411 -459 0
-28 -76 0
-28 -124 0
-28 -172 0
-28 -220 0
-28 -268 0
-28 -316 0
-28 -364 0
-28 -412 0
-28 -460 0
-76 -124 0
-76 -172 0
-76 -220 0
-76 -268 0
-76 -316 0
-76 -364 0
-76 -412 0
-76 -460 0
-124 -172 0
-124 -220 0
-124 -268 0
-124 -316 0
-124 -364 0
-124 -412 0
-124 -460 0
-172 -220 0
-172 -268 0
-172 -316 0
-172 -364 0
-172 -412 0
-172 -460 0
-220 -268 0
-220 -316 0
-220 -364 0
-220 -412 0
-220 -460 0
-268 -316 0
-268 -364 0
-268 -412 0
-268 -460 0
-316 -364 0
-316 -412 0
-316 -460 0
-364 -412 0
-364 -460 0
-412 -460 0
-29 -77 0
-29 -125 0
-29 -173 0
-29 -221 0
-29 -269 0
-29 -317 0
-29 -365 0
-29 -413 0
-29 -461 0
-77 -125 0
-77 -173 0
-77 -221 0
-77 -269 0
-77 -317 0
-77 -365 0
-77 -413 0
-77 -461 0
-125 -173 0
-125 -221 0
-125 -269 0
-125 -317 0
-125 -365 0
-125 -413 0
-125 -461 0
-173 -221 0
-173 -269 0
-173 -317 0
-173 -365 0
-173 -413 0
-173 -461 0
-221 -269 0
-221 -317 0
-221 -365 0
-221 -413 0
-221 -461 0
-269 -317 0
-269 -365 0
-269 -413 0
-269 -461 0
-317 -365 0
-317 -413 0
-317 -461 0
-365 -413 0
-365 -461 0
-413 -461 0
-30 -78 0
-30 -126 0
-30 -174 0
-30 -222 0
-30 -270 0
-30 -318 0
-30 -366 0
-30 -414 0
-30 -462 0
-78 -126 0
-78 -174 0
-78 -222 0
-78 -270 0
-78 -318 0
-78 -366 0
-78 -414 0
-78 -462 0
-126 -174 0
-126 -222 0
-126 -270 0
-126 -318 0
-126 -366 0
-126 -414 0
-126 -462 0
-174 -222 0
-174 -270 0
-174 -318 0
-174 -366 0
-174 -414 0
-174 -462 0
-222 -270 0
-222 -318 0
-222 -366 0
-222 -414 0
-222 -462 0
-270 -318 0
-270 -366 0
-270 -414 0
-270 -462 0
-318 -366 0
-318 -414 0
-318 -462 0
-366 -414 0
-366 -462 0
-414 -462 0
-31 -79 0
-31 -127 0
-31 -175 0
-31 -223 0
-31 -271 0
-31 -319 0
-31 -367 0
-31 -415 0
-31 -463 0
-79 -127 0
-79 -175 0
-79 -223 0
-79 -271 0
-79 -319 0
-79 -367 0
-79 -415 0
-79 -463 0
-127 -175 0
-127 -223 0
-127 -271 0
-127 -319 0
-127 -367 0
-127 -415 0
-127 -463 0
-175 -223 0
-175 -271 0
-175 -319 0
-175 -367 0
-175 -415 0
-175 -463 0
-223 -271 0
-223 -319 0
-223 -367 0
-223 -415 0
-223 -463 0
-271 -319 0
-271 -367 0
-271 -415 0
-271 -463 0
-319 -367 0
-319 -415 0
-319 -463 0
-367 -415 0
-367 -463 0
-415 -463 0
-32 -80 0
-32 -128 0
-32 -176 0
-32 -224 0
-32 -272 0
-32 -320 0
-32 -368 0
-32 -416 0
-32 -464 0
-80 -128 0
-80 -176 0
-80 -224 0
-80 -272 0
-80 -320 0
-80 -368 0
-80 -416 0
-80 -464 0
-128 -176 0
-128 -224 0
-128 -272 0
-128 -320 0
-128 -368 0
-128 -416 0
-128 -464 0
-176 -224 0
-176 -272 0
-176 -320 0
-176 -368 0
-176 -416 0
-176 -464 0
-224 -272 0
-224 -320 0
-224 -368 0
-224 -416 0
-224 -464 0
-272 -320 0
-272 -368 0
-272 -416 0
-272 -464 0
-320 -368 0
-320 -416 0
-320 -464 0
-368 -416 0
-368 -464 0
-416 -464 0
723 724 725 726 727 728 729 0
-723 -724 0
-723 -725 0
-723 -726 0
-723 -727 0
-723 -728 0
-723 -729 0
-724 -725 0
-724 -726 0
-724 -727 0
-724 -728 0
-724 -729 0
-725 -726 0
-725 -727 0
-725 -728 0
-725 -729 0
-726 -727 0
-726 -728 0
-726 -729 0
-727 -728 0
-727 -729 0
-728 -729 0
-17 723 0
-18 723 724 0
-19 723 724 725 0
-20 723 724 725 726 0
-21 723 724 725 726 727 0
-22 723 724 725 726 727 728 0
-23 723 724 725 726 727 728 729 0
-24 723 724 725 726 727 728 729 0
-25 723 724 725 726 727 728 729 0
-26 723 724 725 726 727 728 729 0
-27 724 725 726 727 728 729 0
-28 725 726 727 728 729 0
-29 726 727 728 729 0
-30 727 728 729 0
-31 728 729 0
-32 729 0
-65 723 0
-66 723 724 0
-67 723 724 725 0
-68 723 724 725 726 0
-69 723 724 725 726 727 0
-70 723 724 725 726 727 728 0
-71 723 724 725 726 727 728 729 0
-72 723 724 725 726 727 728 729 0
-73 723 724 725 726 727 728 729 0
-74 723 724 725 726 727 728 729 0
-75 724 725 726 727 728 729 0
-76 725 726 727 728 729 0
-77 726 727 728 729 0
-78 727 728 729 0
-79 728 729 0
-80 729 0
-113 723 0
-114 723 724 0
-115 723 724 725 0
-116 723 724 725 726 0
-117 723 724 725 726 727 0
-118 723 724 725 726 727 728 0
-119 723 724 725 726 727 728 729 0
-120 723 724 725 726 727 728 729 0
-121 723 724 725 726 727 728 729 0
-122 723 724 725 726 727 728 729 0
-123 724 725 726 727 728 729 0
-124 725 726 727 728 729 0
-125 726 727 728 729 0
-126 727 728 729 0
-127 728 729 0
-128 729 0
-161 723 0
-162 723 724 0
-163 723 724 725 0
-164 723 724 725 726 0
-165 723 724 725 726 727 0
-166 723 724 725 726 727 728 0
-167 723 724 725 726 727 728 729 0
-168 723 724 725 726 727 728 729 0
-169 723 724 725 726 727 728 729 0
-170 723 724 725 726 727 728 729 0
-171 724 725 726 727 728 729 0
-172 725 726 727 728 729 0
-173 726 727 728 729 0
-174 727 728 729 0
-175 728 729 0
-176 729 0
-209 723 0
-210 723 724 0
-211 723 724 725 0
-212 723 724 725 726 0
-213 723 724 725 726 727 0
-214 723 724 725 726 727 728 0
-215 723 724 725 726 727 728 729 0
-216 723 724 725 726 727 728 729 0
-217 723 724 725 726 727 728 729 0
-218 723 724 725 726 727 728 729 0
-219 724 725 726 727 728 729 0
-220 725 726 727 728 729 0
-221 726 727 728 729 0
-222 727 728 729 0
-223 728 729 0
-224 729 0
-257 723 0
-258 723 724 0
-259 723 724 725 0
-260 723 724 725 726 0
-261 723 724 725 726 727 0
-262 723 724 725 726 727 728 0
-263 723 724 725 726 727 728 729 0
-264 723 724 725 726 727 728 729 0
-265 723 724 725 726 727 728 729 0
-266 723 724 725 726 727 728 729 0
-267 724 725 726 727 728 729 0
-268 725 726 727 728 729 0
-269 726 727 728 729 0
-270 727 728 729 0
-271 728 729 0
-272 729 0
-305 723 0
-306 723 724 0
-307 723 724 725 0
-308 723 724 725 726 0
-309 723 724 725 726 727 0
-310 723 724 725 726 727 728 0
-311 723 724 725 726 727 728 729 0
-312 723 724 725 726 727 728 729 0
-313 723 724 725 726 727 728 729 0
-314 723 724 725 726 727 728 729 0
-315 724 725 726 727 728 729 0
-316 725 726 727 728 729 0
-317 726 727 728 729 0
-318 727 728 729 0
-319 728 729 0
-320 729 0
-353 723 0
-354 723 724 0
-355 723 724 725 0
-356 723 724 725 726 0
-357 723 724 725 726 727 0
-358 723 724 725 726 727 728 0
-359 723 724 725 726 727 728 729 0
-360 723 724 725 726 727 728 729 0
-361 723 724 725 726 727 728 729 0
-362 723 724 725 726 727 728 729 0
-363 724 725 726 727 728 729 0
-364 725 726 727 728 729 0
-365 726 727 728 729 0
-366 727 728 729 0
-367 728 729 0
-368 729 0
-401 723 0
-402 723 724 0
-403 723 724 725 0
-404 723 724 725 726 0
-405 723 724 725 726 727 0
-406 723 724 725 726 727 728 0
-407 723 724 725 726 727 728 729 0
-408 723 724 725 726 727 728 729 0
-409 723 724 725 726 727 728 729 0
-410 723 724 725 726 727 728 729 0
-411 724 725 726 727 728 729 0
-412 725 726 727 728 729 0
-413 726 727 728 729 0
-414 727 728 729 0
-415 728 729 0
-416 729 0
-449 723 0
-450 723 724 0
-451 723 724 725 0
-452 723 724 725 726 0
-453 723 724 725 726 727 0
-454 723 724 725 726 727 728 0
-455 723 724 725 726 727 728 729 0
-456 723 724 725 726 727 728 729 0
-457 723 724 725 726 727 728 729 0
-458 723 724 725 726 727 728 729 0
-459 724 725 726 727 728 729 0
-460 725 726 727 728 729 0
-461 726 727 728 729 0
-462 727 728 729 0
-463 728 729 0
-464 729 0
-723 -27 0
-723 -28 0
-723 -29 0
-723 -30 0
-723 -31 0
-723 -32 0
-723 -75 0
-723 -76 0
-723 -77 0
-723 -78 0
-723 -79 0
-723 -80 0
-723 -123 0
-723 -124 0
-723 -125 0
-723 -126 0
-723 -127 0
-723 -128 0
-723 -171 0
-723 -172 0
-723 -173 0
-723 -174 0
-723 -175 0
-723 -176 0
-723 -219 0
-723 -220 0
-723 -221 0
-723 -222 0
-723 -223 0
-723 -224 0
-723 -267 0
-723 -268 0
-723 -269 0
-723 -270 0
-723 -271 0
-723 -272 0
-723 -315 0
-723 -316 0
-723 -317 0
-723 -318 0
-723 -319 0
-723 -320 0
-723 -363 0
-723 -364 0
-723 -365 0
-723 -366 0
-723 -367 0
-723 -368 0
-723 -411 0
-723 -412 0
-723 -413 0
-723 -414 0
-723 -415 0
-723 -416 0
-723 -459 0
-723 -460 0
-723 -461 0
-723 -462 0
-723 -463 0
-723 -464 0
-724 -17 0
-724 -28 0
-724 -29 0
-724 -30 0
-724 -31 0
-724 -32 0
-724 -65 0
-724 -76 0
-724 -77 0
-724 -78 0
-724 -79 0
-724 -80 0
-724 -113 0
-724 -124 0
-724 -125 0
-724 -126 0
-724 -127 0
-724 -128 0
-724 -161 0
-724 -172 0
-724 -173 0
-724 -174 0
-724 -175 0
-724 -176 0
-724 -209 0
-724 -220 0
-724 -221 0
-724 -222 0
-724 -223 0
-724 -224 0
-724 -257 0
-724 -268 0
-724 -269 0
-724 -270 0
-724 -271 0
-724 -272 0
-724 -305 0
-724 -316 0
-724 -317 0
-724 -318 0
-724 -319 0
-724 -320 0
-724 -353 0
-724 -364 0
-724 -365 0
-724 -366 0
-724 -367 0
-724 -368 0
-724 -401 0
-724 -412 0
-724 -413 0
-724 -414 0
-724 -415 0
-724 -416 0
-724 -449 0
-724 -460 0
-724 -461 0
-724 -462 0
-724 -463 0
-724 -464 0
-725 -17 0
-725 -18 0
-725 -29 0
-725 -30 0
-725 -31 0
-725 -32 0
-725 -65 0
-725 -66 0
-725 -77 0
-725 -78 0
-725 -79 0
-725 -80 0
-725 -113 0
-725 -114 0
-725 -125 0
-725 -126 0
-725 -127 0
-725 -128 0
-725 -161 0
-725 -162 0
-725 -173 0
-725 -174 0
-725 -175 0
-725 -176 0
-725 -209 0
-725 -210 0
-725 -221 0
-725 -222 0
-725 -223 0
-725 -224 0
-725 -257 0
-725 -258 0
-725 -269 0
-725 -270 0
-725 -271 0
-725 -272 0
-725 -305 0
-725 -306 0
-725 -317 0
-725 -318 0
-725 -319 0
-725 -320 0
-725 -353 0
-725 -354 0
-725 -365 0
-725 -366 0
-725 -367 0
-725 -368 0
-725 -401 0
-725 -402 0
-725 -413 0
-725 -414 0
-725 -415 0
-725 -416 0
-725 -449 0
-725 -450 0
-725 -461 0
-725 -462 0
-725 -463 0
-725 -464 0
-726 -17 0
-726 -18 0
-726 -19 0
-726 -30 0
-726 -31 0
-726 -32 0
-726 -65 0
-726 -66 0
-726 -67 0
-726 -78 0
-726 -79 0
-726 -80 0
-726 -113 0
-726 -114 0
-726 -115 0
-726 -126 0
-726 -127 0
-726 -128 0
-726 -161 0
-726 -162 0
-726 -163 0
-726 -174 0
-726 -175 0
-726 -176 0
-726 -209 0
-726 -210 0
-726 -211 0
-726 -222 0
-726 -223 0
-726 -224 0
-726 -257 0
-726 -258 0
-726 -259 0
-726 -270 0
-726 -271 0
-726 -272 0
-726 -305 0
-726 -306 0
-726 -307 0
-726 -318 0
-726 -319 0
-726 -320 0
-726 -353 0
-726 -354 0
-726 -355 0
-726 -366 0
-726 -367 0
-726 -368 0
-726 -401 0
-726 -402 0
-726 -403 0
-726 -414 0
-726 -415 0
-726 -416 0
-726 -449 0
-726 -450 0
-726 -451 0
-726 -462 0
-726 -463 0
-726 -464 0
-727 -17 0
-727 -18 0
-727 -19 0
-727 -20 0
-727 -31 0
-727 -32 0
-727 -65 0
-727 -66 0
-727 -67 0
-727 -68 0
-727 -79 0
-727 -80 0
-727 -113 0
-727 -114 0
-727 -115 0
-727 -116 0
-727 -127 0
-727 -128 0
-727 -161 0
-727 -162 0
-727 -163 0
-727 -164 0
-727 -175 0
-727 -176 0
-727 -209 0
-727 -210 0
-727 -211 0
-727 -212 0
-727 -223 0
-727 -224 0
-727 -257 0
-727 -258 0
-727 -259 0
-727 -260 0
-727 -271 0
-727 -272 0
-727 -305 0
-727 -306 0
-727 -307 0
-727 -308 0
-727 -319 0
-727 -320 0
-727 -353 0
-727 -354 0
-727 -355 0
-727 -356 0
-727 -367 0
-727 -368 0
-727 -401 0
-727 -402 0
-727 -403 0
-727 -404 0
-727 -415 0
-727 -416 0
-727 -449 0
-727 -450 0
-727 -451 0
-727 -452 0
-727 -463 0
-727 -464 0
-728 -17 0
-728 -18 0
-728 -19 0
-728 -20 0
-728 -21 0
-728 -32 0
-728 -65 0
-728 -66 0
-728 -67 0
-728 -68 0
-728 -69 0
-728 -80 0
-728 -113 0
-728 -114 0
-728 -115 0
-728 -116 0
-728 -117 0
-728 -128 0
-728 -161 0
-728 -162 0
-728 -163 0
-728 -164 0
-728 -165 0
-728 -176 0
-728 -209 0
-728 -210 0
-728 -211 0
-728 -212 0
-728 -213 0
-728 -224 0
-728 -257 0
-728 -258 0
-728 -259 0
-728 -260 0
-728 -261 0
-728 -272 0
-728 -305 0
-728 -306 0
-728 -307 0
-728 -308 0
-728 -309 0
-728 -320 0
-728 -353 0
-728 -354 0
-728 -355 0
-728 -356 0
-728 -357 0
-728 -368 0
-728 -401 0
-728 -402 0
-728 -403 0
-728 -404 0
-728 -405 0
-728 -416 0
-728 -449 0
-728 -450 0
-728 -451 0
-728 -452 0
-728 -453 0
-728 -464 0
-729 -17 0
-729 -18 0
-729 -19 0
-729 -20 0
-729 -21 0
-729 -22 0
-729 -65 0
-729 -66 0
-729 -67 0
-729 -68 0
-729 -69 0
-729 -70 0
-729 -113 0
-729 -114 0
-729 -115 0
-729 -116 0
-729 -117 0
-729 -118 0
-729 -161 0
-729 -162 0
-729 -163 0
-729 -164 0
-729 -165 0
-729 -166 0
-729 -209 0
-729 -210 0
-729 -211 0
-729 -212 0
-729 -213 0
-729 -214 0
-729 -257 0
-729 -258 0
-729 -259 0
-729 -260 0
-729 -261 0
-729 -262 0
-729 -305 0
-729 -306 0
-729 -307 0
-729 -308 0
-729 -309 0
-729 -310 0
-729 -353 0
-729 -354 0
-729 -355 0
-729 -356 0
-729 -357 0
-729 -358 0
-729 -401 0
-729 -402 0
-729 -403 0
-729 -404 0
-729 -405 0
-729 -406 0
-729 -449 0
-729 -450 0
-729 -451 0
-729 -452 0
-729 -453 0
-729 -454 0
-33 -81 0
-33 -129 0
-33 -177 0
-33 -225 0
-33 -497 0
-33 -545 0
-33 -593 0
-33 -641 0
-33 -689 0
-81 -129 0
-81 -177 0
-81 -225 0
-81 -497 0
-81 -545 0
-81 -593 0
-81 -641 0
-81 -689 0
-129 -177 0
-129 -225 0
-129 -497 0
-129 -545 0
-129 -593 0
-129 -641 0
-129 -689 0
-177 -225 0
-177 -497 0
-177 -545 0
-177 -593 0
-177 -641 0
-177 -689 0
-225 -497 0
-225 -545 0
-225 -593 0
-225 -641 0
-225 -689 0
-497 -545 0
-497 -593 0
-497 -641 0
-497 -689 0
-545 -593 0
-545 -641 0
-545 -689 0
-593 -641 0
-593 -689 0
-641 -689 0
-34 -82 0
-34 -130 0
-34 -178 0
-34 -226 0
-34 -498 0
-34 -546 0
-34 -594 0
-34 -642 0
-34 -690 0
-82 -130 0
-82 -178 0
-82 -226 0
-82 -498 0
-82 -546 0
-82 -594 0
-82 -642 0
-82 -690 0
-130 -178 0
-130 -226 0
-130 -498 0
-130 -546 0
-130 -594 0
-130 -642 0
-130 -690 0
-178 -226 0
-178 -498 0
-178 -546 0
-178 -594 0
-178 -642 0
-178 -690 0
-226 -498 0
-226 -546 0
-226 -594 0
-226 -642 0
-226 -690 0
-498 -546 0
-498 -594 0
-498 -642 0
-498 -690 0
-546 -594 0
-546 -642 0
-546 -690 0
-594 -642 0
-594 -690 0
-642 -690 0
-35 -83 0
-35 -131 0
-35 -179 0
-35 -227 0
-35 -499 0
-35 -547 0
-35 -595 0
-35 -643 0
-35 -691 0
-83 -131 0
-83 -179 0
-83 -227 0
-83 -499 0
-83 -547 0
-83 -595 0
-83 -643 0
-83 -691 0
-131 -179 0
-131 -227 0
-131 -499 0
-131 -547 0
-131 -595 0
-131 -643 0
-131 -691 0
-179 -227 0
-179 -499 0
-179 -547 0
-179 -595 0
-179 -643 0
-179 -691 0
-227 -499 0
-227 -547 0
-227 -595 0
-227 -643 0
-227 -691 0
-499 -547 0
-499 -595 0
-499 -643 0
-499 -691 0
-547 -595 0
-547 -643 0
-547 -691 0
-595 -643 0
-595 -691 0
-643 -691 0
-36 -84 0
-36 -132 0
-36 -180 0
-36 -228 0
-36 -500 0
-36 -548 0
-36 -596 0
-36 -644 0
-36 -692 0
-84 -132 0
-84 -180 0
-84 -228 0
-84 -500 0
-84 -548 0
-84 -596 0
-84 -644 0
-84 -692 0
-132 -180 0
-132 -228 0
-132 -500 0
-132 -548 0
-132 -596 0
-132 -644 0
-132 -692 0
-180 -228 0
-180 -500 0
-180 -548 0
-180 -596 0
-180 -644 0
-180 -692 0
-228 -500 0
-228 -548 0
-228 -596 0
-228 -644 0
-228 -692 0
-500 -548 0
-500 -596 0
-500 -644 0
-500 -692 0
-548 -596 0
-548 -644 0
-548 -692 0
-596 -644 0
-596 -692 0
-644 -692 0
-37 -85 0
-37 -133 0
-37 -181 0
-37 -229 0
-37 -501 0
-37 -549 0
-37 -597 0
-37 -645 0
-37 -693 0
-85 -133 0
-85 -181 0
-85 -229 0
-85 -501 0
-85 -549 0
-85 -597 0
-85 -645 0
-85 -693 0
-133 -181 0
-133 -229 0
-133 -501 0
-133 -549 0
-133 -597 0
-133 -645 0
-133 -693 0
-181 -229 0
-181 -501 0
-181 -549 0
-181 -597 0
-181 -645 0
-181 -693 0
-229 -501 0
-229 -549 0
-229 -597 0
-229 -645 0
-229 -693 0
-501 -549 0
-501 -597 0
-501 -645 0
-501 -693 0
-549 -597 0
-549 -645 0
-549 -693 0
-597 -645 0
-597 -693 0
-645 -693 0
-38 -86 0
-38 -134 0
-38 -182 0
-38 -230 0
-38 -502 0
-38 -550 0
-38 -598 0
-38 -646 0
-38 -694 0
-86 -134 0
-86 -182 0
-86 -230 0
-86 -502 0
-86 -550 0
-86 -598 0
-86 -646 0
-86 -694 0
-134 -182 0
-134 -230 0
-134 -502 0
-134 -550 0
-134 -598 0
-134 -646 0
-134 -694 0
-182 -230 0
-182 -502 0
-182 -550 0
-182 -598 0
-182 -646 0
-182 -694 0
-230 -502 0
-230 -550 0
-230 -598 0
-230 -646 0
-230 -694 0
-502 -550 0
-502 -598 0
-502 -646 0
-502 -694 0
-550 -598 0
-550 -646 0
-550 -694 0
-598 -646 0
-598 -694 0
-646 -694 0
-39 -87 0
-39 -135 0
-39 -183 0
-39 -231 0
-39 -503 0
-39 -551 0
-39 -599 0
-39 -647 0
-39 -695 0
-87 -135 0
-87 -183 0
-87 -231 0
-87 -503 0
-87 -551 0
-87 -599 0
-87 -647 0
-87 -695 0
-135 -183 0
-135 -231 0
-135 -503 0
-135 -551 0
-135 -599 0
-135 -647 0
-135 -695 0
-183 -231 0
-183 -503 0
-183 -551 0
-183 -599 0
-183 -647 0
-183 -695 0
-231 -503 0
-231 -551 0
-231 -599 0
-231 -647 0
-231 -695 0
-503 -551 0
-503 -599 0
-503 -647 0
-503 -695 0
-551 -599 0
-551 -647 0
-551 -695 0
-599 -647 0
-599 -695 0
-647 -695 0
-40 -88 0
-40 -136 0
-40 -184 0
-40 -232 0
-40 -504 0
-40 -552 0
-40 -600 0
-40 -648 0
-40 -696 0
-88 -136 0
-88 -184 0
-88 -232 0
-88 -504 0
-88 -552 0
-88 -600 0
-88 -648 0
-88 -696 0
-136 -184 0
-136 -232 0
-136 -504 0
-136 -552 0
-136 -600 0
-136 -648 0
-136 -696 0
-184 -232 0
-184 -504 0
-184 -552 0
-184 -600 0
-184 -648 0
-184 -696 0
-232 -504 0
-232 -552 0
-232 -600 0
-232 -648 0
-232 -696 0
-504 -552 0
-504 -600 0
-504 -648 0
-504 -696 0
-552 -600 0
-552 -648 0
-552 -696 0
-600 -648 0
-600 -696 0
-648 -696 0
-41 -89 0
-41 -137 0
-41 -185 0
-41 -233 0
-41 -505 0
-41 -553 0
-41 -601 0
-41 -649 0
-41 -697 0
-89 -137 0
-89 -185 0
-89 -233 0
-89 -505 0
-89 -553 0
-89 -601 0
-89 -649 0
-89 -697 0
-137 -185 0
-137 -233 0
-137 -505 0
-137 -553 0
-137 -601 0
-137 -649 0
-137 -697 0
-185 -233 0
-185 -505 0
-185 -553 0
-185 -601 0
-185 -649 0
-185 -697 0
-233 -505 0
-233 -553 0
-233 -601 0
-233 -649 0
-233 -697 0
-505 -553 0
-505 -601 0
-505 -649 0
-505 -697 0
-553 -601 0
-553 -649 0
-553 -697 0
-601 -649 0
-601 -697 0
-649 -697 0
-42 -90 0
-42 -138 0
-42 -186 0
-42 -234 0
-42 -506 0
-42 -554 0
-42 -602 0
-42 -650 0
-42 -698 0
-90 -138 0
-90 -186 0
-90 -234 0
-90 -506 0
-90 -554 0
-90 -602 0
-90 -650 0
-90 -698 0
-138 -186 0
-138 -234 0
-138 -506 0
-138 -554 0
-138 -602 0
-138 -650 0
-138 -698 0
-186 -234 0
-186 -506 0
-186 -554 0
-186 -602 0
-186 -650 0
-186 -698 0
-234 -506 0
-234 -554 0
-234 -602 0
-234 -650 0
-234 -698 0
-506 -554 0
-506 -602 0
-506 -650 0
-506 -698 0
-554 -602 0
-554 -650 0
-554 -698 0
-602 -650 0
-602 -698 0
-650 -698 0
-43 -91 0
-43 -139 0
-43 -187 0
-43 -235 0
-43 -507 0
-43 -555 0
-43 -603 0
-43 -651 0
-43 -699 0
-91 -139 0
-91 -187 0
-91 -235 0
-91 -507 0
-91 -555 0
-91 -603 0
-91 -651 0
-91 -699 0
-139 -187 0
-139 -235 0
-139 -507 0
-139 -555 0
-139 -603 0
-139 -651 0
-139 -699 0
-187 -235 0
-187 -507 0
-187 -555 0
-187 -603 0
-187 -651 0
-187 -699 0
-235 -507 0
-235 -555 0
-235 -603 0
-235 -651 0
-235 -699 0
-507 -555 0
-507 -603 0
-507 -651 0
-507 -699 0
-555 -603 0
-555 -651 0
-555 -699 0
-603 -651 0
-603 -699 0
-651 -699 0
-44 -92 0
-44 -140 0
-44 -188 0
-44 -236 0
-44 -508 0
-44 -556 0
-44 -604 0
-44 -652 0
-44 -700 0
-92 -140 0
-92 -188 0
-92 -236 0
-92 -508 0
-92 -556 0
-92 -604 0
-92 -652 0
-92 -700 0
-140 -188 0
-140 -236 0
-140 -508 0
-140 -556 0
-140 -604 0
-140 -652 0
-140 -700 0
-188 -236 0
-188 -508 0
-188 -556 0
-188 -604 0
-188 -652 0
-188 -700 0
-236 -508 0
-236 -556 0
-236 -604 0
-236 -652 0
-236 -700 0
-508 -556 0
-508 -604 0
-508 -652 0
-508 -700 0
-556 -604 0
-556 -652 0
-556 -700 0
-604 -652 0
-604 -700 0
-652 -700 0
-45 -93 0
-45 -141 0
-45 -189 0
-45 -237 0
-45 -509 0
-45 -557 0
-45 -605 0
-45 -653 0
-45 -701 0
-93 -141 0
-93 -189 0
-93 -237 0
-93 -509 0
-93 -557 0
-93 -605 0
-93 -653 0
-93 -701 0
-141 -189 0
-141 -237 0
-141 -509 0
-141 -557 0
-141 -605 0
-141 -653 0
-141 -701 0
-189 -237 0
-189 -509 0
-189 -557 0
-189 -605 0
-189 -653 0
-189 -701 0
-237 -509 0
-237 -557 0
-237 -605 0
-237 -653 0
-237 -701 0
-509 -557 0
-509 -605 0
-509 -653 0
-509 -701 0
-557 -605 0
-557 -653 0
-557 -701 0
-605 -653 0
-605 -701 0
-653 -701 0
-46 -94 0
-46 -142 0
-46 -190 0
-46 -238 0
-46 -510 0
-46 -558 0
-46 -606 0
-46 -654 0
-46 -702 0
-94 -142 0
-94 -190 0
-94 -238 0
-94 -510 0
-94 -558 0
-94 -606 0
-94 -654 0
-94 -702 0
-142 -190 0
-142 -238 0
-142 -510 0
-142 -558 0
-142 -606 0
-142 -654 0
-142 -702 0
-190 -238 0
-190 -510 0
-190 -558 0
-190 -606 0
-190 -654 0
-190 -702 0
-238 -510 0
-238 -558 0
-238 -606 0
-238 -654 0
-238 -702 0
-510 -558 0
-510 -606 0
-510 -654 0
-510 -702 0
-558 -606 0
-558 -654 0
-558 -702 0
-606 -654 0
-606 -702 0
-654 -702 0
-47 -95 0
-47 -143 0
-47 -191 0
-47 -239 0
-47 -511 0
-47 -559 0
-47 -607 0
-47 -655 0
-47 -703 0
-95 -143 0
-95 -191 0
-95 -239 0
-95 -511 0
-95 -559 0
-95 -607 0
-95 -655 0
-95 -703 0
-143 -191 0
-143 -239 0
-143 -511 0
-143 -559 0
-143 -607 0
-143 -655 0
-143 -703 0
-191 -239 0
-191 -511 0
-191 -559 0
-191 -607 0
-191 -655 0
-191 -703 0
-239 -511 0
-239 -559 0
-239 -607 0
-239 -655 0
-239 -703 0
-511 -559 0
-511 -607 0
-511 -655 0
-511 -703 0
-559 -607 0
-559 -655 0
-559 -703 0
-607 -655 0
-607 -703 0
-655 -703 0
-48 -96 0
-48 -144 0
-48 -192 0
-48 -240 0
-48 -512 0
-48 -560 0
-48 -608 0
-48 -656 0
-48 -704 0
-96 -144 0
-96 -192 0
-96 -240 0
-96 -512 0
-96 -560 0
-96 -608 0
-96 -656 0
-96 -704 0
-144 -192 0
-144 -240 0
-144 -512 0
-144 -560 0
-144 -608 0
-144 -656 0
-144 -704 0
-192 -240 0
-192 -512 0
-192 -560 0
-192 -608 0
-192 -656 0
-192 -704 0
-240 -512 0
-240 -560 0
-240 -608 0
-240 -656 0
-240 -704 0
-512 -560 0
-512 -608 0
-512 -656 0
-512 -704 0
-560 -608 0
-560 -656 0
-560 -704 0
-608 -656 0
-608 -704 0
-656 -704 0
730 731 732 733 734 735 736 0
-730 -731 0
-730 -732 0
-730 -733 0
-730 -734 0
-730 -735 0
-730 -736 0
-731 -732 0
-731 -733 0
-731 -734 0
-731 -735 0
-731 -736 0
-732 -733 0
-732 -734 0
-732 -735 0
-732 -736 0
-733 -734 0
-733 -735 0
-733 -736 0
-734 -735 0
-734 -736 0
-735 -736 0
-33 730 0
-34 730 731 0
-35 730 731 732 0
-36 730 731 732 733 0
-37 730 731 732 733 734 0
-38 730 731 732 733 734 735 0
-39 730 731 732 733 734 735 736 0
-40 730 731 732 733 734 735 736 0
-41 730 731 732 733 734 735 736 0
-42 730 731 732 733 734 735 736 0
-43 731 732 733 734 735 736 0
-44 732 733 734 735 736 0
-45 733 734 735 736 0
-46 734 735 736 0
-47 735 736 0
-48 736 0
-81 730 0
-82 730 731 0
-83 730 731 732 0
-84 730 731 732 733 0
-85 730 731 732 733 734 0
-86 730 731 732 733 734 735 0
-87 730 731 732 733 734 735 736 0
-88 730 731 732 733 734 735 736 0
-89 730 731 732 733 734 735 736 0
-90 730 731 732 733 734 735 736 0
-91 731 732 733 734 735 736 0
-92 732 733 734 735 736 0
-93 733 734 735 736 0
-94 734 735 736 0
-95 735 736 0
-96 736 0
-129 730 0
-130 730 731 0
-131 730 731 732 0
-132 730 731 732 733 0
-133 730 731 732 733 734 0
-134 730 731 732 733 734 735 0
-135 730 731 732 733 734 735 736 0
-136 730 731 732 733 734 735 736 0
-137 730 731 732 733 734 735 736 0
-138 730 731 732 733 734 735 736 0
-139 731 732 733 734 735 736 0
-140 732 733 734 735 736 0
-141 733 734 735 736 0
-142 734 735 736 0
-143 735 736 0
-144 736 0
-177 730 0
-178 730 731 0
-179 730 731 732 0
-180 730 731 732 733 0
-181 730 731 732 733 734 0
-182 730 731 732 733 734 735 0
-183 730 731 732 733 734 735 736 0
-184 730 731 732 733 734 735 736 0
-185 730 731 732 733 734 735 736 0
-186 730 731 732 733 734 735 736 0
-187 731 732 733 734 735 736 0
-188 732 733 734 735 736 0
-189 733 734 735 736 0
-190 734 735 736 0
-191 735 736 0
-192 736 0
-225 730 0
-226 730 731 0
-227 730 731 732 0
-228 730 731 732 733 0
-229 730 731 732 733 734 0
-230 730 731 732 733 734 735 0
-231 730 731 732 733 734 735 736 0
-232 730 731 732 733 734 735 736 0
-233 730 731 732 733 734 735 736 0
-234 730 731 732 733 734 735 736 0
-235 731 732 733 734 735 736 0
-236 732 733 734 735 736 0
-237 733 734 735 736 0
-238 734 735 736 0
-239 735 736 0
-240 736 0
-497 730 0
-498 730 731 0
-499 730 731 732 0
-500 730 731 732 733 0
-501 730 731 732 733 734 0
-502 730 731 732 733 734 735 0
-503 730 731 732 733 734 735 736 0
-504 730 731 732 733 734 735 736 0
-505 730 731 732 733 734 735 736 0
-506 730 731 732 733 734 735 736 0
-507 731 732 733 734 735 736 0
-508 732 733 734 735 736 0
-509 733 734 735 736 0
-510 734 735 736 0
-511 735 736 0
-512 736 0
-545 730 0
-546 730 731 0
-547 730 731 732 0
-548 730 731 732 733 0
-549 730 731 732 733 734 0
-550 730 731 732 733 734 735 0
-551 730 731 732 733 734 735 736 0
-552 730 731 732 733 734 735 736 0
-553 730 731 732 733 734 735 736 0
-554 730 731 732 733 734 735 736 0
-555 731 732 733 734 735 736 0
-556 732 733 734 735 736 0
-557 733 734 735 736 0
-558 734 735 736 0
-559 735 736 0
-560 736 0
-593 730 0
-594 730 731 0
-595 730 731 732 0
-596 730 731 732 733 0
-597 730 731 732 733 734 0
-598 730 731 732 733 734 735 0
-599 730 731 732 733 734 735 736 0
-600 730 731 732 733 734 735 736 0
-601 730 731 732 733 734 735 736 0
-602 730 731 732 733 734 735 736 0
-603 731 732 733 734 735 736 0
-604 732 733 734 735 736 0
-605 733 734 735 736 0
-606 734 735 736 0
-607 735 736 0
-608 736 0
-641 730 0
-642 730 731 0
-643 730 731 732 0
-644 730 731 732 733 0
-645 730 731 732 733 734 0
-646 730 731 732 733 734 735 0
-647 730 731 732 733 734 735 736 0
-648 730 731 732 733 734 735 736 0
-649 730 731 732 733 734 735 736 0
-650 730 731 732 733 734 735 736 0
-651 731 732 733 734 735 736 0
-652 732 733 734 735 736 0
-653 733 734 735 736 0
-654 734 735 736 0
-655 735 736 0
-656 736 0
-689 730 0
-690 730 731 0
-691 730 731 732 0
-692 730 731 732 733 0
-693 730 731 732 733 734 0
-694 730 731 732 733 734 735 0
-695 730 731 732 733 734 735 736 0
-696 730 731 732 733 734 735 736 0
-697 730 731 732 733 734 735 736 0
-698 730 731 732 733 734 735 736 0
-699 731 732 733 734 735 736 0
-700 732 733 734 735 736 0
-701 733 734 735 736 0
-702 734 735 736 0
-703 735 736 0
-704 736 0
-730 -43 0
-730 -44 0
-730 -45 0
-730 -46 0
-730 -47 0
-730 -48 0
-730 -91 0
-730 -92 0
-730 -93 0
-730 -94 0
-730 -95 0
-730 -96 0
-730 -139 0
-730 -140 0
-730 -141 0
-730 -142 0
-730 -143 0
-730 -144 0
-730 -187 0
-730 -188 0
-730 -189 0
-730 -190 0
-730 -191 0
-730 -192 0
-730 -235 0
-730 -236 0
-730 -237 0
-730 -238 0
-730 -239 0
-730 -240 0
-730 -507 0
-730 -508 0
-730 -509 0
-730 -510 0
-730 -511 0
-730 -512 0
-730 -555 0
-730 -556 0
-730 -557 0
-730 -558 0
-730 -559 0
-730 -560 0
-730 -603 0
-730 -604 0
-730 -605 0
-730 -606 0
-730 -607 0
-730 -608 0
-730 -651 0
-730 -652 0
-730 -653 0
-730 -654 0
-730 -655 0
-730 -656 0
-730 -699 0
-730 -700 0
-730 -701 0
-730 -702 0
-730 -703 0
-730 -704 0
-731 -33 0
-731 -44 0
-731 -45 0
-731 -46 0
-731 -47 0
-731 -48 0
-731 -81 0
-731 -92 0
-731 -93 0
-731 -94 0
-731 -95 0
-731 -96 0
-731 -129 0
-731 -140 0
-731 -141 0
-731 -142 0
-731 -143 0
-731 -144 0
-731 -177 0
-731 -188 0
-731 -189 0
-731 -190 0
-731 -191 0
-731 -192 0
-731 -225 0
-731 -236 0
-731 -237 0
-731 -238 0
-731 -239 0
-731 -240 0
-731 -497 0
-731 -508 0
-731 -509 0
-731 -510 0
-731 -511 0
-731 -512 0
-731 -545 0
-731 -556 0
-731 -557 0
-731 -558 0
-731 -559 0
-731 -560 0
-731 -593 0
-731 -604 0
-731 -605 0
-731 -606 0
-731 -607 0
-731 -608 0
-731 -641 0
-731 -652 0
-731 -653 0
-731 -654 0
-731 -655 0
-731 -656 0
-731 -689 0
-731 -700 0
-731 -701 0
-731 -702 0
-731 -703 0
-731 -704 0
-732 -33 0
-732 -34 0
-732 -45 0
-732 -46 0
-732 -47 0
-732 -48 0
-732 -81 0
-732 -82 0
-732 -93 0
-732 -94 0
-732 -95 0
-732 -96 0
-732 -129 0
-732 -130 0
-732 -141 0
-732 -142 0
-732 -143 0
-732 -144 0
-732 -177 0
-732 -178 0
-732 -189 0
-732 -190 0
-732 -191 0
-732 -192 0
-732 -225 0
-732 -226 0
-732 -237 0
-732 -238 0
-732 -239 0
-732 -240 0
-732 -497 0
-732 -498 0
-732 -509 0
-732 -510 0
-732 -511 0
-732 -512 0
-732 -545 0
-732 -546 0
-732 -557 0
-732 -558 0
-732 -559 0
-732 -560 0
-732 -593 0
-732 -594 0
-732 -605 0
-732 -606 0
-732 -607 0
-732 -608 0
-732 -641 0
-732 -642 0
-732 -653 0
-732 -654 0
-732 -655 0
-732 -656 0
-732 -689 0
-732 -690 0
-732 -701 0
-732 -702 0
-732 -703 0
-732 -704 0
-733 -33 0
-733 -34 0
-733 -35 0
-733 -46 0
-733 -47 0
-733 -48 0
-733 -81 0
-733 -82 0
-733 -83 0
-733 -94 0
-733 -95 0
-733 -96 0
-733 -129 0
-733 -130 0
-733 -131 0
-733 -142 0
-733 -143 0
-733 -144 0
-733 -177 0
-733 -178 0
-733 -179 0
-733 -190 0
-733 -191 0
-733 -192 0
-733 -225 0
-733 -226 0
-733 -227 0
-733 -238 0
-733 -239 0
-733 -240 0
-733 -497 0
-733 -498 0
-733 -499 0
-733 -510 0
-733 -511 0
-733 -512 0
-733 -545 0
-733 -546 0
-733 -547 0
-733 -558 0
-733 -559 0
-733 -560 0
-733 -593 0
-733 -594 0
-733 -595 0
-733 -606 0
-733 -607 0
-733 -608 0
-733 -641 0
-733 -642 0
-733 -643 0
-733 -654 0
-733 -655 0
-733 -656 0
-733 -689 0
-733 -690 0
-733 -691 0
-733 -702 0
-733 -703 0
-733 -704 0
-734 -33 0
-734 -34 0
-734 -35 0
-734 -36 0
-734 -47 0
-734 -48 0
-734 -81 0
-734 -82 0
-734 -83 0
-734 -84 0
-734 -95 0
-734 -96 0
-734 -129 0
-734 -130 0
-734 -131 0
-734 -132 0
-734 -143 0
-734 -144 0
-734 -177 0
-734 -178 0
-734 -179 0
-734 -180 0
-734 -191 0
-734 -192 0
-734 -225 0
-734 -226 0
-734 -227 0
-734 -228 0
-734 -239 0
-734 -240 0
-734 -497 0
-734 -498 0
-734 -499 0
-734 -500 0
-734 -511 0
-734 -512 0
-734 -545 0
-734 -546 0
-734 -547 0
-734 -548 0
-734 -559 0
-734 -560 0
-734 -593 0
-734 -594 0
-734 -595 0
-734 -596 0
-734 -607 0
-734 -608 0
-734 -641 0
-734 -642 0
-734 -643 0
-734 -644 0
-734 -655 0
-734 -656 0
-734 -689 0
-734 -690 0
-734 -691 0
-734 -692 0
-734 -703 0
-734 -704 0
-735 -33 0
-735 -34 0
-735 -35 0
-735 -36 0
-735 -37 0
-735 -48 0
-735 -81 0
-735 -82 0
-735 -83 0
-735 -84 0
-735 -85 0
-735 -96 0
-735 -129 0
-735 -130 0
-735 -131 0
-735 -132 0
-735 -133 0
-735 -144 0
-735 -177 0
-735 -178 0
-735 -179 0
-735 -180 0
-735 -181 0
-735 -192 0
-735 -225 0
-735 -226 0
-735 -227 0
-735 -228 0
-735 -229 0
-735 -240 0
-735 -497 0
-735 -498 0
-735 -499 0
-735 -500 0
-735 -501 0
-735 -512 0
-735 -545 0
-735 -546 0
-735 -547 0
-735 -548 0
-735 -549 0
-735 -560 0
-735 -593 0
-735 -594 0
-735 -595 0
-735 -596 0
-735 -597 0
-735 -608 0
-735 -641 0
-735 -642 0
-735 -643 0
-735 -644 0
-735 -645 0
-735 -656 0
-735 -689 0
-735 -690 0
-735 -691 0
-735 -692 0
-735 -693 0
-735 -704 0
-736 -33 0
-736 -34 0
-736 -35 0
-736 -36 0
-736 -37 0
-736 -38 0
-736 -81 0
-736 -82 0
-736 -83 0
-736 -84 0
-736 -85 0
-736 -86 0
-736 -129 0
-736 -130 0
-736 -131 0
-736 -132 0
-736 -133 0
-736 -134 0
-736 -177 0
-736 -178 0
-736 -179 0
-736 -180 0
-736 -181 0
-736 -182 0
-736 -225 0
-736 -226 0
-736 -227 0
-736 -228 0
-736 -229 0
-736 -230 0
-736 -497 0
-736 -498 0
-736 -499 0
-736 -500 0
-736 -501 0
-736 -502 0
-736 -545 0
-736 -546 0
-736 -547 0
-736 -548 0
-736 -549 0
-736 -550 0
-736 -593 0
-736 -594 0
-736 -595 0
-736 -596 0
-736 -597 0
-736 -598 0
-736 -641 0
-736 -642 0
-736 -643 0
-736 -644 0
-736 -645 0
-736 -646 0
-736 -689 0
-736 -690 0
-736 -691 0
-736 -692 0
-736 -693 0
-736 -694 0
-273 -321 0
-273 -369 0
-273 -417 0
-273 -465 0
-273 -513 0
-273 -561 0
-273 -609 0
-273 -657 0
-273 -705 0
-321 -369 0
-321 -417 0
-321 -465 0
-321 -513 0
-321 -561 0
-321 -609 0
-321 -657 0
-321 -705 0
-369 -417 0
-369 -465 0
-369 -513 0
-369 -561 0
-369 -609 0
-369 -657 0
-369 -705 0
-417 -465 0
-417 -513 0
-417 -561 0
-417 -609 0
-417 -657 0
-417 -705 0
-465 -513 0
-465 -561 0
-465 -609 0
-465 -657 0
-465 -705 0
-513 -561 0
-513 -609 0
-513 -657 0
-513 -705 0
-561 -609 0
-561 -657 0
-561 -705 0
-609 -657 0
-609 -705 0
-657 -705 0
-274 -322 0
-274 -370 0
-274 -418 0
-274 -466 0
-274 -514 0
-274 -562 0
-274 -610 0
-274 -658 0
-274 -706 0
-322 -370 0
-322 -418 0
-322 -466 0
-322 -514 0
-322 -562 0
-322 -610 0
-322 -658 0
-322 -706 0
-370 -418 0
-370 -466 0
-370 -514 0
-370 -562 0
-370 -610 0
-370 -658 0
-370 -706 0
-418 -466 0
-418 -514 0
-418 -562 0
-418 -610 0
-418 -658 0
-418 -706 0
-466 -514 0
-466 -562 0
-466 -610 0
-466 -658 0
-466 -706 0
-514 -562 0
-514 -610 0
-514 -658 0
-514 -706 0
-562 -610 0
-562 -658 0
-562 -706 0
-610 -658 0
-610 -706 0
-658 -706 0
-275 -323 0
-275 -371 0
-275 -419 0
-275 -467 0
-275 -515 0
-275 -563 0
-275 -611 0
-275 -659 0
-275 -707 0
-323 -371 0
-323 -419 0
-323 -467 0
-323 -515 0
-323 -563 0
-323 -611 0
-323 -659 0
-323 -707 0
-371 -419 0
-371 -467 0
-371 -515 0
-371 -563 0
-371 -611 0
-371 -659 0
-371 -707 0
-419 -467 0
-419 -515 0
-419 -563 0
-419 -611 0
-419 -659 0
-419 -707 0
-467 -515 0
-467 -563 0
-467 -611 0
-467 -659 0
-467 -707 0
-515 -563 0
-515 -611 0
-515 -659 0
-515 -707 0
-563 -611 0
-563 -659 0
-563 -707 0
-611 -659 0
-611 -707 0
-659 -707 0
-276 -324 0
-276 -372 0
-276 -420 0
-276 -468 0
-276 -516 0
-276 -564 0
-276 -612 0
-276 -660 0
-276 -708 0
-324 -372 0
-324 -420 0
-324 -468 0
-324 -516 0
-324 -564 0
-324 -612 0
-324 -660 0
-324 -708 0
-372 -420 0
-372 -468 0
-372 -516 0
-372 -564 0
-372 -612 0
-372 -660 0
-372 -708 0
-420 -468 0
-420 -516 0
-420 -564 0
-420 -612 0
-420 -660 0
-420 -708 0
-468 -516 0
-468 -564 0
-468 -612 0
-468 -660 0
-468 -708 0
-516 -564 0
-516 -612 0
-516 -660 0
-516 -708 0
-564 -612 0
-564 -660 0
-564 -708 0
-612 -660 0
-612 -708 0
-660 -708 0
-277 -325 0
-277 -373 0
-277 -421 0
-277 -469 0
-277 -517 0
-277 -565 0
-277 -613 0
-277 -661 0
-277 -709 0
-325 -373 0
-325 -421 0
-325 -469 0
-325 -517 0
-325 -565 0
-325 -613 0
-325 -661 0
-325 -709 0
-373 -421 0
-373 -469 0
-373 -517 0
-373 -565 0
-373 -613 0
-373 -661 0
-373 -709 0
-421 -469 0
-421 -517 0
-421 -565 0
-421 -613 0
-421 -661 0
-421 -709 0
-469 -517 0
-469 -565 0
-469 -613 0
-469 -661 0
-469 -709 0
-517 -565 0
-517 -613 0
-517 -661 0
-517 -709 0
-565 -613 0
-565 -661 0
-565 -709 0
-613 -661 0
-613 -709 0
-661 -709 0
-278 -326 0
-278 -374 0
-278 -422 0
-278 -470 0
-278 -518 0
-278 -566 0
-278 -614 0
-278 -662 0
-278 -710 0
-326 -374 0
-326 -422 0
-326 -470 0
-326 -518 0
-326 -566 0
-326 -614 0
-326 -662 0
-326 -710 0
-374 -422 0
-374 -470 0
-374 -518 0
-374 -566 0
-374 -614 0
-374 -662 0
-374 -710 0
-422 -470 0
-422 -518 0
-422 -566 0
-422 -614 0
-422 -662 0
-422 -710 0
-470 -518 0
-470 -566 0
-470 -614 0
-470 -662 0
-470 -710 0
-518 -566 0
-518 -614 0
-518 -662 0
-518 -710 0
-566 -614 0
-566 -662 0
-566 -710 0
-614 -662 0
-614 -710 0
-662 -710 0
-279 -327 0
-279 -375 0
-279 -423 0
-279 -471 0
-279 -519 0
-279 -567 0
-279 -615 0
-279 -663 0
-279 -711 0
-327 -375 0
-327 -423 0
-327 -471 0
-327 -519 0
-327 -567 0
-327 -615 0
-327 -663 0
-327 -711 0
-375 -423 0
-375 -471 0
-375 -519 0
-375 -567 0
-375 -615 0
-375 -663 0
-375 -711 0
-423 -471 0
-423 -519 0
-423 -567 0
-423 -615 0
-423 -663 0
-423 -711 0
-471 -519 0
-471 -567 0
-471 -615 0
-471 -663 0
-471 -711 0
-519 -567 0
-519 -615 0
-519 -663 0
-519 -711 0
-567 -615 0
-567 -663 0
-567 -711 0
-615 -663 0
-615 -711 0
-663 -711 0
-280 -328 0
-280 -376 0
-280 -424 0
-280 -472 0
-280 -520 0
-280 -568 0
-280 -616 0
-280 -664 0
-280 -712 0
-328 -376 0
-328 -424 0
-328 -472 0
-328 -520 0
-328 -568 0
-328 -616 0
-328 -664 0
-328 -712 0
-376 -424 0
-376 -472 0
-376 -520 0
-376 -568 0
-376 -616 0
-376 -664 0
-376 -712 0
-424 -472 0
-424 -520 0
-424 -568 0
-424 -616 0
-424 -664 0
-424 -712 0
-472 -520 0
-472 -568 0
-472 -616 0
-472 -664 0
-472 -712 0
-520 -568 0
-520 -616 0
-520 -664 0
-520 -712 0
-568 -616 0
-568 -664 0
-568 -712 0
-616 -664 0
-616 -712 0
-664 -712 0
-281 -329 0
-281 -377 0
-281 -425 0
-281 -473 0
-281 -521 0
-281 -569 0
-281 -617 0
-281 -665 0
-281 -713 0
-329 -377 0
-329 -425 0
-329 -473 0
-329 -521 0
-329 -569 0
-329 -617 0
-329 -665 0
-329 -713 0
-377 -425 0
-377 -473 0
-377 -521 0
-377 -569 0
-377 -617 0
-377 -665 0
-377 -713 0
-425 -473 0
-425 -521 0
-425 -569 0
-425 -617 0
-425 -665 0
-425 -713 0
-473 -521 0
-473 -569 0
-473 -617 0
-473 -665 0
-473 -713 0
-521 -569 0
-521 -617 0
-521 -665 0
-521 -713 0
-569 -617 0
-569 -665 0
-569 -713 0
-617 -665 0
-617 -713 0
-665 -713 0
-282 -330 0
-282 -378 0
-282 -426 0
-282 -474 0
-282 -522 0
-282 -570 0
-282 -618 0
-282 -666 0
-282 -714 0
-330 -378 0
-330 -426 0
-330 -474 0
-330 -522 0
-330 -570 0
-330 -618 0
-330 -666 0
-330 -714 0
-378 -426 0
-378 -474 0
-378 -522 0
-378 -570 0
-378 -618 0
-378 -666 0
-378 -714 0
-426 -474 0
-426 -522 0
-426 -570 0
-426 -618 0
-426 -666 0
-426 -714 0
-474 -522 0
-474 -570 0
-474 -618 0
-474 -666 0
-474 -714 0
-522 -570 0
-522 -618 0
-522 -666 0
-522 -714 0
-570 -618 0
-570 -666 0
-570 -714 0
-618 -666 0
-618 -714 0
-666 -714 0
-283 -331 0
-283 -379 0
-283 -427 0
-283 -475 0
-283 -523 0
-283 -571 0
-283 -619 0
-283 -667 0
-283 -715 0
-331 -379 0
-331 -427 0
-331 -475 0
-331 -523 0
-331 -571 0
-331 -619 0
-331 -667 0
-331 -715 0
-379 -427 0
-379 -475 0
-379 -523 0
-379 -571 0
-379 -619 0
-379 -667 0
-379 -715 0
-427 -475 0
-427 -523 0
-427 -571 0
-427 -619 0
-427 -667 0
-427 -715 0
-475 -523 0
-475 -571 0
-475 -619 0
-475 -667 0
-475 -715 0
-523 -571 0
-523 -619 0
-523 -667 0
-523 -715 0
-571 -619 0
-571 -667 0
-571 -715 0
-619 -667 0
-619 -715 0
-667 -715 0
-284 -332 0
-284 -380 0
-284 -428 0
-284 -476 0
-284 -524 0
-284 -572 0
-284 -620 0
-284 -668 0
-284 -716 0
-332 -380 0
-332 -428 0
-332 -476 0
-332 -524 0
-332 -572 0
-332 -620 0
-332 -668 0
-332 -716 0
-380 -428 0
-380 -476 0
-380 -524 0
-380 -572 0
-380 -620 0
-380 -668 0
-380 -716 0
-428 -476 0
-428 -524 0
-428 -572 0
-428 -620 0
-428 -668 0
-428 -716 0
-476 -524 0
-476 -572 0
-476 -620 0
-476 -668 0
-476 -716 0
-524 -572 0
-524 -620 0
-524 -668 0
-524 -716 0
-572 -620 0
-572 -668 0
-572 -716 0
-620 -668 0
-620 -716 0
-668 -716 0
-285 -333 0
-285 -381 0
-285 -429 0
-285 -477 0
-285 -525 0
-285 -573 0
-285 -621 0
-285 -669 0
-285 -717 0
-333 -381 0
-333 -429 0
-333 -477 0
-333 -525 0
-333 -573 0
-333 -621 0
-333 -669 0
-333 -717 0
-381 -429 0
-381 -477 0
-381 -525 0
-381 -573 0
-381 -621 0
-381 -669 0
-381 -717 0
-429 -477 0
-429 -525 0
-429 -573 0
-429 -621 0
-429 -669 0
-429 -717 0
-477 -525 0
-477 -573 0
-477 -621 0
-477 -669 0
-477 -717 0
-525 -573 0
-525 -621 0
-525 -669 0
-525 -717 0
-573 -621 0
-573 -669 0
-573 -717 0
-621 -669 0
-621 -717 0
-669 -717 0
-286 -334 0
-286 -382 0
-286 -430 0
-286 -478 0
-286 -526 0
-286 -574 0
-286 -622 0
-286 -670 0
-286 -718 0
-334 -382 0
-334 -430 0
-334 -478 0
-334 -526 0
-334 -574 0
-334 -622 0
-334 -670 0
-334 -718 0
-382 -430 0
-382 -478 0
-382 -526 0
-382 -574 0
-382 -622 0
-382 -670 0
-382 -718 0
-430 -478 0
-430 -526 0
-430 -574 0
-430 -622 0
-430 -670 0
-430 -718 0
-478 -526 0
-478 -574 0
-478 -622 0
-478 -670 0
-478 -718 0
-526 -574 0
-526 -622 0
-526 -670 0
-526 -718 0
-574 -622 0
-574 -670 0
-574 -718 0
-622 -670 0
-622 -718 0
-670 -718 0
-287 -335 0
-287 -383 0
-287 -431 0
-287 -479 0
-287 -527 0
-287 -575 0
-287 -623 0
-287 -671 0
-287 -719 0
-335 -383 0
-335 -431 0
-335 -479 0
-335 -527 0
-335 -575 0
-335 -623 0
-335 -671 0
-335 -719 0
-383 -431 0
-383 -479 0
-383 -527 0
-383 -575 0
-383 -623 0
-383 -671 0
-383 -719 0
-431 -479 0
-431 -527 0
-431 -575 0
-431 -623 0
-431 -671 0
-431 -719 0
-479 -527 0
-479 -575 0
-479 -623 0
-479 -671 0
-479 -719 0
-527 -575 0
-527 -623 0
-527 -671 0
-527 -719 0
-575 -623 0
-575 -671 0
-575 -719 0
-623 -671 0
-623 -719 0
-671 -719 0
-288 -336 0
-288 -384 0
-288 -432 0
-288 -480 0
-288 -528 0
-288 -576 0
-288 -624 0
-288 -672 0
-288 -720 0
-336 -384 0
-336 -432 0
-336 -480 0
-336 -528 0
-336 -576 0
-336 -624 0
-336 -672 0
-336 -720 0
-384 -432 0
-384 -480 0
-384 -528 0
-384 -576 0
-384 -624 0
-384 -672 0
-384 -720 0
-432 -480 0
-432 -528 0
-432 -576 0
-432 -624 0
-432 -672 0
-432 -720 0
-480 -528 0
-480 -576 0
-480 -624 0
-480 -672 0
-480 -720 0
-528 -576 0
-528 -624 0
-528 -672 0
-528 -720 0
-576 -624 0
-576 -672 0
-576 -720 0
-624 -672 0
-624 -720 0
-672 -720 0
737 738 739 740 741 742 743 0
-737 -738 0
-737 -739 0
-737 -740 0
-737 -741 0
-737 -742 0
-737 -743 0
-738 -739 0
-738 -740 0
-738 -741 0
-738 -742 0
-738 -743 0
-739 -740 0
-739 -741 0
-739 -742 0
-739 -743 0
-740 -741 0
-740 -742 0
-740 -743 0
-741 -742 0
-741 -743 0
-742 -743 0
-273 737 0
-274 737 738 0
-275 737 738 739 0
-276 737 738 739 740 0
-277 737 738 739 740 741 0
-278 737 738 739 740 741 742 0
-279 737 738 739 740 741 742 743 0
-280 737 738 739 740 741 742 743 0
-281 737 738 739 740 741 742 743 0
-282 737 738 739 740 741 742 743 0
-283 738 739 740 741 742 743 0
-284 739 740 741 742 743 0
-285 740 741 742 743 0
-286 741 742 743 0
-287 742 743 0
-288 743 0
-321 737 0
-322 737 738 0
-323 737 738 739 0
-324 737 738 739 740 0
-325 737 738 739 740 741 0
-326 737 738 739 740 741 742 0
-327 737 738 739 740 741 742 743 0
-328 737 738 739 740 741 742 743 0
-329 737 738 739 740 741 742 743 0
-330 737 738 739 740 741 742 743 0
-331 738 739 740 741 742 743 0
-332 739 740 741 742 743 0
-333 740 741 742 743 0
-334 741 742 743 0
-335 742 743 0
-336 743 0
-369 737 0
-370 737 738 0
-371 737 738 739 0
-372 737 738 739 740 0
-373 737 738 739 740 741 0
-374 737 738 739 740 741 742 0
-375 737 738 739 740 741 742 743 0
-376 737 738 739 740 741 742 743 0
-377 737 738 739 740 741 742 743 0
-378 737 738 739 740 741 742 743 0
-379 738 739 740 741 742 743 0
-380 739 740 741 742 743 0
-381 740 741 742 743 0
-382 741 742 743 0
-383 742 743 0
-384 743 0
-417 737 0
-418 737 738 0
-419 737 738 739 0
-420 737 738 739 740 0
-421 737 738 739 740 741 0
-422 737 738 739 740 741 742 0
-423 737 738 739 740 741 742 743 0
-424 737 738 739 740 741 742 743 0
-425 737 738 739 740 741 742 743 0
-426 737 738 739 740 741 742 743 0
-427 738 739 740 741 742 743 0
-428 739 740 741 742 743 0
-429 740 741 742 743 0
-430 741 742 743 0
-431 742 743 0
-432 743 0
-465 737 0
-466 737 738 0
-467 737 738 739 0
-468 737 738 739 740 0
-469 737 738 739 740 741 0
-470 737 738 739 740 741 742 0
-471 737 738 739 740 741 742 743 0
-472 737 738 739 740 741 742 743 0
-473 737 738 739 740 741 742 743 0
-474 737 738 739 740 741 742 743 0
-475 738 739 740 741 742 743 0
-476 739 740 741 742 743 0
-477 740 741 742 743 0
-478 741 742 743 0
-479 742 743 0
-480 743 0
-513 737 0
-514 737 738 0
-515 737 738 739 0
-516 737 738 739 740 0
-517 737 738 739 740 741 0
-518 737 738 739 740 741 742 0
-519 737 738 739 740 741 742 743 0
-520 737 738 739 740 741 742 743 0
-521 737 738 739 740 741 742 743 0
-522 737 738 739 740 741 742 743 0
-523 738 739 740 741 742 743 0
-524 739 740 741 742 743 0
-525 740 741 742 743 0
-526 741 742 743 0
-527 742 743 0
-528 743 0
-561 737 0
-562 737 738 0
-563 737 738 739 0
-564 737 738 739 740 0
-565 737 738 739 740 741 0
-566 737 738 739 740 741 742 0
-567 737 738 739 740 741 742 743 0
-568 737 738 739 740 741 742 743 0
-569 737 738 739 740 741 742 743 0
-570 737 738 739 740 741 742 743 0
-571 738 739 740 741 742 743 0
-572 739 740 741 742 743 0
-573 740 741 742 743 0
-574 741 742 743 0
-575 742 743 0
-576 743 0
-609 737 0
-610 737 738 0
-611 737 738 739 0
-612 737 738 739 740 0
-613 737 738 739 740 741 0
-614 737 738 739 740 741 742 0
-615 737 738 739 740 741 742 743 0
-616 737 738 739 740 741 742 743 0
-617 737 738 739 740 741 742 743 0
-618 737 738 739 740 741 742 743 0
-619 738 739 740 741 742 743 0
-620 739 740 741 742 743 0
-621 740 741 742 743 0
-622 741 742 743 0
-623 742 743 0
-624 743 0
-657 737 0
-658 737 738 0
-659 737 738 739 0
-660 737 738 739 740 0
-661 737 738 739 740 741 0
-662 737 738 739 740 741 742 0
-663 737 738 739 740 741 742 743 0
-664 737 738 739 740 741 742 743 0
-665 737 738 739 740 741 742 743 0
-666 737 738 739 740 741 742 743 0
-667 738 739 740 741 742 743 0
-668 739 740 741 742 743 0
-669 740 741 742 743 0
-670 741 742 743 0
-671 742 743 0
-672 743 0
-705 737 0
-706 737 738 0
-707 737 738 739 0
-708 737 738 739 740 0
-709 737 738 739 740 741 0
-710 737 738 739 740 741 742 0
-711 737 738 739 740 741 742 743 0
-712 737 738 739 740 741 742 743 0
-713 737 738 739 740 741 742 743 0
-714 737 738 739 740 741 742 743 0
-715 738 739 740 741 742 743 0
-716 739 740 741 742 743 0
-717 740 741 742 743 0
-718 741 742 743 0
-719 742 743 0
-720 743 0
-737 -283 0
-737 -284 0
-737 -285 0
-737 -286 0
-737 -287 0
-737 -288 0
-737 -331 0
-737 -332 0
-737 -333 0
-737 -334 0
-737 -335 0
-737 -336 0
-737 -379 0
-737 -380 0
-737 -381 0
-737 -382 0
-737 -383 0
-737 -384 0
-737 -427 0
-737 -428 0
-737 -429 0
-737 -430 0
-737 -431 0
-737 -432 0
-737 -475 0
-737 -476 0
-737 -477 0
-737 -478 0
-737 -479 0
-737 -480 0
-737 -523 0
-737 -524 0
-737 -525 0
-737 -526 0
-737 -527 0
-737 -528 0
-737 -571 0
-737 -572 0
-737 -573 0
-737 -574 0
-737 -575 0
-737 -576 0
-737 -619 0
-737 -620 0
-737 -621 0
-737 -622 0
-737 -623 0
-737 -624 0
-737 -667 0
-737 -668 0
-737 -669 0
-737 -670 0
-737 -671 0
-737 -672 0
-737 -715 0
-737 -716 0
-737 -717 0
-737 -718 0
-737 -719 0
-737 -720 0
-738 -273 0
-738 -284 0
-738 -285 0
-738 -286 0
-738 -287 0
-738 -288 0
-738 -321 0
-738 -332 0
-738 -333 0
-738 -334 0
-738 -335 0
-738 -336 0
-738 -369 0
-738 -380 0
-738 -381 0
-738 -382 0
-738 -383 0
-738 -384 0
-738 -417 0
-738 -428 0
-738 -429 0
-738 -430 0
-738 -431 0
-738 -432 0
-738 -465 0
-738 -476 0
-738 -477 0
-738 -478 0
-738 -479 0
-738 -480 0
-738 -513 0
-738 -524 0
-738 -525 0
-738 -526 0
-738 -527 0
-738 -528 0
-738 -561 0
-738 -572 0
-738 -573 0
-738 -574 0
-738 -575 0
-738 -576 0
-738 -609 0
-738 -620 0
-738 -621 0
-738 -622 0
-738 -623 0
-738 -624 0
-738 -657 0
-738 -668 0
-738 -669 0
-738 -670 0
-738 -671 0
-738 -672 0
-738 -705 0
-738 -716 0
-738 -717 0
-738 -718 0
-738 -719 0
-738 -720 0
-739 -273 0
-739 -274 0
-739 -285 0
-739 -286 0
-739 -287 0
-739 -288 0
-739 -321 0
-739 -322 0
-739 -333 0
-739 -334 0
-739 -335 0
-739 -336 0
-739 -369 0
-739 -370 0
-739 -381 0
-739 -382 0
-739 -383 0
-739 -384 0
-739 -417 0
-739 -418 0
-739 -429 0
-739 -430 0
-739 -431 0
-739 -432 0
-739 -465 0
-739 -466 0
-739 -477 0
-739 -478 0
-739 -479 0
-739 -480 0
-739 -513 0
-739 -514 0
-739 -525 0
-739 -526 0
-739 -527 0
-739 -528 0
-739 -561 0
-739 -562 0
-739 -573 0
-739 -574 0
-739 -575 0
-739 -576 0
-739 -609 0
-739 -610 0
-739 -621 0
-739 -622 0
-739 -623 0
-739 -624 0
-739 -657 0
-739 -658 0
-739 -669 0
-739 -670 0
-739 -671 0
-739 -672 0
-739 -705 0
-739 -706 0
-739 -717 0
-739 -718 0
-739 -719 0
-739 -720 0
-740 -273 0
-740 -274 0
-740 -275 0
-740 -286 0
-740 -287 0
-740 -288 0
-740 -321 0
-740 -322 0
-740 -323 0
-740 -334 0
-740 -335 0
-740 -336 0
-740 -369 0
-740 -370 0
-740 -371 0
-740 -382 0
-740 -383 0
-740 -384 0
-740 -417 0
-740 -418 0
-740 -419 0
-740 -430 0
-740 -431 0
-740 -432 0
-740 -465 0
-740 -466 0
-740 -467 0
-740 -478 0
-740 -479 0
-740 -480 0
-740 -513 0
-740 -514 0
-740 -515 0
-740 -526 0
-740 -527 0
-740 -528 0
-740 -561 0
-740 -562 0
-740 -563 0
-740 -574 0
-740 -575 0
-740 -576 0
-740 -609 0
-740 -610 0
-740 -611 0
-740 -622 0
-740 -623 0
-740 -624 0
-740 -657 0
-740 -658 0
-740 -659 0
-740 -670 0
-740 -671 0
-740 -672 0
-740 -705 0
-740 -706 0
-740 -707 0
-740 -718 0
-740 -719 0
-740 -720 0
-741 -273 0
-741 -274 0
-741 -275 0
-741 -276 0
-741 -287 0
-741 -288 0
-741 -321 0
-741 -322 0
-741 -323 0
-741 -324 0
-741 -335 0
-741 -336 0
-741 -369 0
-741 -370 0
-741 -371 0
-741 -372 0
-741 -383 0
-741 -384 0
-741 -417 0
-741 -418 0
-741 -419 0
-741 -420 0
-741 -431 0
-741 -432 0
-741 -465 0
-741 -466 0
-741 -467 0
-741 -468 0
-741 -479 0
-741 -480 0
-741 -513 0
-741 -514 0
-741 -515 0
-741 -516 0
-741 -527 0
-741 -528 0
-741 -561 0
-741 -562 0
-741 -563 0
-741 -564 0
-741 -575 0
-741 -576 0
-741 -609 0
-741 -610 0
-741 -611 0
-741 -612 0
-741 -623 0
-741 -624 0
-741 -657 0
-741 -658 0
-741 -659 0
-741 -660 0
-741 -671 0
-741 -672 0
-741 -705 0
-741 -706 0
-741 -707 0
-741 -708 0
-741 -719 0
-741 -720 0
-742 -273 0
-742 -274 0
-742 -275 0
-742 -276 0
-742 -277 0
-742 -288 0
-742 -321 0
-742 -322 0
-742 -323 0
-742 -324 0
-742 -325 0
-742 -336 0
-742 -369 0
-742 -370 0
-742 -371 0
-742 -372 0
-742 -373 0
-742 -384 0
-742 -417 0
-742 -418 0
-742 -419 0
-742 -420 0
-742 -421 0
-742 -432 0
-742 -465 0
-742 -466 0
-742 -467 0
-742 -468 0
-742 -469 0
-742 -480 0
-742 -513 0
-742 -514 0
-742 -515 0
-742 -516 0
-742 -517 0
-742 -528 0
-742 -561 0
-742 -562 0
-742 -563 0
-742 -564 0
-742 -565 0
-742 -576 0
-742 -609 0
-742 -610 0
-742 -611 0
-742 -612 0
-742 -613 0
-742 -624 0
-742 -657 0
-742 -658 0
-742 -659 0
-742 -660 0
-742 -661 0
-742 -672 0
-742 -705 0
-742 -706 0
-742 -707 0
-742 -708 0
-742 -709 0
-742 -720 0
-743 -273 0
-743 -274 0
-743 -275 0
-743 -276 0
-743 -277 0
-743 -278 0
-743 -321 0
-743 -322 0
-743 -323 0
-743 -324 0
-743 -325 0
-743 -326 0
-743 -369 0
-743 -370 0
-743 -371 0
-743 -372 0
-743 -373 0
-743 -374 0
-743 -417 0
-743 -418 0
-743 -419 0
-743 -420 0
-743 -421 0
-743 -422 0
-743 -465 0
-743 -466 0
-743 -467 0
-743 -468 0
-743 -469 0
-743 -470 0
-743 -513 0
-743 -514 0
-743 -515 0
-743 -516 0
-743 -517 0
-743 -518 0
-743 -561 0
-743 -562 0
-743 -563 0
-743 -564 0
-743 -565 0
-743 -566 0
-743 -609 0
-743 -610 0
-743 -611 0
-743 -612 0
-743 -613 0
-743 -614 0
-743 -657 0
-743 -658 0
-743 -659 0
-743 -660 0
-743 -661 0
-743 -662 0
-743 -705 0
-743 -706 0
-743 -707 0
-743 -708 0
-743 -709 0
-743 -710 0
-1 -17 0
-1 -33 0
-17 -33 0
-2 -18 0
-2 -34 0
-18 -34 0
-3 -19 0
-3 -35 0
-19 -35 0
-4 -20 0
-4 -36 0
-20 -36 0
-5 -21 0
-5 -37 0
-21 -37 0
-6 -22 0
-6 -38 0
-22 -38 0
-7 -23 0
-7 -39 0
-23 -39 0
-8 -24 0
-8 -40 0
-24 -40 0
-9 -25 0
-9 -41 0
-25 -41 0
-10 -26 0
-10 -42 0
-26 -42 0
-11 -27 0
-11 -43 0
-27 -43 0
-12 -28 0
-12 -44 0
-28 -44 0
-13 -29 0
-13 -45 0
-29 -45 0
-14 -30 0
-14 -46 0
-30 -46 0
-15 -31 0
-15 -47 0
-31 -47 0
-16 -32 0
-16 -48 0
-32 -48 0
744 745 746 747 748 749 750 751 752 753 754 755 756 757 0
-744 -745 0
-744 -746 0
-744 -747 0
-744 -748 0
-744 -749 0
-744 -750 0
-744 -751 0
-744 -752 0
-744 -753 0
-744 -754 0
-744 -755 0
-744 -756 0
-744 -757 0
-745 -746 0
-745 -747 0
-745 -748 0
-745 -749 0
-745 -750 0
-745 -751 0
-745 -752 0
-745 -753 0
-745 -754 0
-745 -755 0
-745 -756 0
-745 -757 0
-746 -747 0
-746 -748 0
-746 -749 0
-746 -750 0
-746 -751 0
-746 -752 0
-746 -753 0
-746 -754 0
-746 -755 0
-746 -756 0
-746 -757 0
-747 -748 0
-747 -749 0
-747 -750 0
-747 -751 0
-747 -752 0
-747 -753 0
-747 -754 0
-747 -755 0
-747 -756 0
-747 -757 0
-748 -749 0
-748 -750 0
-748 -751 0
-748 -752 0
-748 -753 0
-748 -754 0
-748 -755 0
-748 -756 0
-748 -757 0
-749 -750 0
-749 -751 0
-749 -752 0
-749 -753 0
-749 -754 0
-749 -755 0
-749 -756 0
-749 -757 0
-750 -751 0
-750 -752 0
-750 -753 0
-750 -754 0
-750 -755 0
-750 -756 0
-750 -757 0
-751 -752 0
-751 -753 0
-751 -754 0
-751 -755 0
-751 -756 0
-751 -757 0
-752 -753 0
-752 -754 0
-752 -755 0
-752 -756 0
-752 -757 0
-753 -754 0
-753 -755 0
-753 -756 0
-753 -757 0
-754 -755 0
-754 -756 0
-754 -757 0
-755 -756 0
-755 -757 0
-756 -757 0
-1 744 0
-2 744 745 0
-3 744 745 746 0
-4 745 746 747 0
-5 746 747 748 0
-6 747 748 749 0
-7 748 749 750 0
-8 749 750 751 0
-9 750 751 752 0
-10 751 752 753 0
-11 752 753 754 0
-12 753 754 755 0
-13 754 755 756 0
-14 755 756 757 0
-15 756 757 0
-16 757 0
-17 744 0
-18 744 745 0
-19 744 745 746 0
-20 745 746 747 0
-21 746 747 748 0
-22 747 748 749 0
-23 748 749 750 0
-24 749 750 751 0
-25 750 751 752 0
-26 751 752 753 0
-27 752 753 754 0
-28 753 754 755 0
-29 754 755 756 0
-30 755 756 757 0
-31 756 757 0
-32 757 0
-33 744 0
-34 744 745 0
-35 744 745 746 0
-36 745 746 747 0
-37 746 747 748 0
-38 747 748 749 0
-39 748 749 750 0
-40 749 750 751 0
-41 750 751 752 0
-42 751 752 753 0
-43 752 753 754 0
-44 753 754 755 0
-45 754 755 756 0
-46 755 756 757 0
-47 756 757 0
-48 757 0
-744 -4 0
-744 -5 0
-744 -6 0
-744 -7 0
-744 -8 0
-744 -9 0
-744 -10 0
-744 -11 0
-744 -12 0
-744 -13 0
-744 -14 0
-744 -15 0
-744 -16 0
-744 -20 0
-744 -21 0
-744 -22 0
-744 -23 0
-744 -24 0
-744 -25 0
-744 -26 0
-744 -27 0
-744 -28 0
-744 -29 0
-744 -30 0
-744 -31 0
-744 -32 0
-744 -36 0
-744 -37 0
-744 -38 0
-744 -39 0
-744 -40 0
-744 -41 0
-744 -42 0
-744 -43 0
-744 -44 0
-744 -45 0
-744 -46 0
-744 -47 0
-744 -48 0
-745 -1 0
-745 -5 0
-745 -6 0
-745 -7 0
-745 -8 0
-745 -9 0
-745 -10 0
-745 -11 0
-745 -12 0
-745 -13 0
-745 -14 0
-745 -15 0
-745 -16 0
-745 -17 0
-745 -21 0
-745 -22 0
-745 -23 0
-745 -24 0
-745 -25 0
-745 -26 0
-745 -27 0
-745 -28 0
-745 -29 0
-745 -30 0
-745 -31 0
-745 -32 0
-745 -33 0
-745 -37 0
-745 -38 0
-745 -39 0
-745 -40 0
-745 -41 0
-745 -42 0
-745 -43 0
-745 -44 0
-745 -45 0
-745 -46 0
-745 -47 0
-745 -48 0
-746 -1 0
-746 -2 0
-746 -6 0
-746 -7 0
-746 -8 0
-746 -9 0
-746 -10 0
-746 -11 0
-746 -12 0
-746 -13 0
-746 -14 0
-746 -15 0
-746 -16 0
-746 -17 0
-746 -18 0
-746 -22 0
-746 -23 0
-746 -24 0
-746 -25 0
-746 -26 0
-746 -27 0
-746 -28 0
-746 -29 0
-746 -30 0
-746 -31 0
-746 -32 0
-746 -33 0
-746 -34 0
-746 -38 0
-746 -39 0
-746 -40 0
-746 -41 0
-746 -42 0
-746 -43 0
-746 -44 0
-746 -45 0
-746 -46 0
-746 -47 0
-746 -48 0
-747 -1 0
-747 -2 0
-747 -3 0
-747 -7 0
-747 -8 0
-747 -9 0
-747 -10 0
-747 -11 0
-747 -12 0
-747 -13 0
-747 -14 0
-747 -15 0
-747 -16 0
-747 -17 0
-747 -18 0
-747 -19 0
-747 -23 0
-747 -24 0
-747 -25 0
-747 -26 0
-747 -27 0
-747 -28 0
-747 -29 0
-747 -30 0
-747 -31 0
-747 -32 0
-747 -33 0
-747 -34 0
-747 -35 0
-747 -39 0
-747 -40 0
-747 -41 0
-747 -42 0
-747 -43 0
-747 -44 0
-747 -45 0
-747 -46 0
-747 -47 0
-747 -48 0
-748 -1 0
-748 -2 0
-748 -3 0
-748 -4 0
-748 -8 0
-748 -9 0
-748 -10 0
-748 -11 0
-748 -12 0
-748 -13 0
-748 -14 0
-748 -15 0
-748 -16 0
-748 -17 0
-748 -18 0
-748 -19 0
-748 -20 0
-748 -24 0
-748 -25 0
-748 -26 0
-748 -27 0
-748 -28 0
-748 -29 0
-748 -30 0
-748 -31 0
-748 -32 0
-748 -33 0
-748 -34 0
-748 -35 0
-748 -36 0
-748 -40 0
-748 -41 0
-748 -42 0
-748 -43 0
-748 -44 0
-748 -45 0
-748 -46 0
-748 -47 0
-748 -48 0
-749 -1 0
-749 -2 0
-749 -3 0
-749 -4 0
-749 -5 0
-749 -9 0
-749 -10 0
-749 -11 0
-749 -12 0
-749 -13 0
-749 -14 0
-749 -15 0
-749 -16 0
-749 -17 0
-749 -18 0
-749 -19 0
-749 -20 0
-749 -21 0
-749 -25 0
-749 -26 0
-749 -27 0
-749 -28 0
-749 -29 0
-749 -30 0
-749 -31 0
-749 -32 0
-749 -33 0
-749 -34 0
-749 -35 0
-749 -36 0
-749 -37 0
-749 -41 0
-749 -42 0
-749 -43 0
-749 -44 0
-749 -45 0
-749 -46 0
-749 -47 0
-749 -48 0
-750 -1 0
-750 -2 0
-750 -3 0
-750 -4 0
-750 -5 0
-750 -6 0
-750 -10 0
-750 -11 0
-750 -12 0
-750 -13 0
-750 -14 0
-750 -15 0
-750 -16 0
-750 -17 0
-750 -18 0
-750 -19 0
-750 -20 0
-750 -21 0
-750 -22 0
-750 -26 0
-750 -27 0
-750 -28 0
-750 -29 0
-750 -30 0
-750 -31 0
-750 -32 0
-750 -33 0
-750 -34 0
-750 -35 0
-750 -36 0
-750 -37 0
-750 -38 0
-750 -42 0
-750 -43 0
-750 -44 0
-750 -45 0
-750 -46 0
-750 -47 0
-750 -48 0
-751 -1 0
-751 -2 0
-751 -3 0
-751 -4 0
-751 -5 0
-751 -6 0
-751 -7 0
-751 -11 0
-751 -12 0
-751 -13 0
-751 -14 0
-751 -15 0
-751 -16 0
-751 -17 0
-751 -18 0
-751 -19 0
-751 -20 0
-751 -21 0
-751 -22 0
-751 -23 0
-751 -27 0
-751 -28 0
-751 -29 0
-751 -30 0
-751 -31 0
-751 -32 0
-751 -33 0
-751 -34 0
-751 -35 0
-751 -36 0
-751 -37 0
-751 -38 0
-751 -39 0
-751 -43 0
-751 -44 0
-751 -45 0
-751 -46 0
-751 -47 0
-751 -48 0
-752 -1 0
-752 -2 0
-752 -3 0
-752 -4 0
-752 -5 0
-752 -6 0
-752 -7 0
-752 -8 0
-752 -12 0
-752 -13 0
-752 -14 0
-752 -15 0
-752 -16 0
-752 -17 0
-752 -18 0
-752 -19 0
-752 -20 0
-752 -21 0
-752 -22 0
-752 -23 0
-752 -24 0
-752 -28 0
-752 -29 0
-752 -30 0
-752 -31 0
-752 -32 0
-752 -33 0
-752 -34 0
-752 -35 0
-752 -36 0
-752 -37 0
-752 -38 0
-752 -39 0
-752 -40 0
-752 -44 0
-752 -45 0
-752 -46 0
-752 -47 0
-752 -48 0
-753 -1 0
-753 -2 0
-753 -3 0
-753 -4 0
-753 -5 0
-753 -6 0
-753 -7 0
-753 -8 0
-753 -9 0
-753 -13 0
-753 -14 0
-753 -15 0
-753 -16 0
-753 -17 0
-753 -18 0
-753 -19 0
-753 -20 0
-753 -21 0
-753 -22 0
-753 -23 0
-753 -24 0
-753 -25 0
-753 -29 0
-753 -30 0
-753 -31 0
-753 -32 0
-753 -33 0
-753 -34 0
-753 -35 0
-753 -36 0
-753 -37 0
-753 -38 0
-753 -39 0
-753 -40 0
-753 -41 0
-753 -45 0
-753 -46 0
-753 -47 0
-753 -48 0
-754 -1 0
-754 -2 0
-754 -3 0
-754 -4 0
-754 -5 0
-754 -6 0
-754 -7 0
-754 -8 0
-754 -9 0
-754 -10 0
-754 -14 0
-754 -15 0
-754 -16 0
-754 -17 0
-754 -18 0
-754 -19 0
-754 -20 0
-754 -21 0
-754 -22 0
-754 -23 0
-754 -24 0
-754 -25 0
-754 -26 0
-754 -30 0
-754 -31 0
-754 -32 0
-754 -33 0
-754 -34 0
-754 -35 0
-754 -36 0
-754 -37 0
-754 -38 0
-754 -39 0
-754 -40 0
-754 -41 0
-754 -42 0
-754 -46 0
-754 -47 0
-754 -48 0
-755 -1 0
-755 -2 0
-755 -3 0
-755 -4 0
-755 -5 0
-755 -6 0
-755 -7 0
-755 -8 0
-755 -9 0
-755 -10 0
-755 -11 0
-755 -15 0
-755 -16 0
-755 -17 0
-755 -18 0
-755 -19 0
-755 -20 0
-755 -21 0
-755 -22 0
-755 -23 0
-755 -24 0
-755 -25 0
-755 -26 0
-755 -27 0
-755 -31 0
-755 -32 0
-755 -33 0
-755 -34 0
-755 -35 0
-755 -36 0
-755 -37 0
-755 -38 0
-755 -39 0
-755 -40 0
-755 -41 0
-755 -42 0
-755 -43 0
-755 -47 0
-755 -48 0
-756 -1 0
-756 -2 0
-756 -3 0
-756 -4 0
-756 -5 0
-756 -6 0
-756 -7 0
-756 -8 0
-756 -9 0
-756 -10 0
-756 -11 0
-756 -12 0
-756 -16 0
-756 -17 0
-756 -18 0
-756 -19 0
-756 -20 0
-756 -21 0
-756 -22 0
-756 -23 0
-756 -24 0
-756 -25 0
-756 -26 0
-756 -27 0
-756 -28 0
-756 -32 0
-756 -33 0
-756 -34 0
-756 -35 0
-756 -36 0
-756 -37 0
-756 -38 0
-756 -39 0
-756 -40 0
-756 -41 0
-756 -42 0
-756 -43 0
-756 -44 0
-756 -48 0
-757 -1 0
-757 -2 0
-757 -3 0
-757 -4 0
-757 -5 0
-757 -6 0
-757 -7 0
-757 -8 0
-757 -9 0
-757 -10 0
-757 -11 0
-757 -12 0
-757 -13 0
-757 -17 0
-757 -18 0
-757 -19 0
-757 -20 0
-757 -21 0
-757 -22 0
-757 -23 0
-757 -24 0
-757 -25 0
-757 -26 0
-757 -27 0
-757 -28 0
-757 -29 0
-757 -33 0
-757 -34 0
-757 -35 0
-757 -36 0
-757 -37 0
-757 -38 0
-757 -39 0
-757 -40 0
-757 -41 0
-757 -42 0
-757 -43 0
-757 -44 0
-757 -45 0
-49 -65 0
-49 -81 0
-65 -81 0
-50 -66 0
-50 -82 0
-66 -82 0
-51 -67 0
-51 -83 0
-67 -83 0
-52 -68 0
-52 -84 0
-68 -84 0
-53 -69 0
-53 -85 0
-69 -85 0
-54 -70 0
-54 -86 0
-70 -86 0
-55 -71 0
-55 -87 0
-71 -87 0
-56 -72 0
-56 -88 0
-72 -88 0
-57 -73 0
-57 -89 0
-73 -89 0
-58 -74 0
-58 -90 0
-74 -90 0
-59 -75 0
-59 -91 0
-75 -91 0
-60 -76 0
-60 -92 0
-76 -92 0
-61 -77 0
-61 -93 0
-77 -93 0
-62 -78 0
-62 -94 0
-78 -94 0
-63 -79 0
-63 -95 0
-79 -95 0
-64 -80 0
-64 -96 0
-80 -96 0
758 759 760 761 762 763 764 765 766 767 768 769 770 771 0
-758 -759 0
-758 -760 0
-758 -761 0
-758 -762 0
-758 -763 0
-758 -764 0
-758 -765 0
-758 -766 0
-758 -767 0
-758 -768 0
-758 -769 0
-758 -770 0
-758 -771 0
-759 -760 0
-759 -761 0
-759 -762 0
-759 -763 0
-759 -764 0
-759 -765 0
-759 -766 0
-759 -767 0
-759 -768 0
-759 -769 0
-759 -770 0
-759 -771 0
-760 -761 0
-760 -762 0
-760 -763 0
-760 -764 0
-760 -765 0
-760 -766 0
-760 -767 0
-760 -768 0
-760 -769 0
-760 -770 0
-760 -771 0
-761 -762 0
-761 -763 0
-761 -764 0
-761 -765 0
-761 -766 0
-761 -767 0
-761 -768 0
-761 -769 0
-761 -770 0
-761 -771 0
-762 -763 0
-762 -764 0
-762 -765 0
-762 -766 0
-762 -767 0
-762 -768 0
-762 -769 0
-762 -770 0
-762 -771 0
-763 -764 0
-763 -765 0
-763 -766 0
-763 -767 0
-763 -768 0
-763 -769 0
-763 -770 0
-763 -771 0
-764 -765 0
-764 -766 0
-764 -767 0
-764 -768 0
-764 -769 0
-764 -770 0
-764 -771 0
-765 -766 0
-765 -767 0
-765 -768 0
-765 -769 0
-765 -770 0
-765 -771 0
-766 -767 0
-766 -768 0
-766 -769 0
-766 -770 0
-766 -771 0
-767 -768 0
-767 -769 0
-767 -770 0
-767 -771 0
-768 -769 0
-768 -770 0
-768 -771 0
-769 -770 0
-769 -771 0
-770 -771 0
-49 758 0
-50 758 759 0
-51 758 759 760 0
-52 759 760 761 0
-53 760 761 762 0
-54 761 762 763 0
-55 762 763 764 0
-56 763 764 765 0
-57 764 765 766 0
-58 765 766 767 0
-59 766 767 768 0
-60 767 768 769 0
-61 768 769 770 0
-62 769 770 771 0
-63 770 771 0
-64 771 0
-65 758 0
-66 758 759 0
-67 758 759 760 0
-68 759 760 761 0
-69 760 761 762 0
-70 761 762 763 0
-71 762 763 764 0
-72 763 764 765 0
-73 764 765 766 0
-74 765 766 767 0
-75 766 767 768 0
-76 767 768 769 0
-77 768 769 770 0
-78 769 770 771 0
-79 770 771 0
-80 771 0
-81 758 0
-82 758 759 0
-83 758 759 760 0
-84 759 760 761 0
-85 760 761 762 0
-86 761 762 763 0
-87 762 763 764 0
-88 763 764 765 0
-89 764 765 766 0
-90 765 766 767 0
-91 766 767 768 0
-92 767 768 769 0
-93 768 769 770 0
-94 769 770 771 0
-95 770 771 0
-96 771 0
-758 -52 0
-758 -53 0
-758 -54 0
-758 -55 0
-758 -56 0
-758 -57 0
-758 -58 0
-758 -59 0
-758 -60 0
-758 -61 0
-758 -62 0
-758 -63 0
-758 -64 0
-758 -68 0
-758 -69 0
-758 -70 0
-758 -71 0
-758 -72 0
-758 -73 0
-758 -74 0
-758 -75 0
-758 -76 0
-758 -77 0
-758 -78 0
-758 -79 0
-758 -80 0
-758 -84 0
-758 -85 0
-758 -86 0
-758 -87 0
-758 -88 0
-758 -89 0
-758 -90 0
-758 -91 0
-758 -92 0
-758 -93 0
-758 -94 0
-758 -95 0
-758 -96 0
-759 -49 0
-759 -53 0
-759 -54 0
-759 -55 0
-759 -56 0
-759 -57 0
-759 -58 0
-759 -59 0
-759 -60 0
-759 -61 0
-759 -62 0
-759 -63 0
-759 -64 0
-759 -65 0
-759 -69 0
-759 -70 0
-759 -71 0
-759 -72 0
-759 -73 0
-759 -74 0
-759 -75 0
-759 -76 0
-759 -77 0
-759 -78 0
-759 -79 0
-759 -80 0
-759 -81 0
-759 -85 0
-759 -86 0
-759 -87 0
-759 -88 0
-759 -89 0
-759 -90 0
-759 -91 0
-759 -92 0
-759 -93 0
-759 -94 0
-759 -95 0
-759 -96 0
-760 -49 0
-760 -50 0
-760 -54 0
-760 -55 0
-760 -56 0
-760 -57 0
-760 -58 0
-760 -59 0
-760 -60 0
-760 -61 0
-760 -62 0
-760 -63 0
-760 -64 0
-760 -65 0
-760 -66 0
-760 -70 0
-760 -71 0
-760 -72 0
-760 -73 0
-760 -74 0
-760 -75 0
-760 -76 0
-760 -77 0
-760 -78 0
-760 -79 0
-760 -80 0
-760 -81 0
-760 -82 0
-760 -86 0
-760 -87 0
-760 -88 0
-760 -89 0
-760 -90 0
-760 -91 0
-760 -92 0
-760 -93 0
-760 -94 0
-760 -95 0
-760 -96 0
-761 -49 0
-761 -50 0
-761 -51 0
-761 -55 0
-761 -56 0
-761 -57 0
-761 -58 0
-761 -59 0
-761 -60 0
-761 -61 0
-761 -62 0
-761 -63 0
-761 -64 0
-761 -65 0
-761 -66 0
-761 -67 0
-761 -71 0
-761 -72 0
-761 -73 0
-761 -74 0
-761 -75 0
-761 -76 0
-761 -77 0
-761 -78 0
-761 -79 0
-761 -80 0
-761 -81 0
-761 -82 0
-761 -83 0
-761 -87 0
-761 -88 0
-761 -89 0
-761 -90 0
-761 -91 0
-761 -92 0
-761 -93 0
-761 -94 0
-761 -95 0
-761 -96 0
-762 -49 0
-762 -50 0
-762 -51 0
-762 -52 0
-762 -56 0
-762 -57 0
-762 -58 0
-762 -59 0
-762 -60 0
-762 -61 0
-762 -62 0
-762 -63 0
-762 -64 0
-762 -65 0
-762 -66 0
-762 -67 0
-762 -68 0
-762 -72 0
-762 -73 0
-762 -74 0
-762 -75 0
-762 -76 0
-762 -77 0
-762 -78 0
-762 -79 0
-762 -80 0
-762 -81 0
-762 -82 0
-762 -83 0
-762 -84 0
-762 -88 0
-762 -89 0
-762 -90 0
-762 -91 0
-762 -92 0
-762 -93 0
-762 -94 0
-762 -95 0
-762 -96 0
-763 -49 0
-763 -50 0
-763 -51 0
-763 -52 0
-763 -53 0
-763 -57 0
-763 -58 0
-763 -59 0
-763 -60 0
-763 -61 0
-763 -62 0
-763 -63 0
-763 -64 0
-763 -65 0
-763 -66 0
-763 -67 0
-763 -68 0
-763 -69 0
-763 -73 0
-763 -74 0
-763 -75 0
-763 -76 0
-763 -77 0
-763 -78 0
-763 -79 0
-763 -80 0
-763 -81 0
-763 -82 0
-763 -83 0
-763 -84 0
-763 -85 0
-763 -89 0
-763 -90 0
-763 -91 0
-763 -92 0
-763 -93 0
-763 -94 0
-763 -95 0
-763 -96 0
-764 -49 0
-764 -50 0
-764 -51 0
-764 -52 0
-764 -53 0
-764 -54 0
-764 -58 0
-764 -59 0
-764 -60 0
-764 -61 0
-764 -62 0
-764 -63 0
-764 -64 0
-764 -65 0
-764 -66 0
-764 -67 0
-764 -68 0
-764 -69 0
-764 -70 0
-764 -74 0
-764 -75 0
-764 -76 0
-764 -77 0
-764 -78 0
-764 -79 0
-764 -80 0
-764 -81 0
-764 -82 0
-764 -83 0
-764 -84 0
-764 -85 0
-764 -86 0
-764 -90 0
-764 -91 0
-764 -92 0
-764 -93 0
-764 -94 0
-764 -95 0
-764 -96 0
-765 -49 0
-765 -50 0
-765 -51 0
-765 -52 0
-765 -53 0
-765 -54 0
-765 -55 0
-765 -59 0
-765 -60 0
-765 -61 0
-765 -62 0
-765 -63 0
-765 -64 0
-765 -65 0
-765 -66 0
-765 -67 0
-765 -68 0
-765 -69 0
-765 -70 0
-765 -71 0
-765 -75 0
-765 -76 0
-765 -77 0
-765 -78 0
-765 -79 0
-765 -80 0
-765 -81 0
-765 -82 0
-765 -83 0
-765 -84 0
-765 -85 0
-765 -86 0
-765 -87 0
-765 -91 0
-765 -92 0
-765 -93 0
-765 -94 0
-765 -95 0
-765 -96 0
-766 -49 0
-766 -50 0
-766 -51 0
-766 -52 0
-766 -53 0
-766 -54 0
-766 -55 0
-766 -56 0
-766 -60 0
-766 -61 0
-766 -62 0
-766 -63 0
-766 -64 0
-766 -65 0
-766 -66 0
-766 -67 0
-766 -68 0
-766 -69 0
-766 -70 0
-766 -71 0
-766 -72 0
-766 -76 0
-766 -77 0
-766 -78 0
-766 -79 0
-766 -80 0
-766 -81 0
-766 -82 0
-766 -83 0
-766 -84 0
-766 -85 0
-766 -86 0
-766 -87 0
-766 -88 0
-766 -92 0
-766 -93 0
-766 -94 0
-766 -95 0
-766 -96 0
-767 -49 0
-767 -50 0
-767 -51 0
-767 -52 0
-767 -53 0
-767 -54 0
-767 -55 0
-767 -56 0
-767 -57 0
-767 -61 0
-767 -62 0
-767 -63 0
-767 -64 0
-767 -65 0
-767 -66 0
-767 -67 0
-767 -68 0
-767 -69 0
-767 -70 0
-767 -71 0
-767 -72 0
-767 -73 0
-767 -77 0
-767 -78 0
-767 -79 0
-767 -80 0
-767 -81 0
-767 -82 0
-767 -83 0
-767 -84 0
-767 -85 0
-767 -86 0
-767 -87 0
-767 -88 0
-767 -89 0
-767 -93 0
-767 -94 0
-767 -95 0
-767 -96 0
-768 -49 0
-768 -50 0
-768 -51 0
-768 -52 0
-768 -53 0
-768 -54 0
-768 -55 0
-768 -56 0
-768 -57 0
-768 -58 0
-768 -62 0
-768 -63 0
-768 -64 0
-768 -65 0
-768 -66 0
-768 -67 0
-768 -68 0
-768 -69 0
-768 -70 0
-768 -71 0
-768 -72 0
-768 -73 0
-768 -74 0
-768 -78 0
-768 -79 0
-768 -80 0
-768 -81 0
-768 -82 0
-768 -83 0
-768 -84 0
-768 -85 0
-768 -86 0
-768 -87 0
-768 -88 0
-768 -89 0
-768 -90 0
-768 -94 0
-768 -95 0
-768 -96 0
-769 -49 0
-769 -50 0
-769 -51 0
-769 -52 0
-769 -53 0
-769 -54 0
-769 -55 0
-769 -56 0
-769 -57 0
-769 -58 0
-769 -59 0
-769 -63 0
-769 -64 0
-769 -65 0
-769 -66 0
-769 -67 0
-769 -68 0
-769 -69 0
-769 -70 0
-769 -71 0
-769 -72 0
-769 -73 0
-769 -74 0
-769 -75 0
-769 -79 0
-769 -80 0
-769 -81 0
-769 -82 0
-769 -83 0
-769 -84 0
-769 -85 0
-769 -86 0
-769 -87 0
-769 -88 0
-769 -89 0
-769 -90 0
-769 -91 0
-769 -95 0
-769 -96 0
-770 -49 0
-770 -50 0
-770 -51 0
-770 -52 0
-770 -53 0
-770 -54 0
-770 -55 0
-770 -56 0
-770 -57 0
-770 -58 0
-770 -59 0
-770 -60 0
-770 -64 0
-770 -65 0
-770 -66 0
-770 -67 0
-770 -68 0
-770 -69 0
-770 -70 0
-770 -71 0
-770 -72 0
-770 -73 0
-770 -74 0
-770 -75 0
-770 -76 0
-770 -80 0
-770 -81 0
-770 -82 0
-770 -83 0
-770 -84 0
-770 -85 0
-770 -86 0
-770 -87 0
-770 -88 0
-770 -89 0
-770 -90 0
-770 -91 0
-770 -92 0
-770 -96 0
-771 -49 0
-771 -50 0
-771 -51 0
-771 -52 0
-771 -53 0
-771 -54 0
-771 -55 0
-771 -56 0
-771 -57 0
-771 -58 0
-771 -59 0
-771 -60 0
-771 -61 0
-771 -65 0
-771 -66 0
-771 -67 0
-771 -68 0
-771 -69 0
-771 -70 0
-771 -71 0
-771 -72 0
-771 -73 0
-771 -74 0
-771 -75 0
-771 -76 0
-771 -77 0
-771 -81 0
-771 -82 0
-771 -83 0
-771 -84 0
-771 -85 0
-771 -86 0
-771 -87 0
-771 -88 0
-771 -89 0
-771 -90 0
-771 -91 0
-771 -92 0
-771 -93 0
-97 -113 0
-97 -129 0
-113 -129 0
-98 -114 0
-98 -130 0
-114 -130 0
-99 -115 0
-99 -131 0
-115 -131 0
-100 -116 0
-100 -132 0
-116 -132 0
-101 -117 0
-101 -133 0
-117 -133 0
-102 -118 0
-102 -134 0
-118 -134 0
-103 -119 0
-103 -135 0
-119 -135 0
-104 -120 0
-104 -136 0
-120 -136 0
-105 -121 0
-105 -137 0
-121 -137 0
-106 -122 0
-106 -138 0
-122 -138 0
-107 -123 0
-107 -139 0
-123 -139 0
-108 -124 0
-108 -140 0
-124 -140 0
-109 -125 0
-109 -141 0
-125 -141 0
-110 -126 0
-110 -142 0
-126 -142 0
-111 -127 0
-111 -143 0
-127 -143 0
-112 -128 0
-112 -144 0
-128 -144 0
772 773 774 775 776 777 778 779 780 781 782 783 784 785 0
-772 -773 0
-772 -774 0
-772 -775 0
-772 -776 0
-772 -777 0
-772 -778 0
-772 -779 0
-772 -780 0
-772 -781 0
-772 -782 0
-772 -783 0
-772 -784 0
-772 -785 0
-773 -774 0
-773 -775 0
-773 -776 0
-773 -777 0
-773 -778 0
-773 -779 0
-773 -780 0
-773 -781 0
-773 -782 0
-773 -783 0
-773 -784 0
-773 -785 0
-774 -775 0
-774 -776 0
-774 -777 0
-774 -778 0
-774 -779 0
-774 -780 0
-774 -781 0
-774 -782 0
-774 -783 0
-774 -784 0
-774 -785 0
-775 -776 0
-775 -777 0
-775 -778 0
-775 -779 0
-775 -780 0
-775 -781 0
-775 -782 0
-775 -783 0
-775 -784 0
-775 -785 0
-776 -777 0
-776 -778 0
-776 -779 0
-776 -780 0
-776 -781 0
-776 -782 0
-776 -783 0
-776 -784 0
-776 -785 0
-777 -778 0
-777 -779 0
-777 -780 0
-777 -781 0
-777 -782 0
-777 -783 0
-777 -784 0
-777 -785 0
-778 -779 0
-778 -780 0
-778 -781 0
-778 -782 0
-778 -783 0
-778 -784 0
-778 -785 0
-779 -780 0
-779 -781 0
-779 -782 0
-779 -783 0
-779 -784 0
-779 -785 0
-780 -781 0
-780 -782 0
-780 -783 0
-780 -784 0
-780 -785 0
-781 -782 0
-781 -783 0
-781 -784 0
-781 -785 0
-782 -783 0
-782 -784 0
-782 -785 0
-783 -784 0
-783 -785 0
-784 -785 0
-97 772 0
-98 772 773 0
-99 772 773 774 0
-100 773 774 775 0
-101 774 775 776 0
-102 775 776 777 0
-103 776 777 778 0
-104 777 778 779 0
-105 778 779 780 0
-106 779 780 781 0
-107 780 781 782 0
-108 781 782 783 0
-109 782 783 784 0
-110 783 784 785 0
-111 784 785 0
-112 785 0
-113 772 0
-114 772 773 0
-115 772 773 774 0
-116 773 774 775 0
-117 774 775 776 0
-118 775 776 777 0
-119 776 777 778 0
-120 777 778 779 0
-121 778 779 780 0
-122 779 780 781 0
-123 780 781 782 0
-124 781 782 783 0
-125 782 783 784 0
-126 783 784 785 0
-127 784 785 0
-128 785 0
-129 772 0
-130 772 773 0
-131 772 773 774 0
-132 773 774 775 0
-133 774 775 776 0
-134 775 776 777 0
-135 776 777 778 0
-136 777 778 779 0
-137 778 779 780 0
-138 779 780 781 0
-139 780 781 782 0
-140 781 782 783 0
-141 782 783 784 0
-142 783 784 785 0
-143 784 785 0
-144 785 0
-772 -100 0
-772 -101 0
-772 -102 0
-772 -103 0
-772 -104 0
-772 -105 0
-772 -106 0
-772 -107 0
-772 -108 0
-772 -109 0
-772 -110 0
-772 -111 0
-772 -112 0
-772 -116 0
-772 -117 0
-772 -118 0
-772 -119 0
-772 -120 0
-772 -121 0
-772 -122 0
-772 -123 0
-772 -124 0
-772 -125 0
-772 -126 0
-772 -127 0
-772 -128 0
-772 -132 0
-772 -133 0
-772 -134 0
-772 -135 0
-772 -136 0
-772 -137 0
-772 -138 0
-772 -139 0
-772 -140 0
-772 -141 0
-772 -142 0
-772 -143 0
-772 -144 0
-773 -97 0
-773 -101 0
-773 -102 0
-773 -103 0
-773 -104 0
-773 -105 0
-773 -106 0
-773 -107 0
-773 -108 0
-773 -109 0
-773 -110 0
-773 -111 0
-773 -112 0
-773 -113 0
-773 -117 0
-773 -118 0
-773 -119 0
-773 -120 0
-773 -121 0
-773 -122 0
-773 -123 0
-773 -124 0
-773 -125 0
-773 -126 0
-773 -127 0
-773 -128 0
-773 -129 0
-773 -133 0
-773 -134 0
-773 -135 0
-773 -136 0
-773 -137 0
-773 -138 0
-773 -139 0
-773 -140 0
-773 -141 0
-773 -142 0
-773 -143 0
-773 -144 0
-774 -97 0
-774 -98 0
-774 -102 0
-774 -103 0
-774 -104 0
-774 -105 0
-774 -106 0
-774 -107 0
-774 -108 0
-774 -109 0
-774 -110 0
-774 -111 0
-774 -112 0
-774 -113 0
-774 -114 0
-774 -118 0
-774 -119 0
-774 -120 0
-774 -121 0
-774 -122 0
-774 -123 0
-774 -124 0
-774 -125 0
-774 -126 0
-774 -127 0
-774 -128 0
-774 -129 0
-774 -130 0
-774 -134 0
-774 -135 0
-774 -136 0
-774 -137 0
-774 -138 0
-774 -139 0
-774 -140 0
-774 -141 0
-774 -142 0
-774 -143 0
-774 -144 0
-775 -97 0
-775 -98 0
-775 -99 0
-775 -103 0
-775 -104 0
-775 -105 0
-775 -106 0
-775 -107 0
-775 -108 0
-775 -109 0
-775 -110 0
-775 -111 0
-775 -112 0
-775 -113 0
-775 -114 0
-775 -115 0
-775 -119 0
-775 -120 0
-775 -121 0
-775 -122 0
-775 -123 0
-775 -124 0
-775 -125 0
-775 -126 0
-775 -127 0
-775 -128 0
-775 -129 0
-775 -130 0
-775 -131 0
-775 -135 0
-775 -136 0
-775 -137 0
-775 -138 0
-775 -139 0
-775 -140 0
-775 -141 0
-775 -142 0
-775 -143 0
-775 -144 0
-776 -97 0
-776 -98 0
-776 -99 0
-776 -100 0
-776 -104 0
-776 -105 0
-776 -106 0
-776 -107 0
-776 -108 0
-776 -109 0
-776 -110 0
-776 -111 0
-776 -112 0
-776 -113 0
-776 -114 0
-776 -115 0
-776 -116 0
-776 -120 0
-776 -121 0
-776 -122 0
-776 -123 0
-776 -124 0
-776 -125 0
-776 -126 0
-776 -127 0
-776 -128 0
-776 -129 0
-776 -130 0
-776 -131 0
-776 -132 0
-776 -136 0
-776 -137 0
-776 -138 0
-776 -139 0
-776 -140 0
-776 -141 0
-776 -142 0
-776 -143 0
-776 -144 0
-777 -97 0
-777 -98 0
-777 -99 0
-777 -100 0
-777 -101 0
-777 -105 0
-777 -106 0
-777 -107 0
-777 -108 0
-777 -109 0
-777 -110 0
-777 -111 0
-777 -112 0
-777 -113 0
-777 -114 0
-777 -115 0
-777 -116 0
-777 -117 0
-777 -121 0
-777 -122 0
-777 -123 0
-777 -124 0
-777 -125 0
-777 -126 0
-777 -127 0
-777 -128 0
-777 -129 0
-777 -130 0
-777 -131 0
-777 -132 0
-777 -133 0
-777 -137 0
-777 -138 0
-777 -139 0
-777 -140 0
-777 -141 0
-777 -142 0
-777 -143 0
-777 -144 0
-778 -97 0
-778 -98 0
-778 -99 0
-778 -100 0
-778 -101 0
-778 -102 0
-778 -106 0
-778 -107 0
-778 -108 0
-778 -109 0
-778 -110 0
-778 -111 0
-778 -112 0
-778 -113 0
-778 -114 0
-778 -115 0
-778 -116 0
-778 -117 0
-778 -118 0
-778 -122 0
-778 -123 0
-778 -124 0
-778 -125 0
-778 -126 0
-778 -127 0
-778 -128 0
-778 -129 0
-778 -130 0
-778 -131 0
-778 -132 0
-778 -133 0
-778 -134 0
-778 -138 0
-778 -139 0
-778 -140 0
-778 -141 0
-778 -142 0
-778 -143 0
-778 -144 0
-779 -97 0
-779 -98 0
-779 -99 0
-779 -100 0
-779 -101 0
-779 -102 0
-779 -103 0
-779 -107 0
-779 -108 0
-779 -109 0
-779 -110 0
-779 -111 0
-779 -112 0
-779 -113 0
-779 -114 0
-779 -115 0
-779 -116 0
-779 -117 0
-779 -118 0
-779 -119 0
-779 -123 0
-779 -124 0
-779 -125 0
-779 -126 0
-779 -127 0
-779 -128 0
-779 -129 0
-779 -130 0
-779 -131 0
-779 -132 0
-779 -133 0
-779 -134 0
-779 -135 0
-779 -139 0
-779 -140 0
-779 -141 0
-779 -142 0
-779 -143 0
-779 -144 0
-780 -97 0
-780 -98 0
-780 -99 0
-780 -100 0
-780 -101 0
-780 -102 0
-780 -103 0
-780 -104 0
-780 -108 0
-780 -109 0
-780 -110 0
-780 -111 0
-780 -112 0
-780 -113 0
-780 -114 0
-780 -115 0
-780 -116 0
-780 -117 0
-780 -118 0
-780 -119 0
-780 -120 0
-780 -124 0
-780 -125 0
-780 -126 0
-780 -127 0
-780 -128 0
-780 -129 0
-780 -130 0
-780 -131 0
-780 -132 0
-780 -133 0
-780 -134 0
-780 -135 0
-780 -136 0
-780 -140 0
-780 -141 0
-780 -142 0
-780 -143 0
-780 -144 0
-781 -97 0
-781 -98 0
-781 -99 0
-781 -100 0
-781 -101 0
-781 -102 0
-781 -103 0
-781 -104 0
-781 -105 0
-781 -109 0
-781 -110 0
-781 -111 0
-781 -112 0
-781 -113 0
-781 -114 0
-781 -115 0
-781 -116 0
-781 -117 0
-781 -118 0
-781 -119 0
-781 -120 0
-781 -121 0
-781 -125 0
-781 -126 0
-781 -127 0
-781 -128 0
-781 -129 0
-781 -130 0
-781 -131 0
-781 -132 0
-781 -133 0
-781 -134 0
-781 -135 0
-781 -136 0
-781 -137 0
-781 -141 0
-781 -142 0
-781 -143 0
-781 -144 0
-782 -97 0
-782 -98 0
-782 -99 0
-782 -100 0
-782 -101 0
-782 -102 0
-782 -103 0
-782 -104 0
-782 -105 0
-782 -106 0
-782 -110 0
-782 -111 0
-782 -112 0
-782 -113 0
-782 -114 0
-782 -115 0
-782 -116 0
-782 -117 0
-782 -118 0
-782 -119 0
-782 -120 0
-782 -121 0
-782 -122 0
-782 -126 0
-782 -127 0
-782 -128 0
-782 -129 0
-782 -130 0
-782 -131 0
-782 -132 0
-782 -133 0
-782 -134 0
-782 -135 0
-782 -136 0
-782 -137 0
-782 -138 0
-782 -142 0
-782 -143 0
-782 -144 0
-783 -97 0
-783 -98 0
-783 -99 0
-783 -100 0
-783 -101 0
-783 -102 0
-783 -103 0
-783 -104 0
-783 -105 0
-783 -106 0
-783 -107 0
-783 -111 0
-783 -112 0
-783 -113 0
-783 -114 0
-783 -115 0
-783 -116 0
-783 -117 0
-783 -118 0
-783 -119 0
-783 -120 0
-783 -121 0
-783 -122 0
-783 -123 0
-783 -127 0
-783 -128 0
-783 -129 0
-783 -130 0
-783 -131 0
-783 -132 0
-783 -133 0
-783 -134 0
-783 -135 0
-783 -136 0
-783 -137 0
-783 -138 0
-783 -139 0
-783 -143 0
-783 -144 0
-784 -97 0
-784 -98 0
-784 -99 0
-784 -100 0
-784 -101 0
-784 -102 0
-784 -103 0
-784 -104 0
-784 -105 0
-784 -106 0
-784 -107 0
-784 -108 0
-784 -112 0
-784 -113 0
-784 -114 0
-784 -115 0
-784 -116 0
-784 -117 0
-784 -118 0
-784 -119 0
-784 -120 0
-784 -121 0
-784 -122 0
-784 -123 0
-784 -124 0
-784 -128 0
-784 -129 0
-784 -130 0
-784 -131 0
-784 -132 0
-784 -133 0
-784 -134 0
-784 -135 0
-784 -136 0
-784 -137 0
-784 -138 0
-784 -139 0
-784 -140 0
-784 -144 0
-785 -97 0
-785 -98 0
-785 -99 0
-785 -100 0
-785 -101 0
-785 -102 0
-785 -103 0
-785 -104 0
-785 -105 0
-785 -106 0
-785 -107 0
-785 -108 0
-785 -109 0
-785 -113 0
-785 -114 0
-785 -115 0
-785 -116 0
-785 -117 0
-785 -118 0
-785 -119 0
-785 -120 0
-785 -121 0
-785 -122 0
-785 -123 0
-785 -124 0
-785 -125 0
-785 -129 0
-785 -130 0
-785 -131 0
-785 -132 0
-785 -133 0
-785 -134 0
-785 -135 0
-785 -136 0
-785 -137 0
-785 -138 0
-785 -139 0
-785 -140 0
-785 -141 0
-145 -161 0
-145 -177 0
-161 -177 0
-146 -162 0
-146 -178 0
-162 -178 0
-147 -163 0
-147 -179 0
-163 -179 0
-148 -164 0
-148 -180 0
-164 -180 0
-149 -165 0
-149 -181 0
-165 -181 0
-150 -166 0
-150 -182 0
-166 -182 0
-151 -167 0
-151 -183 0
-167 -183 0
-152 -168 0
-152 -184 0
-168 -184 0
-153 -169 0
-153 -185 0
-169 -185 0
-154 -170 0
-154 -186 0
-170 -186 0
-155 -171 0
-155 -187 0
-171 -187 0
-156 -172 0
-156 -188 0
-172 -188 0
-157 -173 0
-157 -189 0
-173 -189 0
-158 -174 0
-158 -190 0
-174 -190 0
-159 -175 0
-159 -191 0
-175 -191 0
-160 -176 0
-160 -192 0
-176 -192 0
786 787 788 789 790 791 792 793 794 795 796 797 798 799 0
-786 -787 0
-786 -788 0
-786 -789 0
-786 -790 0
-786 -791 0
-786 -792 0
-786 -793 0
-786 -794 0
-786 -795 0
-786 -796 0
-786 -797 0
-786 -798 0
-786 -799 0
-787 -788 0
-787 -789 0
-787 -790 0
-787 -791 0
-787 -792 0
-787 -793 0
-787 -794 0
-787 -795 0
-787 -796 0
-787 -797 0
-787 -798 0
-787 -799 0
-788 -789 0
-788 -790 0
-788 -791 0
-788 -792 0
-788 -793 0
-788 -794 0
-788 -795 0
-788 -796 0
-788 -797 0
-788 -798 0
-788 -799 0
-789 -790 0
-789 -791 0
-789 -792 0
-789 -793 0
-789 -794 0
-789 -795 0
-789 -796 0
-789 -797 0
-789 -798 0
-789 -799 0
-790 -791 0
-790 -792 0
-790 -793 0
-790 -794 0
-790 -795 0
-790 -796 0
-790 -797 0
-790 -798 0
-790 -799 0
-791 -792 0
-791 -793 0
-791 -794 0
-791 -795 0
-791 -796 0
-791 -797 0
-791 -798 0
-791 -799 0
-792 -793 0
-792 -794 0
-792 -795 0
-792 -796 0
-792 -797 0
-792 -798 0
-792 -799 0
-793 -794 0
-793 -795 0
-793 -796 0
-793 -797 0
-793 -798 0
-793 -799 0
-794 -795 0
-794 -796 0
-794 -797 0
-794 -798 0
-794 -799 0
-795 -796 0
-795 -797 0
-795 -798 0
-795 -799 0
-796 -797 0
-796 -798 0
-796 -799 0
-797 -798 0
-797 -799 0
-798 -799 0
-145 786 0
-146 786 787 0
-147 786 787 788 0
-148 787 788 789 0
-149 788 789 790 0
-150 789 790 791 0
-151 790 791 792 0
-152 791 792 793 0
-153 792 793 794 0
-154 793 794 795 0
-155 794 795 796 0
-156 795 796 797 0
-157 796 797 798 0
-158 797 798 799 0
-159 798 799 0
-160 799 0
-161 786 0
-162 786 787 0
-163 786 787 788 0
-164 787 788 789 0
-165 788 789 790 0
-166 789 790 791 0
-167 790 791 792 0
-168 791 792 793 0
-169 792 793 794 0
-170 793 794 795 0
-171 794 795 796 0
-172 795 796 797 0
-173 796 797 798 0
-174 797 798 799 0
-175 798 799 0
-176 799 0
-177 786 0
-178 786 787 0
-179 786 787 788 0
-180 787 788 789 0
-181 788 789 790 0
-182 789 790 791 0
-183 790 791 792 0
-184 791 792 793 0
-185 792 793 794 0
-186 793 794 795 0
-187 794 795 796 0
-188 795 796 797 0
-189 796 797 798 0
-190 797 798 799 0
-191 798 799 0
-192 799 0
-786 -148 0
-786 -149 0
-786 -150 0
-786 -151 0
-786 -152 0
-786 -153 0
-786 -154 0
-786 -155 0
-786 -156 0
-786 -157 0
-786 -158 0
-786 -159 0
-786 -160 0
-786 -164 0
-786 -165 0
-786 -166 0
-786 -167 0
-786 -168 0
-786 -169 0
-786 -170 0
-786 -171 0
-786 -172 0
-786 -173 0
-786 -174 0
-786 -175 0
-786 -176 0
-786 -180 0
-786 -181 0
-786 -182 0
-786 -183 0
-786 -184 0
-786 -185 0
-786 -186 0
-786 -187 0
-786 -188 0
-786 -189 0
-786 -190 0
-786 -191 0
-786 -192 0
-787 -145 0
-787 -149 0
-787 -150 0
-787 -151 0
-787 -152 0
-787 -153 0
-787 -154 0
-787 -155 0
-787 -156 0
-787 -157 0
-787 -158 0
-787 -159 0
-787 -160 0
-787 -161 0
-787 -165 0
-787 -166 0
-787 -167 0
-787 -168 0
-787 -169 0
-787 -170 0
-787 -171 0
-787 -172 0
-787 -173 0
-787 -174 0
-787 -175 0
-787 -176 0
-787 -177 0
-787 -181 0
-787 -182 0
-787 -183 0
-787 -184 0
-787 -185 0
-787 -186 0
-787 -187 0
-787 -188 0
-787 -189 0
-787 -190 0
-787 -191 0
-787 -192 0
-788 -145 0
-788 -146 0
-788 -150 0
-788 -151 0
-788 -152 0
-788 -153 0
-788 -154 0
-788 -155 0
-788 -156 0
-788 -157 0
-788 -158 0
-788 -159 0
-788 -160 0
-788 -161 0
-788 -162 0
-788 -166 0
-788 -167 0
-788 -168 0
-788 -169 0
-788 -170 0
-788 -171 0
-788 -172 0
-788 -173 0
-788 -174 0
-788 -175 0
-788 -176 0
-788 -177 0
-788 -178 0
-788 -182 0
-788 -183 0
-788 -184 0
-788 -185 0
-788 -186 0
-788 -187 0
-788 -188 0
-788 -189 0
-788 -190 0
-788 -191 0
-788 -192 0
-789 -145 0
-789 -146 0
-789 -147 0
-789 -151 0
-789 -152 0
-789 -153 0
-789 -154 0
-789 -155 0
-789 -156 0
-789 -157 0
-789 -158 0
-789 -159 0
-789 -160 0
-789 -161 0
-789 -162 0
-789 -163 0
-789 -167 0
-789 -168 0
-789 -169 0
-789 -170 0
-789 -171 0
-789 -172 0
-789 -173 0
-789 -174 0
-789 -175 0
-789 -176 0
-789 -177 0
-789 -178 0
-789 -179 0
-789 -183 0
-789 -184 0
-789 -185 0
-789 -186 0
-789 -187 0
-789 -188 0
-789 -189 0
-789 -190 0
-789 -191 0
-789 -192 0
-790 -145 0
-790 -146 0
-790 -147 0
-790 -148 0
-790 -152 0
-790 -153 0
-790 -154 0
-790 -155 0
-790 -156 0
-790 -157 0
-790 -158 0
-790 -159 0
-790 -160 0
-790 -161 0
-790 -162 0
-790 -163 0
-790 -164 0
-790 -168 0
-790 -169 0
-790 -170 0
-790 -171 0
-790 -172 0
-790 -173 0
-790 -174 0
-790 -175 0
-790 -176 0
-790 -177 0
-790 -178 0
-790 -179 0
-790 -180 0
-790 -184 0
-790 -185 0
-790 -186 0
-790 -187 0
-790 -188 0
-790 -189 0
-790 -190 0
-790 -191 0
-790 -192 0
-791 -145 0
-791 -146 0
-791 -147 0
-791 -148 0
-791 -149 0
-791 -153 0
-791 -154 0
-791 -155 0
-791 -156 0
-791 -157 0
-791 -158 0
-791 -159 0
-791 -160 0
-791 -161 0
-791 -162 0
-791 -163 0
-791 -164 0
-791 -165 0
-791 -169 0
-791 -170 0
-791 -171 0
-791 -172 0
-791 -173 0
-791 -174 0
-791 -175 0
-791 -176 0
-791 -177 0
-791 -178 0
-791 -179 0
-791 -180 0
-791 -181 0
-791 -185 0
-791 -186 0
-791 -187 0
-791 -188 0
-791 -189 0
-791 -190 0
-791 -191 0
-791 -192 0
-792 -145 0
-792 -146 0
-792 -147 0
-792 -148 0
-792 -149 0
-792 -150 0
-792 -154 0
-792 -155 0
-792 -156 0
-792 -157 0
-792 -158 0
-792 -159 0
-792 -160 0
-792 -161 0
-792 -162 0
-792 -163 0
-792 -164 0
-792 -165 0
-792 -166 0
-792 -170 0
-792 -171 0
-792 -172 0
-792 -173 0
-792 -174 0
-792 -175 0
-792 -176 0
-792 -177 0
-792 -178 0
-792 -179 0
-792 -180 0
-792 -181 0
-792 -182 0
-792 -186 0
-792 -187 0
-792 -188 0
-792 -189 0
-792 -190 0
-792 -191 0
-792 -192 0
-793 -145 0
-793 -146 0
-793 -147 0
-793 -148 0
-793 -149 0
-793 -150 0
-793 -151 0
-793 -155 0
-793 -156 0
-793 -157 0
-793 -158 0
-793 -159 0
-793 -160 0
-793 -161 0
-793 -162 0
-793 -163 0
-793 -164 0
-793 -165 0
-793 -166 0
-793 -167 0
-793 -171 0
-793 -172 0
-793 -173 0
-793 -174 0
-793 -175 0
-793 -176 0
-793 -177 0
-793 -178 0
-793 -179 0
-793 -180 0
-793 -181 0
-793 -182 0
-793 -183 0
-793 -187 0
-793 -188 0
-793 -189 0
-793 -190 0
-793 -191 0
-793 -192 0
-794 -145 0
-794 -146 0
-794 -147 0
-794 -148 0
-794 -149 0
-794 -150 0
-794 -151 0
-794 -152 0
-794 -156 0
-794 -157 0
-794 -158 0
-794 -159 0
-794 -160 0
-794 -161 0
-794 -162 0
-794 -163 0
-794 -164 0
-794 -165 0
-794 -166 0
-794 -167 0
-794 -168 0
-794 -172 0
-794 -173 0
-794 -174 0
-794 -175 0
-794 -176 0
-794 -177 0
-794 -178 0
-794 -179 0
-794 -180 0
-794 -181 0
-794 -182 0
-794 -183 0
-794 -184 0
-794 -188 0
-794 -189 0
-794 -190 0
-794 -191 0
-794 -192 0
-795 -145 0
-795 -146 0
-795 -147 0
-795 -148 0
-795 -149 0
-795 -150 0
-795 -151 0
-795 -152 0
-795 -153 0
-795 -157 0
-795 -158 0
-795 -159 0
-795 -160 0
-795 -161 0
-795 -162 0
-795 -163 0
-795 -164 0
-795 -165 0
-795 -166 0
-795 -167 0
-795 -168 0
-795 -169 0
-795 -173 0
-795 -174 0
-795 -175 0
-795 -176 0
-795 -177 0
-795 -178 0
-795 -179 0
-795 -180 0
-795 -181 0
-795 -182 0
-795 -183 0
-795 -184 0
-795 -185 0
-795 -189 0
-795 -190 0
-795 -191 0
-795 -192 0
-796 -145 0
-796 -146 0
-796 -147 0
-796 -148 0
-796 -149 0
-796 -150 0
-796 -151 0
-796 -152 0
-796 -153 0
-796 -154 0
-796 -158 0
-796 -159 0
-796 -160 0
-796 -161 0
-796 -162 0
-796 -163 0
-796 -164 0
-796 -165 0
-796 -166 0
-796 -167 0
-796 -168 0
-796 -169 0
-796 -170 0
-796 -174 0
-796 -175 0
-796 -176 0
-796 -177 0
-796 -178 0
-796 -179 0
-796 -180 0
-796 -181 0
-796 -182 0
-796 -183 0
-796 -184 0
-796 -185 0
-796 -186 0
-796 -190 0
-796 -191 0
-796 -192 0
-797 -145 0
-797 -146 0
-797 -147 0
-797 -148 0
-797 -149 0
-797 -150 0
-797 -151 0
-797 -152 0
-797 -153 0
-797 -154 0
-797 -155 0
-797 -159 0
-797 -160 0
-797 -161 0
-797 -162 0
-797 -163 0
-797 -164 0
-797 -165 0
-797 -166 0
-797 -167 0
-797 -168 0
-797 -169 0
-797 -170 0
-797 -171 0
-797 -175 0
-797 -176 0
-797 -177 0
-797 -178 0
-797 -179 0
-797 -180 0
-797 -181 0
-797 -182 0
-797 -183 0
-797 -184 0
-797 -185 0
-797 -186 0
-797 -187 0
-797 -191 0
-797 -192 0
-798 -145 0
-798 -146 0
-798 -147 0
-798 -148 0
-798 -149 0
-798 -150 0
-798 -151 0
-798 -152 0
-798 -153 0
-798 -154 0
-798 -155 0
-798 -156 0
-798 -160 0
-798 -161 0
-798 -162 0
-798 -163 0
-798 -164 0
-798 -165 0
-798 -166 0
-798 -167 0
-798 -168 0
-798 -169 0
-798 -170 0
-798 -171 0
-798 -172 0
-798 -176 0
-798 -177 0
-798 -178 0
-798 -179 0
-798 -180 0
-798 -181 0
-798 -182 0
-798 -183 0
-798 -184 0
-798 -185 0
-798 -186 0
-798 -187 0
-798 -188 0
-798 -192 0
-799 -145 0
-799 -146 0
-799 -147 0
-799 -148 0
-799 -149 0
-799 -150 0
-799 -151 0
-799 -152 0
-799 -153 0
-799 -154 0
-799 -155 0
-799 -156 0
-799 -157 0
-799 -161 0
-799 -162 0
-799 -163 0
-799 -164 0
-799 -165 0
-799 -166 0
-799 -167 0
-799 -168 0
-799 -169 0
-799 -170 0
-799 -171 0
-799 -172 0
-799 -173 0
-799 -177 0
-799 -178 0
-799 -179 0
-799 -180 0
-799 -181 0
-799 -182 0
-799 -183 0
-799 -184 0
-799 -185 0
-799 -186 0
-799 -187 0
-799 -188 0
-799 -189 0
-193 -209 0
-193 -225 0
-209 -225 0
-194 -210 0
-194 -226 0
-210 -226 0
-195 -211 0
-195 -227 0
-211 -227 0
-196 -212 0
-196 -228 0
-212 -228 0
-197 -213 0
-197 -229 0
-213 -229 0
-198 -214 0
-198 -230 0
-214 -230 0
-199 -215 0
-199 -231 0
-215 -231 0
-200 -216 0
-200 -232 0
-216 -232 0
-201 -217 0
-201 -233 0
-217 -233 0
-202 -218 0
-202 -234 0
-218 -234 0
-203 -219 0
-203 -235 0
-219 -235 0
-204 -220 0
-204 -236 0
-220 -236 0
-205 -221 0
-205 -237 0
-221 -237 0
-206 -222 0
-206 -238 0
-222 -238 0
-207 -223 0
-207 -239 0
-223 -239 0
-208 -224 0
-208 -240 0
-224 -240 0
800 801 802 803 804 805 806 807 808 809 810 811 812 813 0
-800 -801 0
-800 -802 0
-800 -803 0
-800 -804 0
-800 -805 0
-800 -806 0
-800 -807 0
-800 -808 0
-800 -809 0
-800 -810 0
-800 -811 0
-800 -812 0
-800 -813 0
-801 -802 0
-801 -803 0
-801 -804 0
-801 -805 0
-801 -806 0
-801 -807 0
-801 -808 0
-801 -809 0
-801 -810 0
-801 -811 0
-801 -812 0
-801 -813 0
-802 -803 0
-802 -804 0
-802 -805 0
-802 -806 0
-802 -807 0
-802 -808 0
-802 -809 0
-802 -810 0
-802 -811 0
-802 -812 0
-802 -813 0
-803 -804 0
-803 -805 0
-803 -806 0
-803 -807 0
-803 -808 0
-803 -809 0
-803 -810 0
-803 -811 0
-803 -812 0
-803 -813 0
-804 -805 0
-804 -806 0
-804 -807 0
-804 -808 0
-804 -809 0
-804 -810 0
-804 -811 0
-804 -812 0
-804 -813 0
-805 -806 0
-805 -807 0
-805 -808 0
-805 -809 0
-805 -810 0
-805 -811 0
-805 -812 0
-805 -813 0
-806 -807 0
-806 -808 0
-806 -809 0
-806 -810 0
-806 -811 0
-806 -812 0
-806 -813 0
-807 -808 0
-807 -809 0
-807 -810 0
-807 -811 0
-807 -812 0
-807 -813 0
-808 -809 0
-808 -810 0
-808 -811 0
-808 -812 0
-808 -813 0
-809 -810 0
-809 -811 0
-809 -812 0
-809 -813 0
-810 -811 0
-810 -812 0
-810 -813 0
-811 -812 0
-811 -813 0
-812 -813 0
-193 800 0
-194 800 801 0
-195 800 801 802 0
-196 801 802 803 0
-197 802 803 804 0
-198 803 804 805 0
-199 804 805 806 0
-200 805 806 807 0
-201 806 807 808 0
-202 807 808 809 0
-203 808 809 810 0
-204 809 810 811 0
-205 810 811 812 0
-206 811 812 813 0
-207 812 813 0
-208 813 0
-209 800 0
-210 800 801 0
-211 800 801 802 0
-212 801 802 803 0
-213 802 803 804 0
-214 803 804 805 0
-215 804 805 806 0
-216 805 806 807 0
-217 806 807 808 0
-218 807 808 809 0
-219 808 809 810 0
-220 809 810 811 0
-221 810 811 812 0
-222 811 812 813 0
-223 812 813 0
-224 813 0
-225 800 0
-226 800 801 0
-227 800 801 802 0
-228 801 802 803 0
-229 802 803 804 0
-230 803 804 805 0
-231 804 805 806 0
-232 805 806 807 0
-233 806 807 808 0
-234 807 808 809 0
-235 808 809 810 0
-236 809 810 811 0
-237 810 811 812 0
-238 811 812 813 0
-239 812 813 0
-240 813 0
-800 -196 0
-800 -197 0
-800 -198 0
-800 -199 0
-800 -200 0
-800 -201 0
-800 -202 0
-800 -203 0
-800 -204 0
-800 -205 0
-800 -206 0
-800 -207 0
-800 -208 0
-800 -212 0
-800 -213 0
-800 -214 0
-800 -215 0
-800 -216 0
-800 -217 0
-800 -218 0
-800 -219 0
-800 -220 0
-800 -221 0
-800 -222 0
-800 -223 0
-800 -224 0
-800 -228 0
-800 -229 0
-800 -230 0
-800 -231 0
-800 -232 0
-800 -233 0
-800 -234 0
-800 -235 0
-800 -236 0
-800 -237 0
-800 -238 0
-800 -239 0
-800 -240 0
-801 -193 0
-801 -197 0
-801 -198 0
-801 -199 0
-801 -200 0
-801 -201 0
-801 -202 0
-801 -203 0
-801 -204 0
-801 -205 0
-801 -206 0
-801 -207 0
-801 -208 0
-801 -209 0
-801 -213 0
-801 -214 0
-801 -215 0
-801 -216 0
-801 -217 0
-801 -218 0
-801 -219 0
-801 -220 0
-801 -221 0
-801 -222 0
-801 -223 0
-801 -224 0
-801 -225 0
-801 -229 0
-801 -230 0
-801 -231 0
-801 -232 0
-801 -233 0
-801 -234 0
-801 -235 0
-801 -236 0
-801 -237 0
-801 -238 0
-801 -239 0
-801 -240 0
-802 -193 0
-802 -194 0
-802 -198 0
-802 -199 0
-802 -200 0
-802 -201 0
-802 -202 0
-802 -203 0
-802 -204 0
-802 -205 0
-802 -206 0
-802 -207 0
-802 -208 0
-802 -209 0
-802 -210 0
-802 -214 0
-802 -215 0
-802 -216 0
-802 -217 0
-802 -218 0
-802 -219 0
-802 -220 0
-802 -221 0
-802 -222 0
-802 -223 0
-802 -224 0
-802 -225 0
-802 -226 0
-802 -230 0
-802 -231 0
-802 -232 0
-802 -233 0
-802 -234 0
-802 -235 0
-802 -236 0
-802 -237 0
-802 -238 0
-802 -239 0
-802 -240 0
-803 -193 0
-803 -194 0
-803 -195 0
-803 -199 0
-803 -200 0
-803 -201 0
-803 -202 0
-803 -203 0
-803 -204 0
-803 -205 0
-803 -206 0
-803 -207 0
-803 -208 0
-803 -209 0
-803 -210 0
-803 -211 0
-803 -215 0
-803 -216 0
-803 -217 0
-803 -218 0
-803 -219 0
-803 -220 0
-803 -221 0
-803 -222 0
-803 -223 0
-803 -224 0
-803 -225 0
-803 -226 0
-803 -227 0
-803 -231 0
-803 -232 0
-803 -233 0
-803 -234 0
-803 -235 0
-803 -236 0
-803 -237 0
-803 -238 0
-803 -239 0
-803 -240 0
-804 -193 0
-804 -194 0
-804 -195 0
-804 -196 0
-804 -200 0
-804 -201 0
-804 -202 0
-804 -203 0
-804 -204 0
-804 -205 0
-804 -206 0
-804 -207 0
-804 -208 0
-804 -209 0
-804 -210 0
-804 -211 0
-804 -212 0
-804 -216 0
-804 -217 0
-804 -218 0
-804 -219 0
-804 -220 0
-804 -221 0
-804 -222 0
-804 -223 0
-804 -224 0
-804 -225 0
-804 -226 0
-804 -227 0
-804 -228 0
-804 -232 0
-804 -233 0
-804 -234 0
-804 -235 0
-804 -236 0
-804 -237 0
-804 -238 0
-804 -239 0
-804 -240 0
-805 -193 0
-805 -194 0
-805 -195 0
-805 -196 0
-805 -197 0
-805 -201 0
-805 -202 0
-805 -203 0
-805 -204 0
-805 -205 0
-805 -206 0
-805 -207 0
-805 -208 0
-805 -209 0
-805 -210 0
-805 -211 0
-805 -212 0
-805 -213 0
-805 -217 0
-805 -218 0
-805 -219 0
-805 -220 0
-805 -221 0
-805 -222 0
-805 -223 0
-805 -224 0
-805 -225 0
-805 -226 0
-805 -227 0
-805 -228 0
-805 -229 0
-805 -233 0
-805 -234 0
-805 -235 0
-805 -236 0
-805 -237 0
-805 -238 0
-805 -239 0
-805 -240 0
-806 -193 0
-806 -194 0
-806 -195 0
-806 -196 0
-806 -197 0
-806 -198 0
-806 -202 0
-806 -203 0
-806 -204 0
-806 -205 0
-806 -206 0
-806 -207 0
-806 -208 0
-806 -209 0
-806 -210 0
-806 -211 0
-806 -212 0
-806 -213 0
-806 -214 0
-806 -218 0
-806 -219 0
-806 -220 0
-806 -221 0
-806 -222 0
-806 -223 0
-806 -224 0
-806 -225 0
-806 -226 0
-806 -227 0
-806 -228 0
-806 -229 0
-806 -230 0
-806 -234 0
-806 -235 0
-806 -236 0
-806 -237 0
-806 -238 0
-806 -239 0
-806 -240 0
-807 -193 0
-807 -194 0
-807 -195 0
-807 -196 0
-807 -197 0
-807 -198 0
-807 -199 0
-807 -203 0
-807 -204 0
-807 -205 0
-807 -206 0
-807 -207 0
-807 -208 0
-807 -209 0
-807 -210 0
-807 -211 0
-807 -212 0
-807 -213 0
-807 -214 0
-807 -215 0
-807 -219 0
-807 -220 0
-807 -221 0
-807 -222 0
-807 -223 0
-807 -224 0
-807 -225 0
-807 -226 0
-807 -227 0
-807 -228 0
-807 -229 0
-807 -230 0
-807 -231 0
-807 -235 0
-807 -236 0
-807 -237 0
-807 -238 0
-807 -239 0
-807 -240 0
-808 -193 0
-808 -194 0
-808 -195 0
-808 -196 0
-808 -197 0
-808 -198 0
-808 -199 0
-808 -200 0
-808 -204 0
-808 -205 0
-808 -206 0
-808 -207 0
-808 -208 0
-808 -209 0
-808 -210 0
-808 -211 0
-808 -212 0
-808 -213 0
-808 -214 0
-808 -215 0
-808 -216 0
-808 -220 0
-808 -221 0
-808 -222 0
-808 -223 0
-808 -224 0
-808 -225 0
-808 -226 0
-808 -227 0
-808 -228 0
-808 -229 0
-808 -230 0
-808 -231 0
-808 -232 0
-808 -236 0
-808 -237 0
-808 -238 0
-808 -239 0
-808 -240 0
-809 -193 0
-809 -194 0
-809 -195 0
-809 -196 0
-809 -197 0
-809 -198 0
-809 -199 0
-809 -200 0
-809 -201 0
-809 -205 0
-809 -206 0
-809 -207 0
-809 -208 0
-809 -209 0
-809 -210 0
-809 -211 0
-809 -212 0
-809 -213 0
-809 -214 0
-809 -215 0
-809 -216 0
-809 -217 0
-809 -221 0
-809 -222 0
-809 -223 0
-809 -224 0
-809 -225 0
-809 -226 0
-809 -227 0
-809 -228 0
-809 -229 0
-809 -230 0
-809 -231 0
-809 -232 0
-809 -233 0
-809 -237 0
-809 -238 0
-809 -239 0
-809 -240 0
-810 -193 0
-810 -194 0
-810 -195 0
-810 -196 0
-810 -197 0
-810 -198 0
-810 -199 0
-810 -200 0
-810 -201 0
-810 -202 0
-810 -206 0
-810 -207 0
-810 -208 0
-810 -209 0
-810 -210 0
-810 -211 0
-810 -212 0
-810 -213 0
-810 -214 0
-810 -215 0
-810 -216 0
-810 -217 0
-810 -218 0
-810 -222 0
-810 -223 0
-810 -224 0
-810 -225 0
-810 -226 0
-810 -227 0
-810 -228 0
-810 -229 0
-810 -230 0
-810 -231 0
-810 -232 0
-810 -233 0
-810 -234 0
-810 -238 0
-810 -239 0
-810 -240 0
-811 -193 0
-811 -194 0
-811 -195 0
-811 -196 0
-811 -197 0
-811 -198 0
-811 -199 0
-811 -200 0
-811 -201 0
-811 -202 0
-811 -203 0
-811 -207 0
-811 -208 0
-811 -209 0
-811 -210 0
-811 -211 0
-811 -212 0
-811 -213 0
-811 -214 0
-811 -215 0
-811 -216 0
-811 -217 0
-811 -218 0
-811 -219 0
-811 -223 0
-811 -224 0
-811 -225 0
-811 -226 0
-811 -227 0
-811 -228 0
-811 -229 0
-811 -230 0
-811 -231 0
-811 -232 0
-811 -233 0
-811 -234 0
-811 -235 0
-811 -239 0
-811 -240 0
-812 -193 0
-812 -194 0
-812 -195 0
-812 -196 0
-812 -197 0
-812 -198 0
-812 -199 0
-812 -200 0
-812 -201 0
-812 -202 0
-812 -203 0
-812 -204 0
-812 -208 0
-812 -209 0
-812 -210 0
-812 -211 0
-812 -212 0
-812 -213 0
-812 -214 0
-812 -215 0
-812 -216 0
-812 -217 0
-812 -218 0
-812 -219 0
-812 -220 0
-812 -224 0
-812 -225 0
-812 -226 0
-812 -227 0
-812 -228 0
-812 -229 0
-812 -230 0
-812 -231 0
-812 -232 0
-812 -233 0
-812 -234 0
-812 -235 0
-812 -236 0
-812 -240 0
-813 -193 0
-813 -194 0
-813 -195 0
-813 -196 0
-813 -197 0
-813 -198 0
-813 -199 0
-813 -200 0
-813 -201 0
-813 -202 0
-813 -203 0
-813 -204 0
-813 -205 0
-813 -209 0
-813 -210 0
-813 -211 0
-813 -212 0
-813 -213 0
-813 -214 0
-813 -215 0
-813 -216 0
-813 -217 0
-813 -218 0
-813 -219 0
-813 -220 0
-813 -221 0
-813 -225 0
-813 -226 0
-813 -227 0
-813 -228 0
-813 -229 0
-813 -230 0
-813 -231 0
-813 -232 0
-813 -233 0
-813 -234 0
-813 -235 0
-813 -236 0
-813 -237 0
-241 -257 0
-241 -273 0
-257 -273 0
-242 -258 0
-242 -274 0
-258 -274 0
-243 -259 0
-243 -275 0
-259 -275 0
-244 -260 0
-244 -276 0
-260 -276 0
-245 -261 0
-245 -277 0
-261 -277 0
-246 -262 0
-246 -278 0
-262 -278 0
-247 -263 0
-247 -279 0
-263 -279 0
-248 -264 0
-248 -280 0
-264 -280 0
-249 -265 0
-249 -281 0
-265 -281 0
-250 -266 0
-250 -282 0
-266 -282 0
-251 -267 0
-251 -283 0
-267 -283 0
-252 -268 0
-252 -284 0
-268 -284 0
-253 -269 0
-253 -285 0
-269 -285 0
-254 -270 0
-254 -286 0
-270 -286 0
-255 -271 0
-255 -287 0
-271 -287 0
-256 -272 0
-256 -288 0
-272 -288 0
814 815 816 817 818 819 820 821 822 823 824 825 826 827 0
-814 -815 0
-814 -816 0
-814 -817 0
-814 -818 0
-814 -819 0
-814 -820 0
-814 -821 0
-814 -822 0
-814 -823 0
-814 -824 0
-814 -825 0
-814 -826 0
-814 -827 0
-815 -816 0
-815 -817 0
-815 -818 0
-815 -819 0
-815 -820 0
-815 -821 0
-815 -822 0
-815 -823 0
-815 -824 0
-815 -825 0
-815 -826 0
-815 -827 0
-816 -817 0
-816 -818 0
-816 -819 0
-816 -820 0
-816 -821 0
-816 -822 0
-816 -823 0
-816 -824 0
-816 -825 0
-816 -826 0
-816 -827 0
-817 -818 0
-817 -819 0
-817 -820 0
-817 -821 0
-817 -822 0
-817 -823 0
-817 -824 0
-817 -825 0
-817 -826 0
-817 -827 0
-818 -819 0
-818 -820 0
-818 -821 0
-818 -822 0
-818 -823 0
-818 -824 0
-818 -825 0
-818 -826 0
-818 -827 0
-819 -820 0
-819 -821 0
-819 -822 0
-819 -823 0
-819 -824 0
-819 -825 0
-819 -826 0
-819 -827 0
-820 -821 0
-820 -822 0
-820 -823 0
-820 -824 0
-820 -825 0
-820 -826 0
-820 -827 0
-821 -822 0
-821 -823 0
-821 -824 0
-821 -825 0
-821 -826 0
-821 -827 0
-822 -823 0
-822 -824 0
-822 -825 0
-822 -826 0
-822 -827 0
-823 -824 0
-823 -825 0
-823 -826 0
-823 -827 0
-824 -825 0
-824 -826 0
-824 -827 0
-825 -826 0
-825 -827 0
-826 -827 0
-241 814 0
-242 814 815 0
-243 814 815 816 0
-244 815 816 817 0
-245 816 817 818 0
-246 817 818 819 0
-247 818 819 820 0
-248 819 820 821 0
-249 820 821 822 0
-250 821 822 823 0
-251 822 823 824 0
-252 823 824 825 0
-253 824 825 826 0
-254 825 826 827 0
-255 826 827 0
-256 827 0
-257 814 0
-258 814 815 0
-259 814 815 816 0
-260 815 816 817 0
-261 816 817 818 0
-262 817 818 819 0
-263 818 819 820 0
-264 819 820 821 0
-265 820 821 822 0
-266 821 822 823 0
-267 822 823 824 0
-268 823 824 825 0
-269 824 825 826 0
-270 825 826 827 0
-271 826 827 0
-272 827 0
-273 814 0
-274 814 815 0
-275 814 815 816 0
-276 815 816 817 0
-277 816 817 818 0
-278 817 818 819 0
-279 818 819 820 0
-280 819 820 821 0
-281 820 821 822 0
-282 821 822 823 0
-283 822 823 824 0
-284 823 824 825 0
-285 824 825 826 0
-286 825 826 827 0
-287 826 827 0
-288 827 0
-814 -244 0
-814 -245 0
-814 -246 0
-814 -247 0
-814 -248 0
-814 -249 0
-814 -250 0
-814 -251 0
-814 -252 0
-814 -253 0
-814 -254 0
-814 -255 0
-814 -256 0
-814 -260 0
-814 -261 0
-814 -262 0
-814 -263 0
-814 -264 0
-814 -265 0
-814 -266 0
-814 -267 0
-814 -268 0
-814 -269 0
-814 -270 0
-814 -271 0
-814 -272 0
-814 -276 0
-814 -277 0
-814 -278 0
-814 -279 0
-814 -280 0
-814 -281 0
-814 -282 0
-814 -283 0
-814 -284 0
-814 -285 0
-814 -286 0
-814 -287 0
-814 -288 0
-815 -241 0
-815 -245 0
-815 -246 0
-815 -247 0
-815 -248 0
-815 -249 0
-815 -250 0
-815 -251 0
-815 -252 0
-815 -253 0
-815 -254 0
-815 -255 0
-815 -256 0
-815 -257 0
-815 -261 0
-815 -262 0
-815 -263 0
-815 -264 0
-815 -265 0
-815 -266 0
-815 -267 0
-815 -268 0
-815 -269 0
-815 -270 0
-815 -271 0
-815 -272 0
-815 -273 0
-815 -277 0
-815 -278 0
-815 -279 0
-815 -280 0
-815 -281 0
-815 -282 0
-815 -283 0
-815 -284 0
-815 -285 0
-815 -286 0
-815 -287 0
-815 -288 0
-816 -241 0
-816 -242 0
-816 -246 0
-816 -247 0
-816 -248 0
-816 -249 0
-816 -250 0
-816 -251 0
-816 -252 0
-816 -253 0
-816 -254 0
-816 -255 0
-816 -256 0
-816 -257 0
-816 -258 0
-816 -262 0
-816 -263 0
-816 -264 0
-816 -265 0
-816 -266 0
-816 -267 0
-816 -268 0
-816 -269 0
-816 -270 0
-816 -271 0
-816 -272 0
-816 -273 0
-816 -274 0
-816 -278 0
-816 -279 0
-816 -280 0
-816 -281 0
-816 -282 0
-816 -283 0
-816 -284 0
-816 -285 0
-816 -286 0
-816 -287 0
-816 -288 0
-817 -241 0
-817 -242 0
-817 -243 0
-817 -247 0
-817 -248 0
-817 -249 0
-817 -250 0
-817 -251 0
-817 -252 0
-817 -253 0
-817 -254 0
-817 -255 0
-817 -256 0
-817 -257 0
-817 -258 0
-817 -259 0
-817 -263 0
-817 -264 0
-817 -265 0
-817 -266 0
-817 -267 0
-817 -268 0
-817 -269 0
-817 -270 0
-817 -271 0
-817 -272 0
-817 -273 0
-817 -274 0
-817 -275 0
-817 -279 0
-817 -280 0
-817 -281 0
-817 -282 0
-817 -283 0
-817 -284 0
-817 -285 0
-817 -286 0
-817 -287 0
-817 -288 0
-818 -241 0
-818 -242 0
-818 -243 0
-818 -244 0
-818 -248 0
-818 -249 0
-818 -250 0
-818 -251 0
-818 -252 0
-818 -253 0
-818 -254 0
-818 -255 0
-818 -256 0
-818 -257 0
-818 -258 0
-818 -259 0
-818 -260 0
-818 -264 0
-818 -265 0
-818 -266 0
-818 -267 0
-818 -268 0
-818 -269 0
-818 -270 0
-818 -271 0
-818 -272 0
-818 -273 0
-818 -274 0
-818 -275 0
-818 -276 0
-818 -280 0
-818 -281 0
-818 -282 0
-818 -283 0
-818 -284 0
-818 -285 0
-818 -286 0
-818 -287 0
-818 -288 0
-819 -241 0
-819 -242 0
-819 -243 0
-819 -244 0
-819 -245 0
-819 -249 0
-819 -250 0
-819 -251 0
-819 -252 0
-819 -253 0
-819 -254 0
-819 -255 0
-819 -256 0
-819 -257 0
-819 -258 0
-819 -259 0
-819 -260 0
-819 -261 0
-819 -265 0
-819 -266 0
-819 -267 0
-819 -268 0
-819 -269 0
-819 -270 0
-819 -271 0
-819 -272 0
-819 -273 0
-819 -274 0
-819 -275 0
-819 -276 0
-819 -277 0
-819 -281 0
-819 -282 0
-819 -283 0
-819 -284 0
-819 -285 0
-819 -286 0
-819 -287 0
-819 -288 0
-820 -241 0
-820 -242 0
-820 -243 0
-820 -244 0
-820 -245 0
-820 -246 0
-820 -250 0
-820 -251 0
-820 -252 0
-820 -253 0
-820 -254 0
-820 -255 0
-820 -256 0
-820 -257 0
-820 -258 0
-820 -259 0
-820 -260 0
-820 -261 0
-820 -262 0
-820 -266 0
-820 -267 0
-820 -268 0
-820 -269 0
-820 -270 0
-820 -271 0
-820 -272 0
-820 -273 0
-820 -274 0
-820 -275 0
-820 -276 0
-820 -277 0
-820 -278 0
-820 -282 0
-820 -283 0
-820 -284 0
-820 -285 0
-820 -286 0
-820 -287 0
-820 -288 0
-821 -241 0
-821 -242 0
-821 -243 0
-821 -244 0
-821 -245 0
-821 -246 0
-821 -247 0
-821 -251 0
-821 -252 0
-821 -253 0
-821 -254 0
-821 -255 0
-821 -256 0
-821 -257 0
-821 -258 0
-821 -259 0
-821 -260 0
-821 -261 0
-821 -262 0
-821 -263 0
-821 -267 0
-821 -268 0
-821 -269 0
-821 -270 0
-821 -271 0
-821 -272 0
-821 -273 0
-821 -274 0
-821 -275 0
-821 -276 0
-821 -277 0
-821 -278 0
-821 -279 0
-821 -283 0
-821 -284 0
-821 -285 0
-821 -286 0
-821 -287 0
-821 -288 0
-822 -241 0
-822 -242 0
-822 -243 0
-822 -244 0
-822 -245 0
-822 -246 0
-822 -247 0
-822 -248 0
-822 -252 0
-822 -253 0
-822 -254 0
-822 -255 0
-822 -256 0
-822 -257 0
-822 -258 0
-822 -259 0
-822 -260 0
-822 -261 0
-822 -262 0
-822 -263 0
-822 -264 0
-822 -268 0
-822 -269 0
-822 -270 0
-822 -271 0
-822 -272 0
-822 -273 0
-822 -274 0
-822 -275 0
-822 -276 0
-822 -277 0
-822 -278 0
-822 -279 0
-822 -280 0
-822 -284 0
-822 -285 0
-822 -286 0
-822 -287 0
-822 -288 0
-823 -241 0
-823 -242 0
-823 -243 0
-823 -244 0
-823 -245 0
-823 -246 0
-823 -247 0
-823 -248 0
-823 -249 0
-823 -253 0
-823 -254 0
-823 -255 0
-823 -256 0
-823 -257 0
-823 -258 0
-823 -259 0
-823 -260 0
-823 -261 0
-823 -262 0
-823 -263 0
-823 -264 0
-823 -265 0
-823 -269 0
-823 -270 0
-823 -271 0
-823 -272 0
-823 -273 0
-823 -274 0
-823 -275 0
-823 -276 0
-823 -277 0
-823 -278 0
-823 -279 0
-823 -280 0
-823 -281 0
-823 -285 0
-823 -286 0
-823 -287 0
-823 -288 0
-824 -241 0
-824 -242 0
-824 -243 0
-824 -244 0
-824 -245 0
-824 -246 0
-824 -247 0
-824 -248 0
-824 -249 0
-824 -250 0
-824 -254 0
-824 -255 0
-824 -256 0
-824 -257 0
-824 -258 0
-824 -259 0
-824 -260 0
-824 -261 0
-824 -262 0
-824 -263 0
-824 -264 0
-824 -265 0
-824 -266 0
-824 -270 0
-824 -271 0
-824 -272 0
-824 -273 0
-824 -274 0
-824 -275 0
-824 -276 0
-824 -277 0
-824 -278 0
-824 -279 0
-824 -280 0
-824 -281 0
-824 -282 0
-824 -286 0
-824 -287 0
-824 -288 0
-825 -241 0
-825 -242 0
-825 -243 0
-825 -244 0
-825 -245 0
-825 -246 0
-825 -247 0
-825 -248 0
-825 -249 0
-825 -250 0
-825 -251 0
-825 -255 0
-825 -256 0
-825 -257 0
-825 -258 0
-825 -259 0
-825 -260 0
-825 -261 0
-825 -262 0
-825 -263 0
-825 -264 0
-825 -265 0
-825 -266 0
-825 -267 0
-825 -271 0
-825 -272 0
-825 -273 0
-825 -274 0
-825 -275 0
-825 -276 0
-825 -277 0
-825 -278 0
-825 -279 0
-825 -280 0
-825 -281 0
-825 -282 0
-825 -283 0
-825 -287 0
-825 -288 0
-826 -241 0
-826 -242 0
-826 -243 0
-826 -244 0
-826 -245 0
-826 -246 0
-826 -247 0
-826 -248 0
-826 -249 0
-826 -250 0
-826 -251 0
-826 -252 0
-826 -256 0
-826 -257 0
-826 -258 0
-826 -259 0
-826 -260 0
-826 -261 0
-826 -262 0
-826 -263 0
-826 -264 0
-826 -265 0
-826 -266 0
-826 -267 0
-826 -268 0
-826 -272 0
-826 -273 0
-826 -274 0
-826 -275 0
-826 -276 0
-826 -277 0
-826 -278 0
-826 -279 0
-826 -280 0
-826 -281 0
-826 -282 0
-826 -283 0
-826 -284 0
-826 -288 0
-827 -241 0
-827 -242 0
-827 -243 0
-827 -244 0
-827 -245 0
-827 -246 0
-827 -247 0
-827 -248 0
-827 -249 0
-827 -250 0
-827 -251 0
-827 -252 0
-827 -253 0
-827 -257 0
-827 -258 0
-827 -259 0
-827 -260 0
-827 -261 0
-827 -262 0
-827 -263 0
-827 -264 0
-827 -265 0
-827 -266 0
-827 -267 0
-827 -268 0
-827 -269 0
-827 -273 0
-827 -274 0
-827 -275 0
-827 -276 0
-827 -277 0
-827 -278 0
-827 -279 0
-827 -280 0
-827 -281 0
-827 -282 0
-827 -283 0
-827 -284 0
-827 -285 0
-289 -305 0
-289 -321 0
-305 -321 0
-290 -306 0
-290 -322 0
-306 -322 0
-291 -307 0
-291 -323 0
-307 -323 0
-292 -308 0
-292 -324 0
-308 -324 0
-293 -309 0
-293 -325 0
-309 -325 0
-294 -310 0
-294 -326 0
-310 -326 0
-295 -311 0
-295 -327 0
-311 -327 0
-296 -312 0
-296 -328 0
-312 -328 0
-297 -313 0
-297 -329 0
-313 -329 0
-298 -314 0
-298 -330 0
-314 -330 0
-299 -315 0
-299 -331 0
-315 -331 0
-300 -316 0
-300 -332 0
-316 -332 0
-301 -317 0
-301 -333 0
-317 -333 0
-302 -318 0
-302 -334 0
-318 -334 0
-303 -319 0
-303 -335 0
-319 -335 0
-304 -320 0
-304 -336 0
-320 -336 0
828 829 830 831 832 833 834 835 836 837 838 839 840 841 0
-828 -829 0
-828 -830 0
-828 -831 0
-828 -832 0
-828 -833 0
-828 -834 0
-828 -835 0
-828 -836 0
-828 -837 0
-828 -838 0
-828 -839 0
-828 -840 0
-828 -841 0
-829 -830 0
-829 -831 0
-829 -832 0
-829 -833 0
-829 -834 0
-829 -835 0
-829 -836 0
-829 -837 0
-829 -838 0
-829 -839 0
-829 -840 0
-829 -841 0
-830 -831 0
-830 -832 0
-830 -833 0
-830 -834 0
-830 -835 0
-830 -836 0
-830 -837 0
-830 -838 0
-830 -839 0
-830 -840 0
-830 -841 0
-831 -832 0
-831 -833 0
-831 -834 0
-831 -835 0
-831 -836 0
-831 -837 0
-831 -838 0
-831 -839 0
-831 -840 0
-831 -841 0
-832 -833 0
-832 -834 0
-832 -835 0
-832 -836 0
-832 -837 0
-832 -838 0
-832 -839 0
-832 -840 0
-832 -841 0
-833 -834 0
-833 -835 0
-833 -836 0
-833 -837 0
-833 -838 0
-833 -839 0
-833 -840 0
-833 -841 0
-834 -835 0
-834 -836 0
-834 -837 0
-834 -838 0
-834 -839 0
-834 -840 0
-834 -841 0
-835 -836 0
-835 -837 0
-835 -838 0
-835 -839 0
-835 -840 0
-835 -841 0
-836 -837 0
-836 -838 0
-836 -839 0
-836 -840 0
-836 -841 0
-837 -838 0
-837 -839 0
-837 -840 0
-837 -841 0
-838 -839 0
-838 -840 0
-838 -841 0
-839 -840 0
-839 -841 0
-840 -841 0
-289 828 0
-290 828 829 0
-291 828 829 830 0
-292 829 830 831 0
-293 830 831 832 0
-294 831 832 833 0
-295 832 833 834 0
-296 833 834 835 0
-297 834 835 836 0
-298 835 836 837 0
-299 836 837 838 0
-300 837 838 839 0
-301 838 839 840 0
-302 839 840 841 0
-303 840 841 0
-304 841 0
-305 828 0
-306 828 829 0
-307 828 829 830 0
-308 829 830 831 0
-309 830 831 832 0
-310 831 832 833 0
-311 832 833 834 0
-312 833 834 835 0
-313 834 835 836 0
-314 835 836 837 0
-315 836 837 838 0
-316 837 838 839 0
-317 838 839 840 0
-318 839 840 841 0
-319 840 841 0
-320 841 0
-321 828 0
-322 828 829 0
-323 828 829 830 0
-324 829 830 831 0
-325 830 831 832 0
-326 831 832 833 0
-327 832 833 834 0
-328 833 834 835 0
-329 834 835 836 0
-330 835 836 837 0
-331 836 837 838 0
-332 837 838 839 0
-333 838 839 840 0
-334 839 840 841 0
-335 840 841 0
-336 841 0
-828 -292 0
-828 -293 0
-828 -294 0
-828 -295 0
-828 -296 0
-828 -297 0
-828 -298 0
-828 -299 0
-828 -300 0
-828 -301 0
-828 -302 0
-828 -303 0
-828 -304 0
-828 -308 0
-828 -309 0
-828 -310 0
-828 -311 0
-828 -312 0
-828 -313 0
-828 -314 0
-828 -315 0
-828 -316 0
-828 -317 0
-828 -318 0
-828 -319 0
-828 -320 0
-828 -324 0
-828 -325 0
-828 -326 0
-828 -327 0
-828 -328 0
-828 -329 0
-828 -330 0
-828 -331 0
-828 -332 0
-828 -333 0
-828 -334 0
-828 -335 0
-828 -336 0
-829 -289 0
-829 -293 0
-829 -294 0
-829 -295 0
-829 -296 0
-829 -297 0
-829 -298 0
-829 -299 0
-829 -300 0
-829 -301 0
-829 -302 0
-829 -303 0
-829 -304 0
-829 -305 0
-829 -309 0
-829 -310 0
-829 -311 0
-829 -312 0
-829 -313 0
-829 -314 0
-829 -315 0
-829 -316 0
-829 -317 0
-829 -318 0
-829 -319 0
-829 -320 0
-829 -321 0
-829 -325 0
-829 -326 0
-829 -327 0
-829 -328 0
-829 -329 0
-829 -330 0
-829 -331 0
-829 -332 0
-829 -333 0
-829 -334 0
-829 -335 0
-829 -336 0
-830 -289 0
-830 -290 0
-830 -294 0
-830 -295 0
-830 -296 0
-830 -297 0
-830 -298 0
-830 -299 0
-830 -300 0
-830 -301 0
-830 -302 0
-830 -303 0
-830 -304 0
-830 -305 0
-830 -306 0
-830 -310 0
-830 -311 0
-830 -312 0
-830 -313 0
-830 -314 0
-830 -315 0
-830 -316 0
-830 -317 0
-830 -318 0
-830 -319 0
-830 -320 0
-830 -321 0
-830 -322 0
-830 -326 0
-830 -327 0
-830 -328 0
-830 -329 0
-830 -330 0
-830 -331 0
-830 -332 0
-830 -333 0
-830 -334 0
-830 -335 0
-830 -336 0
-831 -289 0
-831 -290 0
-831 -291 0
-831 -295 0
-831 -296 0
-831 -297 0
-831 -298 0
-831 -299 0
-831 -300 0
-831 -301 0
-831 -302 0
-831 -303 0
-831 -304 0
-831 -305 0
-831 -306 0
-831 -307 0
-831 -311 0
-831 -312 0
-831 -313 0
-831 -314 0
-831 -315 0
-831 -316 0
-831 -317 0
-831 -318 0
-831 -319 0
-831 -320 0
-831 -321 0
-831 -322 0
-831 -323 0
-831 -327 0
-831 -328 0
-831 -329 0
-831 -330 0
-831 -331 0
-831 -332 0
-831 -333 0
-831 -334 0
-831 -335 0
-831 -336 0
-832 -289 0
-832 -290 0
-832 -291 0
-832 -292 0
-832 -296 0
-832 -297 0
-832 -298 0
-832 -299 0
-832 -300 0
-832 -301 0
-832 -302 0
-832 -303 0
-832 -304 0
-832 -305 0
-832 -306 0
-832 -307 0
-832 -308 0
-832 -312 0
-832 -313 0
-832 -314 0
-832 -315 0
-832 -316 0
-832 -317 0
-832 -318 0
-832 -319 0
-832 -320 0
-832 -321 0
-832 -322 0
-832 -323 0
-832 -324 0
-832 -328 0
-832 -329 0
-832 -330 0
-832 -331 0
-832 -332 0
-832 -333 0
-832 -334 0
-832 -335 0
-832 -336 0
-833 -289 0
-833 -290 0
-833 -291 0
-833 -292 0
-833 -293 0
-833 -297 0
-833 -298 0
-833 -299 0
-833 -300 0
-833 -301 0
-833 -302 0
-833 -303 0
-833 -304 0
-833 -305 0
-833 -306 0
-833 -307 0
-833 -308 0
-833 -309 0
-833 -313 0
-833 -314 0
-833 -315 0
-833 -316 0
-833 -317 0
-833 -318 0
-833 -319 0
-833 -320 0
-833 -321 0
-833 -322 0
-833 -323 0
-833 -324 0
-833 -325 0
-833 -329 0
-833 -330 0
-833 -331 0
-833 -332 0
-833 -333 0
-833 -334 0
-833 -335 0
-833 -336 0
-834 -289 0
-834 -290 0
-834 -291 0
-834 -292 0
-834 -293 0
-834 -294 0
-834 -298 0
-834 -299 0
-834 -300 0
-834 -301 0
-834 -302 0
-834 -303 0
-834 -304 0
-834 -305 0
-834 -306 0
-834 -307 0
-834 -308 0
-834 -309 0
-834 -310 0
-834 -314 0
-834 -315 0
-834 -316 0
-834 -317 0
-834 -318 0
-834 -319 0
-834 -320 0
-834 -321 0
-834 -322 0
-834 -323 0
-834 -324 0
-834 -325 0
-834 -326 0
-834 -330 0
-834 -331 0
-834 -332 0
-834 -333 0
-834 -334 0
-834 -335 0
-834 -336 0
-835 -289 0
-835 -290 0
-835 -291 0
-835 -292 0
-835 -293 0
-835 -294 0
-835 -295 0
-835 -299 0
-835 -300 0
-835 -301 0
-835 -302 0
-835 -303 0
-835 -304 0
-835 -305 0
-835 -306 0
-835 -307 0
-835 -308 0
-835 -309 0
-835 -310 0
-835 -311 0
-835 -315 0
-835 -316 0
-835 -317 0
-835 -318 0
-835 -319 0
-835 -320 0
-835 -321 0
-835 -322 0
-835 -323 0
-835 -324 0
-835 -325 0
-835 -326 0
-835 -327 0
-835 -331 0
-835 -332 0
-835 -333 0
-835 -334 0
-835 -335 0
-835 -336 0
-836 -289 0
-836 -290 0
-836 -291 0
-836 -292 0
-836 -293 0
-836 -294 0
-836 -295 0
-836 -296 0
-836 -300 0
-836 -301 0
-836 -302 0
-836 -303 0
-836 -304 0
-836 -305 0
-836 -306 0
-836 -307 0
-836 -308 0
-836 -309 0
-836 -310 0
-836 -311 0
-836 -312 0
-836 -316 0
-836 -317 0
-836 -318 0
-836 -319 0
-836 -320 0
-836 -321 0
-836 -322 0
-836 -323 0
-836 -324 0
-836 -325 0
-836 -326 0
-836 -327 0
-836 -328 0
-836 -332 0
-836 -333 0
-836 -334 0
-836 -335 0
-836 -336 0
-837 -289 0
-837 -290 0
-837 -291 0
-837 -292 0
-837 -293 0
-837 -294 0
-837 -295 0
-837 -296 0
-837 -297 0
-837 -301 0
-837 -302 0
-837 -303 0
-837 -304 0
-837 -305 0
-837 -306 0
-837 -307 0
-837 -308 0
-837 -309 0
-837 -310 0
-837 -311 0
-837 -312 0
-837 -313 0
-837 -317 0
-837 -318 0
-837 -319 0
-837 -320 0
-837 -321 0
-837 -322 0
-837 -323 0
-837 -324 0
-837 -325 0
-837 -326 0
-837 -327 0
-837 -328 0
-837 -329 0
-837 -333 0
-837 -334 0
-837 -335 0
-837 -336 0
-838 -289 0
-838 -290 0
-838 -291 0
-838 -292 0
-838 -293 0
-838 -294 0
-838 -295 0
-838 -296 0
-838 -297 0
-838 -298 0
-838 -302 0
-838 -303 0
-838 -304 0
-838 -305 0
-838 -306 0
-838 -307 0
-838 -308 0
-838 -309 0
-838 -310 0
-838 -311 0
-838 -312 0
-838 -313 0
-838 -314 0
-838 -318 0
-838 -319 0
-838 -320 0
-838 -321 0
-838 -322 0
-838 -323 0
-838 -324 0
-838 -325 0
-838 -326 0
-838 -327 0
-838 -328 0
-838 -329 0
-838 -330 0
-838 -334 0
-838 -335 0
-838 -336 0
-839 -289 0
-839 -290 0
-839 -291 0
-839 -292 0
-839 -293 0
-839 -294 0
-839 -295 0
-839 -296 0
-839 -297 0
-839 -298 0
-839 -299 0
-839 -303 0
-839 -304 0
-839 -305 0
-839 -306 0
-839 -307 0
-839 -308 0
-839 -309 0
-839 -310 0
-839 -311 0
-839 -312 0
-839 -313 0
-839 -314 0
-839 -315 0
-839 -319 0
-839 -320 0
-839 -321 0
-839 -322 0
-839 -323 0
-839 -324 0
-839 -325 0
-839 -326 0
-839 -327 0
-839 -328 0
-839 -329 0
-839 -330 0
-839 -331 0
-839 -335 0
-839 -336 0
-840 -289 0
-840 -290 0
-840 -291 0
-840 -292 0
-840 -293 0
-840 -294 0
-840 -295 0
-840 -296 0
-840 -297 0
-840 -298 0
-840 -299 0
-840 -300 0
-840 -304 0
-840 -305 0
-840 -306 0
-840 -307 0
-840 -308 0
-840 -309 0
-840 -310 0
-840 -311 0
-840 -312 0
-840 -313 0
-840 -314 0
-840 -315 0
-840 -316 0
-840 -320 0
-840 -321 0
-840 -322 0
-840 -323 0
-840 -324 0
-840 -325 0
-840 -326 0
-840 -327 0
-840 -328 0
-840 -329 0
-840 -330 0
-840 -331 0
-840 -332 0
-840 -336 0
-841 -289 0
-841 -290 0
-841 -291 0
-841 -292 0
-841 -293 0
-841 -294 0
-841 -295 0
-841 -296 0
-841 -297 0
-841 -298 0
-841 -299 0
-841 -300 0
-841 -301 0
-841 -305 0
-841 -306 0
-841 -307 0
-841 -308 0
-841 -309 0
-841 -310 0
-841 -311 0
-841 -312 0
-841 -313 0
-841 -314 0
-841 -315 0
-841 -316 0
-841 -317 0
-841 -321 0
-841 -322 0
-841 -323 0
-841 -324 0
-841 -325 0
-841 -326 0
-841 -327 0
-841 -328 0
-841 -329 0
-841 -330 0
-841 -331 0
-841 -332 0
-841 -333 0
-337 -353 0
-337 -369 0
-353 -369 0
-338 -354 0
-338 -370 0
-354 -370 0
-339 -355 0
-339 -371 0
-355 -371 0
-340 -356 0
-340 -372 0
-356 -372 0
-341 -357 0
-341 -373 0
-357 -373 0
-342 -358 0
-342 -374 0
-358 -374 0
-343 -359 0
-343 -375 0
-359 -375 0
-344 -360 0
-344 -376 0
-360 -376 0
-345 -361 0
-345 -377 0
-361 -377 0
-346 -362 0
-346 -378 0
-362 -378 0
-347 -363 0
-347 -379 0
-363 -379 0
-348 -364 0
-348 -380 0
-364 -380 0
-349 -365 0
-349 -381 0
-365 -381 0
-350 -366 0
-350 -382 0
-366 -382 0
-351 -367 0
-351 -383 0
-367 -383 0
-352 -368 0
-352 -384 0
-368 -384 0
842 843 844 845 846 847 848 849 850 851 852 853 854 855 0
-842 -843 0
-842 -844 0
-842 -845 0
-842 -846 0
-842 -847 0
-842 -848 0
-842 -849 0
-842 -850 0
-842 -851 0
-842 -852 0
-842 -853 0
-842 -854 0
-842 -855 0
-843 -844 0
-843 -845 0
-843 -846 0
-843 -847 0
-843 -848 0
-843 -849 0
-843 -850 0
-843 -851 0
-843 -852 0
-843 -853 0
-843 -854 0
-843 -855 0
-844 -845 0
-844 -846 0
-844 -847 0
-844 -848 0
-844 -849 0
-844 -850 0
-844 -851 0
-844 -852 0
-844 -853 0
-844 -854 0
-844 -855 0
-845 -846 0
-845 -847 0
-845 -848 0
-845 -849 0
-845 -850 0
-845 -851 0
-845 -852 0
-845 -853 0
-845 -854 0
-845 -855 0
-846 -847 0
-846 -848 0
-846 -849 0
-846 -850 0
-846 -851 0
-846 -852 0
-846 -853 0
-846 -854 0
-846 -855 0
-847 -848 0
-847 -849 0
-847 -850 0
-847 -851 0
-847 -852 0
-847 -853 0
-847 -854 0
-847 -855 0
-848 -849 0
-848 -850 0
-848 -851 0
-848 -852 0
-848 -853 0
-848 -854 0
-848 -855 0
-849 -850 0
-849 -851 0
-849 -852 0
-849 -853 0
-849 -854 0
-849 -855 0
-850 -851 0
-850 -852 0
-850 -853 0
-850 -854 0
-850 -855 0
-851 -852 0
-851 -853 0
-851 -854 0
-851 -855 0
-852 -853 0
-852 -854 0
-852 -855 0
-853 -854 0
-853 -855 0
-854 -855 0
-337 842 0
-338 842 843 0
-339 842 843 844 0
-340 843 844 845 0
-341 844 845 846 0
-342 845 846 847 0
-343 846 847 848 0
-344 847 848 849 0
-345 848 849 850 0
-346 849 850 851 0
-347 850 851 852 0
-348 851 852 853 0
-349 852 853 854 0
-350 853 854 855 0
-351 854 855 0
-352 855 0
-353 842 0
-354 842 843 0
-355 842 843 844 0
-356 843 844 845 0
-357 844 845 846 0
-358 845 846 847 0
-359 846 847 848 0
-360 847 848 849 0
-361 848 849 850 0
-362 849 850 851 0
-363 850 851 852 0
-364 851 852 853 0
-365 852 853 854 0
-366 853 854 855 0
-367 854 855 0
-368 855 0
-369 842 0
-370 842 843 0
-371 842 843 844 0
-372 843 844 845 0
-373 844 845 846 0
-374 845 846 847 0
-375 846 847 848 0
-376 847 848 849 0
-377 848 849 850 0
-378 849 850 851 0
-379 850 851 852 0
-380 851 852 853 0
-381 852 853 854 0
-382 853 854 855 0
-383 854 855 0
-384 855 0
-842 -340 0
-842 -341 0
-842 -342 0
-842 -343 0
-842 -344 0
-842 -345 0
-842 -346 0
-842 -347 0
-842 -348 0
-842 -349 0
-842 -350 0
-842 -351 0
-842 -352 0
-842 -356 0
-842 -357 0
-842 -358 0
-842 -359 0
-842 -360 0
-842 -361 0
-842 -362 0
-842 -363 0
-842 -364 0
-842 -365 0
-842 -366 0
-842 -367 0
-842 -368 0
-842 -372 0
-842 -373 0
-842 -374 0
-842 -375 0
-842 -376 0
-842 -377 0
-842 -378 0
-842 -379 0
-842 -380 0
-842 -381 0
-842 -382 0
-842 -383 0
-842 -384 0
-843 -337 0
-843 -341 0
-843 -342 0
-843 -343 0
-843 -344 0
-843 -345 0
-843 -346 0
-843 -347 0
-843 -348 0
-843 -349 0
-843 -350 0
-843 -351 0
-843 -352 0
-843 -353 0
-843 -357 0
-843 -358 0
-843 -359 0
-843 -360 0
-843 -361 0
-843 -362 0
-843 -363 0
-843 -364 0
-843 -365 0
-843 -366 0
-843 -367 0
-843 -368 0
-843 -369 0
-843 -373 0
-843 -374 0
-843 -375 0
-843 -376 0
-843 -377 0
-843 -378 0
-843 -379 0
-843 -380 0
-843 -381 0
-843 -382 0
-843 -383 0
-843 -384 0
-844 -337 0
-844 -338 0
-844 -342 0
-844 -343 0
-844 -344 0
-844 -345 0
-844 -346 0
-844 -347 0
-844 -348 0
-844 -349 0
-844 -350 0
-844 -351 0
-844 -352 0
-844 -353 0
-844 -354 0
-844 -358 0
-844 -359 0
-844 -360 0
-844 -361 0
-844 -362 0
-844 -363 0
-844 -364 0
-844 -365 0
-844 -366 0
-844 -367 0
-844 -368 0
-844 -369 0
-844 -370 0
-844 -374 0
-844 -375 0
-844 -376 0
-844 -377 0
-844 -378 0
-844 -379 0
-844 -380 0
-844 -381 0
-844 -382 0
-844 -383 0
-844 -384 0
-845 -337 0
-845 -338 0
-845 -339 0
-845 -343 0
-845 -344 0
-845 -345 0
-845 -346 0
-845 -347 0
-845 -348 0
-845 -349 0
-845 -350 0
-845 -351 0
-845 -352 0
-845 -353 0
-845 -354 0
-845 -355 0
-845 -359 0
-845 -360 0
-845 -361 0
-845 -362 0
-845 -363 0
-845 -364 0
-845 -365 0
-845 -366 0
-845 -367 0
-845 -368 0
-845 -369 0
-845 -370 0
-845 -371 0
-845 -375 0
-845 -376 0
-845 -377 0
-845 -378 0
-845 -379 0
-845 -380 0
-845 -381 0
-845 -382 0
-845 -383 0
-845 -384 0
-846 -337 0
-846 -338 0
-846 -339 0
-846 -340 0
-846 -344 0
-846 -345 0
-846 -346 0
-846 -347 0
-846 -348 0
-846 -349 0
-846 -350 0
-846 -351 0
-846 -352 0
-846 -353 0
-846 -354 0
-846 -355 0
-846 -356 0
-846 -360 0
-846 -361 0
-846 -362 0
-846 -363 0
-846 -364 0
-846 -365 0
-846 -366 0
-846 -367 0
-846 -368 0
-846 -369 0
-846 -370 0
-846 -371 0
-846 -372 0
-846 -376 0
-846 -377 0
-846 -378 0
-846 -379 0
-846 -380 0
-846 -381 0
-846 -382 0
-846 -383 0
-846 -384 0
-847 -337 0
-847 -338 0
-847 -339 0
-847 -340 0
-847 -341 0
-847 -345 0
-847 -346 0
-847 -347 0
-847 -348 0
-847 -349 0
-847 -350 0
-847 -351 0
-847 -352 0
-847 -353 0
-847 -354 0
-847 -355 0
-847 -356 0
-847 -357 0
-847 -361 0
-847 -362 0
-847 -363 0
-847 -364 0
-847 -365 0
-847 -366 0
-847 -367 0
-847 -368 0
-847 -369 0
-847 -370 0
-847 -371 0
-847 -372 0
-847 -373 0
-847 -377 0
-847 -378 0
-847 -379 0
-847 -380 0
-847 -381 0
-847 -382 0
-847 -383 0
-847 -384 0
-848 -337 0
-848 -338 0
-848 -339 0
-848 -340 0
-848 -341 0
-848 -342 0
-848 -346 0
-848 -347 0
-848 -348 0
-848 -349 0
-848 -350 0
-848 -351 0
-848 -352 0
-848 -353 0
-848 -354 0
-848 -355 0
-848 -356 0
-848 -357 0
-848 -358 0
-848 -362 0
-848 -363 0
-848 -364 0
-848 -365 0
-848 -366 0
-848 -367 0
-848 -368 0
-848 -369 0
-848 -370 0
-848 -371 0
-848 -372 0
-848 -373 0
-848 -374 0
-848 -378 0
-848 -379 0
-848 -380 0
-848 -381 0
-848 -382 0
-848 -383 0
-848 -384 0
-849 -337 0
-849 -338 0
-849 -339 0
-849 -340 0
-849 -341 0
-849 -342 0
-849 -343 0
-849 -347 0
-849 -348 0
-849 -349 0
-849 -350 0
-849 -351 0
-849 -352 0
-849 -353 0
-849 -354 0
-849 -355 0
-849 -356 0
-849 -357 0
-849 -358 0
-849 -359 0
-849 -363 0
-849 -364 0
-849 -365 0
-849 -366 0
-849 -367 0
-849 -368 0
-849 -369 0
-849 -370 0
-849 -371 0
-849 -372 0
-849 -373 0
-849 -374 0
-849 -375 0
-849 -379 0
-849 -380 0
-849 -381 0
-849 -382 0
-849 -383 0
-849 -384 0
-850 -337 0
-850 -338 0
-850 -339 0
-850 -340 0
-850 -341 0
-850 -342 0
-850 -343 0
-850 -344 0
-850 -348 0
-850 -349 0
-850 -350 0
-850 -351 0
-850 -352 0
-850 -353 0
-850 -354 0
-850 -355 0
-850 -356 0
-850 -357 0
-850 -358 0
-850 -359 0
-850 -360 0
-850 -364 0
-850 -365 0
-850 -366 0
-850 -367 0
-850 -368 0
-850 -369 0
-850 -370 0
-850 -371 0
-850 -372 0
-850 -373 0
-850 -374 0
-850 -375 0
-850 -376 0
-850 -380 0
-850 -381 0
-850 -382 0
-850 -383 0
-850 -384 0
-851 -337 0
-851 -338 0
-851 -339 0
-851 -340 0
-851 -341 0
-851 -342 0
-851 -343 0
-851 -344 0
-851 -345 0
-851 -349 0
-851 -350 0
-851 -351 0
-851 -352 0
-851 -353 0
-851 -354 0
-851 -355 0
-851 -356 0
-851 -357 0
-851 -358 0
-851 -359 0
-851 -360 0
-851 -361 0
-851 -365 0
-851 -366 0
-851 -367 0
-851 -368 0
-851 -369 0
-851 -370 0
-851 -371 0
-851 -372 0
-851 -373 0
-851 -374 0
-851 -375 0
-851 -376 0
-851 -377 0
-851 -381 0
-851 -382 0
-851 -383 0
-851 -384 0
-852 -337 0
-852 -338 0
-852 -339 0
-852 -340 0
-852 -341 0
-852 -342 0
-852 -343 0
-852 -344 0
-852 -345 0
-852 -346 0
-852 -350 0
-852 -351 0
-852 -352 0
-852 -353 0
-852 -354 0
-852 -355 0
-852 -356 0
-852 -357 0
-852 -358 0
-852 -359 0
-852 -360 0
-852 -361 0
-852 -362 0
-852 -366 0
-852 -367 0
-852 -368 0
-852 -369 0
-852 -370 0
-852 -371 0
-852 -372 0
-852 -373 0
-852 -374 0
-852 -375 0
-852 -376 0
-852 -377 0
-852 -378 0
-852 -382 0
-852 -383 0
-852 -384 0
-853 -337 0
-853 -338 0
-853 -339 0
-853 -340 0
-853 -341 0
-853 -342 0
-853 -343 0
-853 -344 0
-853 -345 0
-853 -346 0
-853 -347 0
-853 -351 0
-853 -352 0
-853 -353 0
-853 -354 0
-853 -355 0
-853 -356 0
-853 -357 0
-853 -358 0
-853 -359 0
-853 -360 0
-853 -361 0
-853 -362 0
-853 -363 0
-853 -367 0
-853 -368 0
-853 -369 0
-853 -370 0
-853 -371 0
-853 -372 0
-853 -373 0
-853 -374 0
-853 -375 0
-853 -376 0
-853 -377 0
-853 -378 0
-853 -379 0
-853 -383 0
-853 -384 0
-854 -337 0
-854 -338 0
-854 -339 0
-854 -340 0
-854 -341 0
-854 -342 0
-854 -343 0
-854 -344 0
-854 -345 0
-854 -346 0
-854 -347 0
-854 -348 0
-854 -352 0
-854 -353 0
-854 -354 0
-854 -355 0
-854 -356 0
-854 -357 0
-854 -358 0
-854 -359 0
-854 -360 0
-854 -361 0
-854 -362 0
-854 -363 0
-854 -364 0
-854 -368 0
-854 -369 0
-854 -370 0
-854 -371 0
-854 -372 0
-854 -373 0
-854 -374 0
-854 -375 0
-854 -376 0
-854 -377 0
-854 -378 0
-854 -379 0
-854 -380 0
-854 -384 0
-855 -337 0
-855 -338 0
-855 -339 0
-855 -340 0
-855 -341 0
-855 -342 0
-855 -343 0
-855 -344 0
-855 -345 0
-855 -346 0
-855 -347 0
-855 -348 0
-855 -349 0
-855 -353 0
-855 -354 0
-855 -355 0
-855 -356 0
-855 -357 0
-855 -358 0
-855 -359 0
-855 -360 0
-855 -361 0
-855 -362 0
-855 -363 0
-855 -364 0
-855 -365 0
-855 -369 0
-855 -370 0
-855 -371 0
-855 -372 0
-855 -373 0
-855 -374 0
-855 -375 0
-855 -376 0
-855 -377 0
-855 -378 0
-855 -379 0
-855 -380 0
-855 -381 0
-385 -401 0
-385 -417 0
-401 -417 0
-386 -402 0
-386 -418 0
-402 -418 0
-387 -403 0
-387 -419 0
-403 -419 0
-388 -404 0
-388 -420 0
-404 -420 0
-389 -405 0
-389 -421 0
-405 -421 0
-390 -406 0
-390 -422 0
-406 -422 0
-391 -407 0
-391 -423 0
-407 -423 0
-392 -408 0
-392 -424 0
-408 -424 0
-393 -409 0
-393 -425 0
-409 -425 0
-394 -410 0
-394 -426 0
-410 -426 0
-395 -411 0
-395 -427 0
-411 -427 0
-396 -412 0
-396 -428 0
-412 -428 0
-397 -413 0
-397 -429 0
-413 -429 0
-398 -414 0
-398 -430 0
-414 -430 0
-399 -415 0
-399 -431 0
-415 -431 0
-400 -416 0
-400 -432 0
-416 -432 0
856 857 858 859 860 861 862 863 864 865 866 867 868 869 0
-856 -857 0
-856 -858 0
-856 -859 0
-856 -860 0
-856 -861 0
-856 -862 0
-856 -863 0
-856 -864 0
-856 -865 0
-856 -866 0
-856 -867 0
-856 -868 0
-856 -869 0
-857 -858 0
-857 -859 0
-857 -860 0
-857 -861 0
-857 -862 0
-857 -863 0
-857 -864 0
-857 -865 0
-857 -866 0
-857 -867 0
-857 -868 0
-857 -869 0
-858 -859 0
-858 -860 0
-858 -861 0
-858 -862 0
-858 -863 0
-858 -864 0
-858 -865 0
-858 -866 0
-858 -867 0
-858 -868 0
-858 -869 0
-859 -860 0
-859 -861 0
-859 -862 0
-859 -863 0
-859 -864 0
-859 -865 0
-859 -866 0
-859 -867 0
-859 -868 0
-859 -869 0
-860 -861 0
-860 -862 0
-860 -863 0
-860 -864 0
-860 -865 0
-860 -866 0
-860 -867 0
-860 -868 0
-860 -869 0
-861 -862 0
-861 -863 0
-861 -864 0
-861 -865 0
-861 -866 0
-861 -867 0
-861 -868 0
-861 -869 0
-862 -863 0
-862 -864 0
-862 -865 0
-862 -866 0
-862 -867 0
-862 -868 0
-862 -869 0
-863 -864 0
-863 -865 0
-863 -866 0
-863 -867 0
-863 -868 0
-863 -869 0
-864 -865 0
-864 -866 0
-864 -867 0
-864 -868 0
-864 -869 0
-865 -866 0
-865 -867 0
-865 -868 0
-865 -869 0
-866 -867 0
-866 -868 0
-866 -869 0
-867 -868 0
-867 -869 0
-868 -869 0
-385 856 0
-386 856 857 0
-387 856 857 858 0
-388 857 858 859 0
-389 858 859 860 0
-390 859 860 861 0
-391 860 861 862 0
-392 861 862 863 0
-393 862 863 864 0
-394 863 864 865 0
-395 864 865 866 0
-396 865 866 867 0
-397 866 867 868 0
-398 867 868 869 0
-399 868 869 0
-400 869 0
-401 856 0
-402 856 857 0
-403 856 857 858 0
-404 857 858 859 0
-405 858 859 860 0
-406 859 860 861 0
-407 860 861 862 0
-408 861 862 863 0
-409 862 863 864 0
-410 863 864 865 0
-411 864 865 866 0
-412 865 866 867 0
-413 866 867 868 0
-414 867 868 869 0
-415 868 869 0
-416 869 0
-417 856 0
-418 856 857 0
-419 856 857 858 0
-420 857 858 859 0
-421 858 859 860 0
-422 859 860 861 0
-423 860 861 862 0
-424 861 862 863 0
-425 862 863 864 0
-426 863 864 865 0
-427 864 865 866 0
-428 865 866 867 0
-429 866 867 868 0
-430 867 868 869 0
-431 868 869 0
-432 869 0
-856 -388 0
-856 -389 0
-856 -390 0
-856 -391 0
-856 -392 0
-856 -393 0
-856 -394 0
-856 -395 0
-856 -396 0
-856 -397 0
-856 -398 0
-856 -399 0
-856 -400 0
-856 -404 0
-856 -405 0
-856 -406 0
-856 -407 0
-856 -408 0
-856 -409 0
-856 -410 0
-856 -411 0
-856 -412 0
-856 -413 0
-856 -414 0
-856 -415 0
-856 -416 0
-856 -420 0
-856 -421 0
-856 -422 0
-856 -423 0
-856 -424 0
-856 -425 0
-856 -426 0
-856 -427 0
-856 -428 0
-856 -429 0
-856 -430 0
-856 -431 0
-856 -432 0
-857 -385 0
-857 -389 0
-857 -390 0
-857 -391 0
-857 -392 0
-857 -393 0
-857 -394 0
-857 -395 0
-857 -396 0
-857 -397 0
-857 -398 0
-857 -399 0
-857 -400 0
-857 -401 0
-857 -405 0
-857 -406 0
-857 -407 0
-857 -408 0
-857 -409 0
-857 -410 0
-857 -411 0
-857 -412 0
-857 -413 0
-857 -414 0
-857 -415 0
-857 -416 0
-857 -417 0
-857 -421 0
-857 -422 0
-857 -423 0
-857 -424 0
-857 -425 0
-857 -426 0
-857 -427 0
-857 -428 0
-857 -429 0
-857 -430 0
-857 -431 0
-857 -432 0
-858 -385 0
-858 -386 0
-858 -390 0
-858 -391 0
-858 -392 0
-858 -393 0
-858 -394 0
-858 -395 0
-858 -396 0
-858 -397 0
-858 -398 0
-858 -399 0
-858 -400 0
-858 -401 0
-858 -402 0
-858 -406 0
-858 -407 0
-858 -408 0
-858 -409 0
-858 -410 0
-858 -411 0
-858 -412 0
-858 -413 0
-858 -414 0
-858 -415 0
-858 -416 0
-858 -417 0
-858 -418 0
-858 -422 0
-858 -423 0
-858 -424 0
-858 -425 0
-858 -426 0
-858 -427 0
-858 -428 0
-858 -429 0
-858 -430 0
-858 -431 0
-858 -432 0
-859 -385 0
-859 -386 0
-859 -387 0
-859 -391 0
-859 -392 0
-859 -393 0
-859 -394 0
-859 -395 0
-859 -396 0
-859 -397 0
-859 -398 0
-859 -399 0
-859 -400 0
-859 -401 0
-859 -402 0
-859 -403 0
-859 -407 0
-859 -408 0
-859 -409 0
-859 -410 0
-859 -411 0
-859 -412 0
-859 -413 0
-859 -414 0
-859 -415 0
-859 -416 0
-859 -417 0
-859 -418 0
-859 -419 0
-859 -423 0
-859 -424 0
-859 -425 0
-859 -426 0
-859 -427 0
-859 -428 0
-859 -429 0
-859 -430 0
-859 -431 0
-859 -432 0
-860 -385 0
-860 -386 0
-860 -387 0
-860 -388 0
-860 -392 0
-860 -393 0
-860 -394 0
-860 -395 0
-860 -396 0
-860 -397 0
-860 -398 0
-860 -399 0
-860 -400 0
-860 -401 0
-860 -402 0
-860 -403 0
-860 -404 0
-860 -408 0
-860 -409 0
-860 -410 0
-860 -411 0
-860 -412 0
-860 -413 0
-860 -414 0
-860 -415 0
-860 -416 0
-860 -417 0
-860 -418 0
-860 -419 0
-860 -420 0
-860 -424 0
-860 -425 0
-860 -426 0
-860 -427 0
-860 -428 0
-860 -429 0
-860 -430 0
-860 -431 0
-860 -432 0
-861 -385 0
-861 -386 0
-861 -387 0
-861 -388 0
-861 -389 0
-861 -393 0
-861 -394 0
-861 -395 0
-861 -396 0
-861 -397 0
-861 -398 0
-861 -399 0
-861 -400 0
-861 -401 0
-861 -402 0
-861 -403 0
-861 -404 0
-861 -405 0
-861 -409 0
-861 -410 0
-861 -411 0
-861 -412 0
-861 -413 0
-861 -414 0
-861 -415 0
-861 -416 0
-861 -417 0
-861 -418 0
-861 -419 0
-861 -420 0
-861 -421 0
-861 -425 0
-861 -426 0
-861 -427 0
-861 -428 0
-861 -429 0
-861 -430 0
-861 -431 0
-861 -432 0
-862 -385 0
-862 -386 0
-862 -387 0
-862 -388 0
-862 -389 0
-862 -390 0
-862 -394 0
-862 -395 0
-862 -396 0
-862 -397 0
-862 -398 0
-862 -399 0
-862 -400 0
-862 -401 0
-862 -402 0
-862 -403 0
-862 -404 0
-862 -405 0
-862 -406 0
-862 -410 0
-862 -411 0
-862 -412 0
-862 -413 0
-862 -414 0
-862 -415 0
-862 -416 0
-862 -417 0
-862 -418 0
-862 -419 0
-862 -420 0
-862 -421 0
-862 -422 0
-862 -426 0
-862 -427 0
-862 -428 0
-862 -429 0
-862 -430 0
-862 -431 0
-862 -432 0
-863 -385 0
-863 -386 0
-863 -387 0
-863 -388 0
-863 -389 0
-863 -390 0
-863 -391 0
-863 -395 0
-863 -396 0
-863 -397 0
-863 -398 0
-863 -399 0
-863 -400 0
-863 -401 0
-863 -402 0
-863 -403 0
-863 -404 0
-863 -405 0
-863 -406 0
-863 -407 0
-863 -411 0
-863 -412 0
-863 -413 0
-863 -414 0
-863 -415 0
-863 -416 0
-863 -417 0
-863 -418 0
-863 -419 0
-863 -420 0
-863 -421 0
-863 -422 0
-863 -423 0
-863 -427 0
-863 -428 0
-863 -429 0
-863 -430 0
-863 -431 0
-863 -432 0
-864 -385 0
-864 -386 0
-864 -387 0
-864 -388 0
-864 -389 0
-864 -390 0
-864 -391 0
-864 -392 0
-864 -396 0
-864 -397 0
-864 -398 0
-864 -399 0
-864 -400 0
-864 -401 0
-864 -402 0
-864 -403 0
-864 -404 0
-864 -405 0
-864 -406 0
-864 -407 0
-864 -408 0
-864 -412 0
-864 -413 0
-864 -414 0
-864 -415 0
-864 -416 0
-864 -417 0
-864 -418 0
-864 -419 0
-864 -420 0
-864 -421 0
-864 -422 0
-864 -423 0
-864 -424 0
-864 -428 0
-864 -429 0
-864 -430 0
-864 -431 0
-864 -432 0
-865 -385 0
-865 -386 0
-865 -387 0
-865 -388 0
-865 -389 0
-865 -390 0
-865 -391 0
-865 -392 0
-865 -393 0
-865 -397 0
-865 -398 0
-865 -399 0
-865 -400 0
-865 -401 0
-865 -402 0
-865 -403 0
-865 -404 0
-865 -405 0
-865 -406 0
-865 -407 0
-865 -408 0
-865 -409 0
-865 -413 0
-865 -414 0
-865 -415 0
-865 -416 0
-865 -417 0
-865 -418 0
-865 -419 0
-865 -420 0
-865 -421 0
-865 -422 0
-865 -423 0
-865 -424 0
-865 -425 0
-865 -429 0
-865 -430 0
-865 -431 0
-865 -432 0
-866 -385 0
-866 -386 0
-866 -387 0
-866 -388 0
-866 -389 0
-866 -390 0
-866 -391 0
-866 -392 0
-866 -393 0
-866 -394 0
-866 -398 0
-866 -399 0
-866 -400 0
-866 -401 0
-866 -402 0
-866 -403 0
-866 -404 0
-866 -405 0
-866 -406 0
-866 -407 0
-866 -408 0
-866 -409 0
-866 -410 0
-866 -414 0
-866 -415 0
-866 -416 0
-866 -417 0
-866 -418 0
-866 -419 0
-866 -420 0
-866 -421 0
-866 -422 0
-866 -423 0
-866 -424 0
-866 -425 0
-866 -426 0
-866 -430 0
-866 -431 0
-866 -432 0
-867 -385 0
-867 -386 0
-867 -387 0
-867 -388 0
-867 -389 0
-867 -390 0
-867 -391 0
-867 -392 0
-867 -393 0
-867 -394 0
-867 -395 0
-867 -399 0
-867 -400 0
-867 -401 0
-867 -402 0
-867 -403 0
-867 -404 0
-867 -405 0
-867 -406 0
-867 -407 0
-867 -408 0
-867 -409 0
-867 -410 0
-867 -411 0
-867 -415 0
-867 -416 0
-867 -417 0
-867 -418 0
-867 -419 0
-867 -420 0
-867 -421 0
-867 -422 0
-867 -423 0
-867 -424 0
-867 -425 0
-867 -426 0
-867 -427 0
-867 -431 0
-867 -432 0
-868 -385 0
-868 -386 0
-868 -387 0
-868 -388 0
-868 -389 0
-868 -390 0
-868 -391 0
-868 -392 0
-868 -393 0
-868 -394 0
-868 -395 0
-868 -396 0
-868 -400 0
-868 -401 0
-868 -402 0
-868 -403 0
-868 -404 0
-868 -405 0
-868 -406 0
-868 -407 0
-868 -408 0
-868 -409 0
-868 -410 0
-868 -411 0
-868 -412 0
-868 -416 0
-868 -417 0
-868 -418 0
-868 -419 0
-868 -420 0
-868 -421 0
-868 -422 0
-868 -423 0
-868 -424 0
-868 -425 0
-868 -426 0
-868 -427 0
-868 -428 0
-868 -432 0
-869 -385 0
-869 -386 0
-869 -387 0
-869 -388 0
-869 -389 0
-869 -390 0
-869 -391 0
-869 -392 0
-869 -393 0
-869 -394 0
-869 -395 0
-869 -396 0
-869 -397 0
-869 -401 0
-869 -402 0
-869 -403 0
-869 -404 0
-869 -405 0
-869 -406 0
-869 -407 0
-869 -408 0
-869 -409 0
-869 -410 0
-869 -411 0
-869 -412 0
-869 -413 0
-869 -417 0
-869 -418 0
-869 -419 0
-869 -420 0
-869 -421 0
-869 -422 0
-869 -423 0
-869 -424 0
-869 -425 0
-869 -426 0
-869 -427 0
-869 -428 0
-869 -429 0
-433 -449 0
-433 -465 0
-449 -465 0
-434 -450 0
-434 -466 0
-450 -466 0
-435 -451 0
-435 -467 0
-451 -467 0
-436 -452 0
-436 -468 0
-452 -468 0
-437 -453 0
-437 -469 0
-453 -469 0
-438 -454 0
-438 -470 0
-454 -470 0
-439 -455 0
-439 -471 0
-455 -471 0
-440 -456 0
-440 -472 0
-456 -472 0
-441 -457 0
-441 -473 0
-457 -473 0
-442 -458 0
-442 -474 0
-458 -474 0
-443 -459 0
-443 -475 0
-459 -475 0
-444 -460 0
-444 -476 0
-460 -476 0
-445 -461 0
-445 -477 0
-461 -477 0
-446 -462 0
-446 -478 0
-462 -478 0
-447 -463 0
-447 -479 0
-463 -479 0
-448 -464 0
-448 -480 0
-464 -480 0
870 871 872 873 874 875 876 877 878 879 880 881 882 883 0
-870 -871 0
-870 -872 0
-870 -873 0
-870 -874 0
-870 -875 0
-870 -876 0
-870 -877 0
-870 -878 0
-870 -879 0
-870 -880 0
-870 -881 0
-870 -882 0
-870 -883 0
-871 -872 0
-871 -873 0
-871 -874 0
-871 -875 0
-871 -876 0
-871 -877 0
-871 -878 0
-871 -879 0
-871 -880 0
-871 -881 0
-871 -882 0
-871 -883 0
-872 -873 0
-872 -874 0
-872 -875 0
-872 -876 0
-872 -877 0
-872 -878 0
-872 -879 0
-872 -880 0
-872 -881 0
-872 -882 0
-872 -883 0
-873 -874 0
-873 -875 0
-873 -876 0
-873 -877 0
-873 -878 0
-873 -879 0
-873 -880 0
-873 -881 0
-873 -882 0
-873 -883 0
-874 -875 0
-874 -876 0
-874 -877 0
-874 -878 0
-874 -879 0
-874 -880 0
-874 -881 0
-874 -882 0
-874 -883 0
-875 -876 0
-875 -877 0
-875 -878 0
-875 -879 0
-875 -880 0
-875 -881 0
-875 -882 0
-875 -883 0
-876 -877 0
-876 -878 0
-876 -879 0
-876 -880 0
-876 -881 0
-876 -882 0
-876 -883 0
-877 -878 0
-877 -879 0
-877 -880 0
-877 -881 0
-877 -882 0
-877 -883 0
-878 -879 0
-878 -880 0
-878 -881 0
-878 -882 0
-878 -883 0
-879 -880 0
-879 -881 0
-879 -882 0
-879 -883 0
-880 -881 0
-880 -882 0
-880 -883 0
-881 -882 0
-881 -883 0
-882 -883 0
-433 870 0
-434 870 871 0
-435 870 871 872 0
-436 871 872 873 0
-437 872 873 874 0
-438 873 874 875 0
-439 874 875 876 0
-440 875 876 877 0
-441 876 877 878 0
-442 877 878 879 0
-443 878 879 880 0
-444 879 880 881 0
-445 880 881 882 0
-446 881 882 883 0
-447 882 883 0
-448 883 0
-449 870 0
-450 870 871 0
-451 870 871 872 0
-452 871 872 873 0
-453 872 873 874 0
-454 873 874 875 0
-455 874 875 876 0
-456 875 876 877 0
-457 876 877 878 0
-458 877 878 879 0
-459 878 879 880 0
-460 879 880 881 0
-461 880 881 882 0
-462 881 882 883 0
-463 882 883 0
-464 883 0
-465 870 0
-466 870 871 0
-467 870 871 872 0
-468 871 872 873 0
-469 872 873 874 0
-470 873 874 875 0
-471 874 875 876 0
-472 875 876 877 0
-473 876 877 878 0
-474 877 878 879 0
-475 878 879 880 0
-476 879 880 881 0
-477 880 881 882 0
-478 881 882 883 0
-479 882 883 0
-480 883 0
-870 -436 0
-870 -437 0
-870 -438 0
-870 -439 0
-870 -440 0
-870 -441 0
-870 -442 0
-870 -443 0
-870 -444 0
-870 -445 0
-870 -446 0
-870 -447 0
-870 -448 0
-870 -452 0
-870 -453 0
-870 -454 0
-870 -455 0
-870 -456 0
-870 -457 0
-870 -458 0
-870 -459 0
-870 -460 0
-870 -461 0
-870 -462 0
-870 -463 0
-870 -464 0
-870 -468 0
-870 -469 0
-870 -470 0
-870 -471 0
-870 -472 0
-870 -473 0
-870 -474 0
-870 -475 0
-870 -476 0
-870 -477 0
-870 -478 0
-870 -479 0
-870 -480 0
-871 -433 0
-871 -437 0
-871 -438 0
-871 -439 0
-871 -440 0
-871 -441 0
-871 -442 0
-871 -443 0
-871 -444 0
-871 -445 0
-871 -446 0
-871 -447 0
-871 -448 0
-871 -449 0
-871 -453 0
-871 -454 0
-871 -455 0
-871 -456 0
-871 -457 0
-871 -458 0
-871 -459 0
-871 -460 0
-871 -461 0
-871 -462 0
-871 -463 0
-871 -464 0
-871 -465 0
-871 -469 0
-871 -470 0
-871 -471 0
-871 -472 0
-871 -473 0
-871 -474 0
-871 -475 0
-871 -476 0
-871 -477 0
-871 -478 0
-871 -479 0
-871 -480 0
-872 -433 0
-872 -434 0
-872 -438 0
-872 -439 0
-872 -440 0
-872 -441 0
-872 -442 0
-872 -443 0
-872 -444 0
-872 -445 0
-872 -446 0
-872 -447 0
-872 -448 0
-872 -449 0
-872 -450 0
-872 -454 0
-872 -455 0
-872 -456 0
-872 -457 0
-872 -458 0
-872 -459 0
-872 -460 0
-872 -461 0
-872 -462 0
-872 -463 0
-872 -464 0
-872 -465 0
-872 -466 0
-872 -470 0
-872 -471 0
-872 -472 0
-872 -473 0
-872 -474 0
-872 -475 0
-872 -476 0
-872 -477 0
-872 -478 0
-872 -479 0
-872 -480 0
-873 -433 0
-873 -434 0
-873 -435 0
-873 -439 0
-873 -440 0
-873 -441 0
-873 -442 0
-873 -443 0
-873 -444 0
-873 -445 0
-873 -446 0
-873 -447 0
-873 -448 0
-873 -449 0
-873 -450 0
-873 -451 0
-873 -455 0
-873 -456 0
-873 -457 0
-873 -458 0
-873 -459 0
-873 -460 0
-873 -461 0
-873 -462 0
-873 -463 0
-873 -464 0
-873 -465 0
-873 -466 0
-873 -467 0
-873 -471 0
-873 -472 0
-873 -473 0
-873 -474 0
-873 -475 0
-873 -476 0
-873 -477 0
-873 -478 0
-873 -479 0
-873 -480 0
-874 -433 0
-874 -434 0
-874 -435 0
-874 -436 0
-874 -440 0
-874 -441 0
-874 -442 0
-874 -443 0
-874 -444 0
-874 -445 0
-874 -446 0
-874 -447 0
-874 -448 0
-874 -449 0
-874 -450 0
-874 -451 0
-874 -452 0
-874 -456 0
-874 -457 0
-874 -458 0
-874 -459 0
-874 -460 0
-874 -461 0
-874 -462 0
-874 -463 0
-874 -464 0
-874 -465 0
-874 -466 0
-874 -467 0
-874 -468 0
-874 -472 0
-874 -473 0
-874 -474 0
-874 -475 0
-874 -476 0
-874 -477 0
-874 -478 0
-874 -479 0
-874 -480 0
-875 -433 0
-875 -434 0
-875 -435 0
-875 -436 0
-875 -437 0
-875 -441 0
-875 -442 0
-875 -443 0
-875 -444 0
-875 -445 0
-875 -446 0
-875 -447 0
-875 -448 0
-875 -449 0
-875 -450 0
-875 -451 0
-875 -452 0
-875 -453 0
-875 -457 0
-875 -458 0
-875 -459 0
-875 -460 0
-875 -461 0
-875 -462 0
-875 -463 0
-875 -464 0
-875 -465 0
-875 -466 0
-875 -467 0
-875 -468 0
-875 -469 0
-875 -473 0
-875 -474 0
-875 -475 0
-875 -476 0
-875 -477 0
-875 -478 0
-875 -479 0
-875 -480 0
-876 -433 0
-876 -434 0
-876 -435 0
-876 -436 0
-876 -437 0
-876 -438 0
-876 -442 0
-876 -443 0
-876 -444 0
-876 -445 0
-876 -446 0
-876 -447 0
-876 -448 0
-876 -449 0
-876 -450 0
-876 -451 0
-876 -452 0
-876 -453 0
-876 -454 0
-876 -458 0
-876 -459 0
-876 -460 0
-876 -461 0
-876 -462 0
-876 -463 0
-876 -464 0
-876 -465 0
-876 -466 0
-876 -467 0
-876 -468 0
-876 -469 0
-876 -470 0
-876 -474 0
-876 -475 0
-876 -476 0
-876 -477 0
-876 -478 0
-876 -479 0
-876 -480 0
-877 -433 0
-877 -434 0
-877 -435 0
-877 -436 0
-877 -437 0
-877 -438 0
-877 -439 0
-877 -443 0
-877 -444 0
-877 -445 0
-877 -446 0
-877 -447 0
-877 -448 0
-877 -449 0
-877 -450 0
-877 -451 0
-877 -452 0
-877 -453 0
-877 -454 0
-877 -455 0
-877 -459 0
-877 -460 0
-877 -461 0
-877 -462 0
-877 -463 0
-877 -464 0
-877 -465 0
-877 -466 0
-877 -467 0
-877 -468 0
-877 -469 0
-877 -470 0
-877 -471 0
-877 -475 0
-877 -476 0
-877 -477 0
-877 -478 0
-877 -479 0
-877 -480 0
-878 -433 0
-878 -434 0
-878 -435 0
-878 -436 0
-878 -437 0
-878 -438 0
-878 -439 0
-878 -440 0
-878 -444 0
-878 -445 0
-878 -446 0
-878 -447 0
-878 -448 0
-878 -449 0
-878 -450 0
-878 -451 0
-878 -452 0
-878 -453 0
-878 -454 0
-878 -455 0
-878 -456 0
-878 -460 0
-878 -461 0
-878 -462 0
-878 -463 0
-878 -464 0
-878 -465 0
-878 -466 0
-878 -467 0
-878 -468 0
-878 -469 0
-878 -470 0
-878 -471 0
-878 -472 0
-878 -476 0
-878 -477 0
-878 -478 0
-878 -479 0
-878 -480 0
-879 -433 0
-879 -434 0
-879 -435 0
-879 -436 0
-879 -437 0
-879 -438 0
-879 -439 0
-879 -440 0
-879 -441 0
-879 -445 0
-879 -446 0
-879 -447 0
-879 -448 0
-879 -449 0
-879 -450 0
-879 -451 0
-879 -452 0
-879 -453 0
-879 -454 0
-879 -455 0
-879 -456 0
-879 -457 0
-879 -461 0
-879 -462 0
-879 -463 0
-879 -464 0
-879 -465 0
-879 -466 0
-879 -467 0
-879 -468 0
-879 -469 0
-879 -470 0
-879 -471 0
-879 -472 0
-879 -473 0
-879 -477 0
-879 -478 0
-879 -479 0
-879 -480 0
-880 -433 0
-880 -434 0
-880 -435 0
-880 -436 0
-880 -437 0
-880 -438 0
-880 -439 0
-880 -440 0
-880 -441 0
-880 -442 0
-880 -446 0
-880 -447 0
-880 -448 0
-880 -449 0
-880 -450 0
-880 -451 0
-880 -452 0
-880 -453 0
-880 -454 0
-880 -455 0
-880 -456 0
-880 -457 0
-880 -458 0
-880 -462 0
-880 -463 0
-880 -464 0
-880 -465 0
-880 -466 0
-880 -467 0
-880 -468 0
-880 -469 0
-880 -470 0
-880 -471 0
-880 -472 0
-880 -473 0
-880 -474 0
-880 -478 0
-880 -479 0
-880 -480 0
-881 -433 0
-881 -434 0
-881 -435 0
-881 -436 0
-881 -437 0
-881 -438 0
-881 -439 0
-881 -440 0
-881 -441 0
-881 -442 0
-881 -443 0
-881 -447 0
-881 -448 0
-881 -449 0
-881 -450 0
-881 -451 0
-881 -452 0
-881 -453 0
-881 -454 0
-881 -455 0
-881 -456 0
-881 -457 0
-881 -458 0
-881 -459 0
-881 -463 0
-881 -464 0
-881 -465 0
-881 -466 0
-881 -467 0
-881 -468 0
-881 -469 0
-881 -470 0
-881 -471 0
-881 -472 0
-881 -473 0
-881 -474 0
-881 -475 0
-881 -479 0
-881 -480 0
-882 -433 0
-882 -434 0
-882 -435 0
-882 -436 0
-882 -437 0
-882 -438 0
-882 -439 0
-882 -440 0
-882 -441 0
-882 -442 0
-882 -443 0
-882 -444 0
-882 -448 0
-882 -449 0
-882 -450 0
-882 -451 0
-882 -452 0
-882 -453 0
-882 -454 0
-882 -455 0
-882 -456 0
-882 -457 0
-882 -458 0
-882 -459 0
-882 -460 0
-882 -464 0
-882 -465 0
-882 -466 0
-882 -467 0
-882 -468 0
-882 -469 0
-882 -470 0
-882 -471 0
-882 -472 0
-882 -473 0
-882 -474 0
-882 -475 0
-882 -476 0
-882 -480 0
-883 -433 0
-883 -434 0
-883 -435 0
-883 -436 0
-883 -437 0
-883 -438 0
-883 -439 0
-883 -440 0
-883 -441 0
-883 -442 0
-883 -443 0
-883 -444 0
-883 -445 0
-883 -449 0
-883 -450 0
-883 -451 0
-883 -452 0
-883 -453 0
-883 -454 0
-883 -455 0
-883 -456 0
-883 -457 0
-883 -458 0
-883 -459 0
-883 -460 0
-883 -461 0
-883 -465 0
-883 -466 0
-883 -467 0
-883 -468 0
-883 -469 0
-883 -470 0
-883 -471 0
-883 -472 0
-883 -473 0
-883 -474 0
-883 -475 0
-883 -476 0
-883 -477 0
-481 -497 0
-481 -513 0
-497 -513 0
-482 -498 0
-482 -514 0
-498 -514 0
-483 -499 0
-483 -515 0
-499 -515 0
-484 -500 0
-484 -516 0
-500 -516 0
-485 -501 0
-485 -517 0
-501 -517 0
-486 -502 0
-486 -518 0
-502 -518 0
-487 -503 0
-487 -519 0
-503 -519 0
-488 -504 0
-488 -520 0
-504 -520 0
-489 -505 0
-489 -521 0
-505 -521 0
-490 -506 0
-490 -522 0
-506 -522 0
-491 -507 0
-491 -523 0
-507 -523 0
-492 -508 0
-492 -524 0
-508 -524 0
-493 -509 0
-493 -525 0
-509 -525 0
-494 -510 0
-494 -526 0
-510 -526 0
-495 -511 0
-495 -527 0
-511 -527 0
-496 -512 0
-496 -528 0
-512 -528 0
884 885 886 887 888 889 890 891 892 893 894 895 896 897 0
-884 -885 0
-884 -886 0
-884 -887 0
-884 -888 0
-884 -889 0
-884 -890 0
-884 -891 0
-884 -892 0
-884 -893 0
-884 -894 0
-884 -895 0
-884 -896 0
-884 -897 0
-885 -886 0
-885 -887 0
-885 -888 0
-885 -889 0
-885 -890 0
-885 -891 0
-885 -892 0
-885 -893 0
-885 -894 0
-885 -895 0
-885 -896 0
-885 -897 0
-886 -887 0
-886 -888 0
-886 -889 0
-886 -890 0
-886 -891 0
-886 -892 0
-886 -893 0
-886 -894 0
-886 -895 0
-886 -896 0
-886 -897 0
-887 -888 0
-887 -889 0
-887 -890 0
-887 -891 0
-887 -892 0
-887 -893 0
-887 -894 0
-887 -895 0
-887 -896 0
-887 -897 0
-888 -889 0
-888 -890 0
-888 -891 0
-888 -892 0
-888 -893 0
-888 -894 0
-888 -895 0
-888 -896 0
-888 -897 0
-889 -890 0
-889 -891 0
-889 -892 0
-889 -893 0
-889 -894 0
-889 -895 0
-889 -896 0
-889 -897 0
-890 -891 0
-890 -892 0
-890 -893 0
-890 -894 0
-890 -895 0
-890 -896 0
-890 -897 0
-891 -892 0
-891 -893 0
-891 -894 0
-891 -895 0
-891 -896 0
-891 -897 0
-892 -893 0
-892 -894 0
-892 -895 0
-892 -896 0
-892 -897 0
-893 -894 0
-893 -895 0
-893 -896 0
-893 -897 0
-894 -895 0
-894 -896 0
-894 -897 0
-895 -896 0
-895 -897 0
-896 -897 0
-481 884 0
-482 884 885 0
-483 884 885 886 0
-484 885 886 887 0
-485 886 887 888 0
-486 887 888 889 0
-487 888 889 890 0
-488 889 890 891 0
-489 890 891 892 0
-490 891 892 893 0
-491 892 893 894 0
-492 893 894 895 0
-493 894 895 896 0
-494 895 896 897 0
-495 896 897 0
-496 897 0
-497 884 0
-498 884 885 0
-499 884 885 886 0
-500 885 886 887 0
-501 886 887 888 0
-502 887 888 889 0
-503 888 889 890 0
-504 889 890 891 0
-505 890 891 892 0
-506 891 892 893 0
-507 892 893 894 0
-508 893 894 895 0
-509 894 895 896 0
-510 895 896 897 0
-511 896 897 0
-512 897 0
-513 884 0
-514 884 885 0
-515 884 885 886 0
-516 885 886 887 0
-517 886 887 888 0
-518 887 888 889 0
-519 888 889 890 0
-520 889 890 891 0
-521 890 891 892 0
-522 891 892 893 0
-523 892 893 894 0
-524 893 894 895 0
-525 894 895 896 0
-526 895 896 897 0
-527 896 897 0
-528 897 0
-884 -484 0
-884 -485 0
-884 -486 0
-884 -487 0
-884 -488 0
-884 -489 0
-884 -490 0
-884 -491 0
-884 -492 0
-884 -493 0
-884 -494 0
-884 -495 0
-884 -496 0
-884 -500 0
-884 -501 0
-884 -502 0
-884 -503 0
-884 -504 0
-884 -505 0
-884 -506 0
-884 -507 0
-884 -508 0
-884 -509 0
-884 -510 0
-884 -511 0
-884 -512 0
-884 -516 0
-884 -517 0
-884 -518 0
-884 -519 0
-884 -520 0
-884 -521 0
-884 -522 0
-884 -523 0
-884 -524 0
-884 -525 0
-884 -526 0
-884 -527 0
-884 -528 0
-885 -481 0
-885 -485 0
-885 -486 0
-885 -487 0
-885 -488 0
-885 -489 0
-885 -490 0
-885 -491 0
-885 -492 0
-885 -493 0
-885 -494 0
-885 -495 0
-885 -496 0
-885 -497 0
-885 -501 0
-885 -502 0
-885 -503 0
-885 -504 0
-885 -505 0
-885 -506 0
-885 -507 0
-885 -508 0
-885 -509 0
-885 -510 0
-885 -511 0
-885 -512 0
-885 -513 0
-885 -517 0
-885 -518 0
-885 -519 0
-885 -520 0
-885 -521 0
-885 -522 0
-885 -523 0
-885 -524 0
-885 -525 0
-885 -526 0
-885 -527 0
-885 -528 0
-886 -481 0
-886 -482 0
-886 -486 0
-886 -487 0
-886 -488 0
-886 -489 0
-886 -490 0
-886 -491 0
-886 -492 0
-886 -493 0
-886 -494 0
-886 -495 0
-886 -496 0
-886 -497 0
-886 -498 0
-886 -502 0
-886 -503 0
-886 -504 0
-886 -505 0
-886 -506 0
-886 -507 0
-886 -508 0
-886 -509 0
-886 -510 0
-886 -511 0
-886 -512 0
-886 -513 0
-886 -514 0
-886 -518 0
-886 -519 0
-886 -520 0
-886 -521 0
-886 -522 0
-886 -523 0
-886 -524 0
-886 -525 0
-886 -526 0
-886 -527 0
-886 -528 0
-887 -481 0
-887 -482 0
-887 -483 0
-887 -487 0
-887 -488 0
-887 -489 0
-887 -490 0
-887 -491 0
-887 -492 0
-887 -493 0
-887 -494 0
-887 -495 0
-887 -496 0
-887 -497 0
-887 -498 0
-887 -499 0
-887 -503 0
-887 -504 0
-887 -505 0
-887 -506 0
-887 -507 0
-887 -508 0
-887 -509 0
-887 -510 0
-887 -511 0
-887 -512 0
-887 -513 0
-887 -514 0
-887 -515 0
-887 -519 0
-887 -520 0
-887 -521 0
-887 -522 0
-887 -523 0
-887 -524 0
-887 -525 0
-887 -526 0
-887 -527 0
-887 -528 0
-888 -481 0
-888 -482 0
-888 -483 0
-888 -484 0
-888 -488 0
-888 -489 0
-888 -490 0
-888 -491 0
-888 -492 0
-888 -493 0
-888 -494 0
-888 -495 0
-888 -496 0
-888 -497 0
-888 -498 0
-888 -499 0
-888 -500 0
-888 -504 0
-888 -505 0
-888 -506 0
-888 -507 0
-888 -508 0
-888 -509 0
-888 -510 0
-888 -511 0
-888 -512 0
-888 -513 0
-888 -514 0
-888 -515 0
-888 -516 0
-888 -520 0
-888 -521 0
-888 -522 0
-888 -523 0
-888 -524 0
-888 -525 0
-888 -526 0
-888 -527 0
-888 -528 0
-889 -481 0
-889 -482 0
-889 -483 0
-889 -484 0
-889 -485 0
-889 -489 0
-889 -490 0
-889 -491 0
-889 -492 0
-889 -493 0
-889 -494 0
-889 -495 0
-889 -496 0
-889 -497 0
-889 -498 0
-889 -499 0
-889 -500 0
-889 -501 0
-889 -505 0
-889 -506 0
-889 -507 0
-889 -508 0
-889 -509 0
-889 -510 0
-889 -511 0
-889 -512 0
-889 -513 0
-889 -514 0
-889 -515 0
-889 -516 0
-889 -517 0
-889 -521 0
-889 -522 0
-889 -523 0
-889 -524 0
-889 -525 0
-889 -526 0
-889 -527 0
-889 -528 0
-890 -481 0
-890 -482 0
-890 -483 0
-890 -484 0
-890 -485 0
-890 -486 0
-890 -490 0
-890 -491 0
-890 -492 0
-890 -493 0
-890 -494 0
-890 -495 0
-890 -496 0
-890 -497 0
-890 -498 0
-890 -499 0
-890 -500 0
-890 -501 0
-890 -502 0
-890 -506 0
-890 -507 0
-890 -508 0
-890 -509 0
-890 -510 0
-890 -511 0
-890 -512 0
-890 -513 0
-890 -514 0
-890 -515 0
-890 -516 0
-890 -517 0
-890 -518 0
-890 -522 0
-890 -523 0
-890 -524 0
-890 -525 0
-890 -526 0
-890 -527 0
-890 -528 0
-891 -481 0
-891 -482 0
-891 -483 0
-891 -484 0
-891 -485 0
-891 -486 0
-891 -487 0
-891 -491 0
-891 -492 0
-891 -493 0
-891 -494 0
-891 -495 0
-891 -496 0
-891 -497 0
-891 -498 0
-891 -499 0
-891 -500 0
-891 -501 0
-891 -502 0
-891 -503 0
-891 -507 0
-891 -508 0
-891 -509 0
-891 -510 0
-891 -511 0
-891 -512 0
-891 -513 0
-891 -514 0
-891 -515 0
-891 -516 0
-891 -517 0
-891 -518 0
-891 -519 0
-891 -523 0
-891 -524 0
-891 -525 0
-891 -526 0
-891 -527 0
-891 -528 0
-892 -481 0
-892 -482 0
-892 -483 0
-892 -484 0
-892 -485 0
-892 -486 0
-892 -487 0
-892 -488 0
-892 -492 0
-892 -493 0
-892 -494 0
-892 -495 0
-892 -496 0
-892 -497 0
-892 -498 0
-892 -499 0
-892 -500 0
-892 -501 0
-892 -502 0
-892 -503 0
-892 -504 0
-892 -508 0
-892 -509 0
-892 -510 0
-892 -511 0
-892 -512 0
-892 -513 0
-892 -514 0
-892 -515 0
-892 -516 0
-892 -517 0
-892 -518 0
-892 -519 0
-892 -520 0
-892 -524 0
-892 -525 0
-892 -526 0
-892 -527 0
-892 -528 0
-893 -481 0
-893 -482 0
-893 -483 0
-893 -484 0
-893 -485 0
-893 -486 0
-893 -487 0
-893 -488 0
-893 -489 0
-893 -493 0
-893 -494 0
-893 -495 0
-893 -496 0
-893 -497 0
-893 -498 0
-893 -499 0
-893 -500 0
-893 -501 0
-893 -502 0
-893 -503 0
-893 -504 0
-893 -505 0
-893 -509 0
-893 -510 0
-893 -511 0
-893 -512 0
-893 -513 0
-893 -514 0
-893 -515 0
-893 -516 0
-893 -517 0
-893 -518 0
-893 -519 0
-893 -520 0
-893 -521 0
-893 -525 0
-893 -526 0
-893 -527 0
-893 -528 0
-894 -481 0
-894 -482 0
-894 -483 0
-894 -484 0
-894 -485 0
-894 -486 0
-894 -487 0
-894 -488 0
-894 -489 0
-894 -490 0
-894 -494 0
-894 -495 0
-894 -496 0
-894 -497 0
-894 -498 0
-894 -499 0
-894 -500 0
-894 -501 0
-894 -502 0
-894 -503 0
-894 -504 0
-894 -505 0
-894 -506 0
-894 -510 0
-894 -511 0
-894 -512 0
-894 -513 0
-894 -514 0
-894 -515 0
-894 -516 0
-894 -517 0
-894 -518 0
-894 -519 0
-894 -520 0
-894 -521 0
-894 -522 0
-894 -526 0
-894 -527 0
-894 -528 0
-895 -481 0
-895 -482 0
-895 -483 0
-895 -484 0
-895 -485 0
-895 -486 0
-895 -487 0
-895 -488 0
-895 -489 0
-895 -490 0
-895 -491 0
-895 -495 0
-895 -496 0
-895 -497 0
-895 -498 0
-895 -499 0
-895 -500 0
-895 -501 0
-895 -502 0
-895 -503 0
-895 -504 0
-895 -505 0
-895 -506 0
-895 -507 0
-895 -511 0
-895 -512 0
-895 -513 0
-895 -514 0
-895 -515 0
-895 -516 0
-895 -517 0
-895 -518 0
-895 -519 0
-895 -520 0
-895 -521 0
-895 -522 0
-895 -523 0
-895 -527 0
-895 -528 0
-896 -481 0
-896 -482 0
-896 -483 0
-896 -484 0
-896 -485 0
-896 -486 0
-896 -487 0
-896 -488 0
-896 -489 0
-896 -490 0
-896 -491 0
-896 -492 0
-896 -496 0
-896 -497 0
-896 -498 0
-896 -499 0
-896 -500 0
-896 -501 0
-896 -502 0
-896 -503 0
-896 -504 0
-896 -505 0
-896 -506 0
-896 -507 0
-896 -508 0
-896 -512 0
-896 -513 0
-896 -514 0
-896 -515 0
-896 -516 0
-896 -517 0
-896 -518 0
-896 -519 0
-896 -520 0
-896 -521 0
-896 -522 0
-896 -523 0
-896 -524 0
-896 -528 0
-897 -481 0
-897 -482 0
-897 -483 0
-897 -484 0
-897 -485 0
-897 -486 0
-897 -487 0
-897 -488 0
-897 -489 0
-897 -490 0
-897 -491 0
-897 -492 0
-897 -493 0
-897 -497 0
-897 -498 0
-897 -499 0
-897 -500 0
-897 -501 0
-897 -502 0
-897 -503 0
-897 -504 0
-897 -505 0
-897 -506 0
-897 -507 0
-897 -508 0
-897 -509 0
-897 -513 0
-897 -514 0
-897 -515 0
-897 -516 0
-897 -517 0
-897 -518 0
-897 -519 0
-897 -520 0
-897 -521 0
-897 -522 0
-897 -523 0
-897 -524 0
-897 -525 0
-529 -545 0
-529 -561 0
-545 -561 0
-530 -546 0
-530 -562 0
-546 -562 0
-531 -547 0
-531 -563 0
-547 -563 0
-532 -548 0
-532 -564 0
-548 -564 0
-533 -549 0
-533 -565 0
-549 -565 0
-534 -550 0
-534 -566 0
-550 -566 0
-535 -551 0
-535 -567 0
-551 -567 0
-536 -552 0
-536 -568 0
-552 -568 0
-537 -553 0
-537 -569 0
-553 -569 0
-538 -554 0
-538 -570 0
-554 -570 0
-539 -555 0
-539 -571 0
-555 -571 0
-540 -556 0
-540 -572 0
-556 -572 0
-541 -557 0
-541 -573 0
-557 -573 0
-542 -558 0
-542 -574 0
-558 -574 0
-543 -559 0
-543 -575 0
-559 -575 0
-544 -560 0
-544 -576 0
-560 -576 0
898 899 900 901 902 903 904 905 906 907 908 909 910 911 0
-898 -899 0
-898 -900 0
-898 -901 0
-898 -902 0
-898 -903 0
-898 -904 0
-898 -905 0
-898 -906 0
-898 -907 0
-898 -908 0
-898 -909 0
-898 -910 0
-898 -911 0
-899 -900 0
-899 -901 0
-899 -902 0
-899 -903 0
-899 -904 0
-899 -905 0
-899 -906 0
-899 -907 0
-899 -908 0
-899 -909 0
-899 -910 0
-899 -911 0
-900 -901 0
-900 -902 0
-900 -903 0
-900 -904 0
-900 -905 0
-900 -906 0
-900 -907 0
-900 -908 0
-900 -909 0
-900 -910 0
-900 -911 0
-901 -902 0
-901 -903 0
-901 -904 0
-901 -905 0
-901 -906 0
-901 -907 0
-901 -908 0
-901 -909 0
-901 -910 0
-901 -911 0
-902 -903 0
-902 -904 0
-902 -905 0
-902 -906 0
-902 -907 0
-902 -908 0
-902 -909 0
-902 -910 0
-902 -911 0
-903 -904 0
-903 -905 0
-903 -906 0
-903 -907 0
-903 -908 0
-903 -909 0
-903 -910 0
-903 -911 0
-904 -905 0
-904 -906 0
-904 -907 0
-904 -908 0
-904 -909 0
-904 -910 0
-904 -911 0
-905 -906 0
-905 -907 0
-905 -908 0
-905 -909 0
-905 -910 0
-905 -911 0
-906 -907 0
-906 -908 0
-906 -909 0
-906 -910 0
-906 -911 0
-907 -908 0
-907 -909 0
-907 -910 0
-907 -911 0
-908 -909 0
-908 -910 0
-908 -911 0
-909 -910 0
-909 -911 0
-910 -911 0
-529 898 0
-530 898 899 0
-531 898 899 900 0
-532 899 900 901 0
-533 900 901 902 0
-534 901 902 903 0
-535 902 903 904 0
-536 903 904 905 0
-537 904 905 906 0
-538 905 906 907 0
-539 906 907 908 0
-540 907 908 909 0
-541 908 909 910 0
-542 909 910 911 0
-543 910 911 0
-544 911 0
-545 898 0
-546 898 899 0
-547 898 899 900 0
-548 899 900 901 0
-549 900 901 902 0
-550 901 902 903 0
-551 902 903 904 0
-552 903 904 905 0
-553 904 905 906 0
-554 905 906 907 0
-555 906 907 908 0
-556 907 908 909 0
-557 908 909 910 0
-558 909 910 911 0
-559 910 911 0
-560 911 0
-561 898 0
-562 898 899 0
-563 898 899 900 0
-564 899 900 901 0
-565 900 901 902 0
-566 901 902 903 0
-567 902 903 904 0
-568 903 904 905 0
-569 904 905 906 0
-570 905 906 907 0
-571 906 907 908 0
-572 907 908 909 0
-573 908 909 910 0
-574 909 910 911 0
-575 910 911 0
-576 911 0
-898 -532 0
-898 -533 0
-898 -534 0
-898 -535 0
-898 -536 0
-898 -537 0
-898 -538 0
-898 -539 0
-898 -540 0
-898 -541 0
-898 -542 0
-898 -543 0
-898 -544 0
-898 -548 0
-898 -549 0
-898 -550 0
-898 -551 0
-898 -552 0
-898 -553 0
-898 -554 0
-898 -555 0
-898 -556 0
-898 -557 0
-898 -558 0
-898 -559 0
-898 -560 0
-898 -564 0
-898 -565 0
-898 -566 0
-898 -567 0
-898 -568 0
-898 -569 0
-898 -570 0
-898 -571 0
-898 -572 0
-898 -573 0
-898 -574 0
-898 -575 0
-898 -576 0
-899 -529 0
-899 -533 0
-899 -534 0
-899 -535 0
-899 -536 0
-899 -537 0
-899 -538 0
-899 -539 0
-899 -540 0
-899 -541 0
-899 -542 0
-899 -543 0
-899 -544 0
-899 -545 0
-899 -549 0
-899 -550 0
-899 -551 0
-899 -552 0
-899 -553 0
-899 -554 0
-899 -555 0
-899 -556 0
-899 -557 0
-899 -558 0
-899 -559 0
-899 -560 0
-899 -561 0
-899 -565 0
-899 -566 0
-899 -567 0
-899 -568 0
-899 -569 0
-899 -570 0
-899 -571 0
-899 -572 0
-899 -573 0
-899 -574 0
-899 -575 0
-899 -576 0
-900 -529 0
-900 -530 0
-900 -534 0
-900 -535 0
-900 -536 0
-900 -537 0
-900 -538 0
-900 -539 0
-900 -540 0
-900 -541 0
-900 -542 0
-900 -543 0
-900 -544 0
-900 -545 0
-900 -546 0
-900 -550 0
-900 -551 0
-900 -552 0
-900 -553 0
-900 -554 0
-900 -555 0
-900 -556 0
-900 -557 0
-900 -558 0
-900 -559 0
-900 -560 0
-900 -561 0
-900 -562 0
-900 -566 0
-900 -567 0
-900 -568 0
-900 -569 0
-900 -570 0
-900 -571 0
-900 -572 0
-900 -573 0
-900 -574 0
-900 -575 0
-900 -576 0
-901 -529 0
-901 -530 0
-901 -531 0
-901 -535 0
-901 -536 0
-901 -537 0
-901 -538 0
-901 -539 0
-901 -540 0
-901 -541 0
-901 -542 0
-901 -543 0
-901 -544 0
-901 -545 0
-901 -546 0
-901 -547 0
-901 -551 0
-901 -552 0
-901 -553 0
-901 -554 0
-901 -555 0
-901 -556 0
-901 -557 0
-901 -558 0
-901 -559 0
-901 -560 0
-901 -561 0
-901 -562 0
-901 -563 0
-901 -567 0
-901 -568 0
-901 -569 0
-901 -570 0
-901 -571 0
-901 -572 0
-901 -573 0
-901 -574 0
-901 -575 0
-901 -576 0
-902 -529 0
-902 -530 0
-902 -531 0
-902 -532 0
-902 -536 0
-902 -537 0
-902 -538 0
-902 -539 0
-902 -540 0
-902 -541 0
-902 -542 0
-902 -543 0
-902 -544 0
-902 -545 0
-902 -546 0
-902 -547 0
-902 -548 0
-902 -552 0
-902 -553 0
-902 -554 0
-902 -555 0
-902 -556 0
-902 -557 0
-902 -558 0
-902 -559 0
-902 -560 0
-902 -561 0
-902 -562 0
-902 -563 0
-902 -564 0
-902 -568 0
-902 -569 0
-902 -570 0
-902 -571 0
-902 -572 0
-902 -573 0
-902 -574 0
-902 -575 0
-902 -576 0
-903 -529 0
-903 -530 0
-903 -531 0
-903 -532 0
-903 -533 0
-903 -537 0
-903 -538 0
-903 -539 0
-903 -540 0
-903 -541 0
-903 -542 0
-903 -543 0
-903 -544 0
-903 -545 0
-903 -546 0
-903 -547 0
-903 -548 0
-903 -549 0
-903 -553 0
-903 -554 0
-903 -555 0
-903 -556 0
-903 -557 0
-903 -558 0
-903 -559 0
-903 -560 0
-903 -561 0
-903 -562 0
-903 -563 0
-903 -564 0
-903 -565 0
-903 -569 0
-903 -570 0
-903 -571 0
-903 -572 0
-903 -573 0
-903 -574 0
-903 -575 0
-903 -576 0
-904 -529 0
-904 -530 0
-904 -531 0
-904 -532 0
-904 -533 0
-904 -534 0
-904 -538 0
-904 -539 0
-904 -540 0
-904 -541 0
-904 -542 0
-904 -543 0
-904 -544 0
-904 -545 0
-904 -546 0
-904 -547 0
-904 -548 0
-904 -549 0
-904 -550 0
-904 -554 0
-904 -555 0
-904 -556 0
-904 -557 0
-904 -558 0
-904 -559 0
-904 -560 0
-904 -561 0
-904 -562 0
-904 -563 0
-904 -564 0
-904 -565 0
-904 -566 0
-904 -570 0
-904 -571 0
-904 -572 0
-904 -573 0
-904 -574 0
-904 -575 0
-904 -576 0
-905 -529 0
-905 -530 0
-905 -531 0
-905 -532 0
-905 -533 0
-905 -534 0
-905 -535 0
-905 -539 0
-905 -540 0
-905 -541 0
-905 -542 0
-905 -543 0
-905 -544 0
-905 -545 0
-905 -546 0
-905 -547 0
-905 -548 0
-905 -549 0
-905 -550 0
-905 -551 0
-905 -555 0
-905 -556 0
-905 -557 0
-905 -558 0
-905 -559 0
-905 -560 0
-905 -561 0
-905 -562 0
-905 -563 0
-905 -564 0
-905 -565 0
-905 -566 0
-905 -567 0
-905 -571 0
-905 -572 0
-905 -573 0
-905 -574 0
-905 -575 0
-905 -576 0
-906 -529 0
-906 -530 0
-906 -531 0
-906 -532 0
-906 -533 0
-906 -534 0
-906 -535 0
-906 -536 0
-906 -540 0
-906 -541 0
-906 -542 0
-906 -543 0
-906 -544 0
-906 -545 0
-906 -546 0
-906 -547 0
-906 -548 0
-906 -549 0
-906 -550 0
-906 -551 0
-906 -552 0
-906 -556 0
-906 -557 0
-906 -558 0
-906 -559 0
-906 -560 0
-906 -561 0
-906 -562 0
-906 -563 0
-906 -564 0
-906 -565 0
-906 -566 0
-906 -567 0
-906 -568 0
-906 -572 0
-906 -573 0
-906 -574 0
-906 -575 0
-906 -576 0
-907 -529 0
-907 -530 0
-907 -531 0
-907 -532 0
-907 -533 0
-907 -534 0
-907 -535 0
-907 -536 0
-907 -537 0
-907 -541 0
-907 -542 0
-907 -543 0
-907 -544 0
-907 -545 0
-907 -546 0
-907 -547 0
-907 -548 0
-907 -549 0
-907 -550 0
-907 -551 0
-907 -552 0
-907 -553 0
-907 -557 0
-907 -558 0
-907 -559 0
-907 -560 0
-907 -561 0
-907 -562 0
-907 -563 0
-907 -564 0
-907 -565 0
-907 -566 0
-907 -567 0
-907 -568 0
-907 -569 0
-907 -573 0
-907 -574 0
-907 -575 0
-907 -576 0
-908 -529 0
-908 -530 0
-908 -531 0
-908 -532 0
-908 -533 0
-908 -534 0
-908 -535 0
-908 -536 0
-908 -537 0
-908 -538 0
-908 -542 0
-908 -543 0
-908 -544 0
-908 -545 0
-908 -546 0
-908 -547 0
-908 -548 0
-908 -549 0
-908 -550 0
-908 -551 0
-908 -552 0
-908 -553 0
-908 -554 0
-908 -558 0
-908 -559 0
-908 -560 0
-908 -561 0
-908 -562 0
-908 -563 0
-908 -564 0
-908 -565 0
-908 -566 0
-908 -567 0
-908 -568 0
-908 -569 0
-908 -570 0
-908 -574 0
-908 -575 0
-908 -576 0
-909 -529 0
-909 -530 0
-909 -531 0
-909 -532 0
-909 -533 0
-909 -534 0
-909 -535 0
-909 -536 0
-909 -537 0
-909 -538 0
-909 -539 0
-909 -543 0
-909 -544 0
-909 -545 0
-909 -546 0
-909 -547 0
-909 -548 0
-909 -549 0
-909 -550 0
-909 -551 0
-909 -552 0
-909 -553 0
-909 -554 0
-909 -555 0
-909 -559 0
-909 -560 0
-909 -561 0
-909 -562 0
-909 -563 0
-909 -564 0
-909 -565 0
-909 -566 0
-909 -567 0
-909 -568 0
-909 -569 0
-909 -570 0
-909 -571 0
-909 -575 0
-909 -576 0
-910 -529 0
-910 -530 0
-910 -531 0
-910 -532 0
-910 -533 0
-910 -534 0
-910 -535 0
-910 -536 0
-910 -537 0
-910 -538 0
-910 -539 0
-910 -540 0
-910 -544 0
-910 -545 0
-910 -546 0
-910 -547 0
-910 -548 0
-910 -549 0
-910 -550 0
-910 -551 0
-910 -552 0
-910 -553 0
-910 -554 0
-910 -555 0
-910 -556 0
-910 -560 0
-910 -561 0
-910 -562 0
-910 -563 0
-910 -564 0
-910 -565 0
-910 -566 0
-910 -567 0
-910 -568 0
-910 -569 0
-910 -570 0
-910 -571 0
-910 -572 0
-910 -576 0
-911 -529 0
-911 -530 0
-911 -531 0
-911 -532 0
-911 -533 0
-911 -534 0
-911 -535 0
-911 -536 0
-911 -537 0
-911 -538 0
-911 -539 0
-911 -540 0
-911 -541 0
-911 -545 0
-911 -546 0
-911 -547 0
-911 -548 0
-911 -549 0
-911 -550 0
-911 -551 0
-911 -552 0
-911 -553 0
-911 -554 0
-911 -555 0
-911 -556 0
-911 -557 0
-911 -561 0
-911 -562 0
-911 -563 0
-911 -564 0
-911 -565 0
-911 -566 0
-911 -567 0
-911 -568 0
-911 -569 0
-911 -570 0
-911 -571 0
-911 -572 0
-911 -573 0
-577 -593 0
-577 -609 0
-593 -609 0
-578 -594 0
-578 -610 0
-594 -610 0
-579 -595 0
-579 -611 0
-595 -611 0
-580 -596 0
-580 -612 0
-596 -612 0
-581 -597 0
-581 -613 0
-597 -613 0
-582 -598 0
-582 -614 0
-598 -614 0
-583 -599 0
-583 -615 0
-599 -615 0
-584 -600 0
-584 -616 0
-600 -616 0
-585 -601 0
-585 -617 0
-601 -617 0
-586 -602 0
-586 -618 0
-602 -618 0
-587 -603 0
-587 -619 0
-603 -619 0
-588 -604 0
-588 -620 0
-604 -620 0
-589 -605 0
-589 -621 0
-605 -621 0
-590 -606 0
-590 -622 0
-606 -622 0
-591 -607 0
-591 -623 0
-607 -623 0
-592 -608 0
-592 -624 0
-608 -624 0
912 913 914 915 916 917 918 919 920 921 922 923 924 925 0
-912 -913 0
-912 -914 0
-912 -915 0
-912 -916 0
-912 -917 0
-912 -918 0
-912 -919 0
-912 -920 0
-912 -921 0
-912 -922 0
-912 -923 0
-912 -924 0
-912 -925 0
-913 -914 0
-913 -915 0
-913 -916 0
-913 -917 0
-913 -918 0
-913 -919 0
-913 -920 0
-913 -921 0
-913 -922 0
-913 -923 0
-913 -924 0
-913 -925 0
-914 -915 0
-914 -916 0
-914 -917 0
-914 -918 0
-914 -919 0
-914 -920 0
-914 -921 0
-914 -922 0
-914 -923 0
-914 -924 0
-914 -925 0
-915 -916 0
-915 -917 0
-915 -918 0
-915 -919 0
-915 -920 0
-915 -921 0
-915 -922 0
-915 -923 0
-915 -924 0
-915 -925 0
-916 -917 0
-916 -918 0
-916 -919 0
-916 -920 0
-916 -921 0
-916 -922 0
-916 -923 0
-916 -924 0
-916 -925 0
-917 -918 0
-917 -919 0
-917 -920 0
-917 -921 0
-917 -922 0
-917 -923 0
-917 -924 0
-917 -925 0
-918 -919 0
-918 -920 0
-918 -921 0
-918 -922 0
-918 -923 0
-918 -924 0
-918 -925 0
-919 -920 0
-919 -921 0
-919 -922 0
-919 -923 0
-919 -924 0
-919 -925 0
-920 -921 0
-920 -922 0
-920 -923 0
-920 -924 0
-920 -925 0
-921 -922 0
-921 -923 0
-921 -924 0
-921 -925 0
-922 -923 0
-922 -924 0
-922 -925 0
-923 -924 0
-923 -925 0
-924 -925 0
-577 912 0
-578 912 913 0
-579 912 913 914 0
-580 913 914 915 0
-581 914 915 916 0
-582 915 916 917 0
-583 916 917 918 0
-584 917 918 919 0
-585 918 919 920 0
-586 919 920 921 0
-587 920 921 922 0
-588 921 922 923 0
-589 922 923 924 0
-590 923 924 925 0
-591 924 925 0
-592 925 0
-593 912 0
-594 912 913 0
-595 912 913 914 0
-596 913 914 915 0
-597 914 915 916 0
-598 915 916 917 0
-599 916 917 918 0
-600 917 918 919 0
-601 918 919 920 0
-602 919 920 921 0
-603 920 921 922 0
-604 921 922 923 0
-605 922 923 924 0
-606 923 924 925 0
-607 924 925 0
-608 925 0
-609 912 0
-610 912 913 0
-611 912 913 914 0
-612 913 914 915 0
-613 914 915 916 0
-614 915 916 917 0
-615 916 917 918 0
-616 917 918 919 0
-617 918 919 920 0
-618 919 920 921 0
-619 920 921 922 0
-620 921 922 923 0
-621 922 923 924 0
-622 923 924 925 0
-623 924 925 0
-624 925 0
-912 -580 0
-912 -581 0
-912 -582 0
-912 -583 0
-912 -584 0
-912 -585 0
-912 -586 0
-912 -587 0
-912 -588 0
-912 -589 0
-912 -590 0
-912 -591 0
-912 -592 0
-912 -596 0
-912 -597 0
-912 -598 0
-912 -599 0
-912 -600 0
-912 -601 0
-912 -602 0
-912 -603 0
-912 -604 0
-912 -605 0
-912 -606 0
-912 -607 0
-912 -608 0
-912 -612 0
-912 -613 0
-912 -614 0
-912 -615 0
-912 -616 0
-912 -617 0
-912 -618 0
-912 -619 0
-912 -620 0
-912 -621 0
-912 -622 0
-912 -623 0
-912 -624 0
-913 -577 0
-913 -581 0
-913 -582 0
-913 -583 0
-913 -584 0
-913 -585 0
-913 -586 0
-913 -587 0
-913 -588 0
-913 -589 0
-913 -590 0
-913 -591 0
-913 -592 0
-913 -593 0
-913 -597 0
-913 -598 0
-913 -599 0
-913 -600 0
-913 -601 0
-913 -602 0
-913 -603 0
-913 -604 0
-913 -605 0
-913 -606 0
-913 -607 0
-913 -608 0
-913 -609 0
-913 -613 0
-913 -614 0
-913 -615 0
-913 -616 0
-913 -617 0
-913 -618 0
-913 -619 0
-913 -620 0
-913 -621 0
-913 -622 0
-913 -623 0
-913 -624 0
-914 -577 0
-914 -578 0
-914 -582 0
-914 -583 0
-914 -584 0
-914 -585 0
-914 -586 0
-914 -587 0
-914 -588 0
-914 -589 0
-914 -590 0
-914 -591 0
-914 -592 0
-914 -593 0
-914 -594 0
-914 -598 0
-914 -599 0
-914 -600 0
-914 -601 0
-914 -602 0
-914 -603 0
-914 -604 0
-914 -605 0
-914 -606 0
-914 -607 0
-914 -608 0
-914 -609 0
-914 -610 0
-914 -614 0
-914 -615 0
-914 -616 0
-914 -617 0
-914 -618 0
-914 -619 0
-914 -620 0
-914 -621 0
-914 -622 0
-914 -623 0
-914 -624 0
-915 -577 0
-915 -578 0
-915 -579 0
-915 -583 0
-915 -584 0
-915 -585 0
-915 -586 0
-915 -587 0
-915 -588 0
-915 -589 0
-915 -590 0
-915 -591 0
-915 -592 0
-915 -593 0
-915 -594 0
-915 -595 0
-915 -599 0
-915 -600 0
-915 -601 0
-915 -602 0
-915 -603 0
-915 -604 0
-915 -605 0
-915 -606 0
-915 -607 0
-915 -608 0
-915 -609 0
-915 -610 0
-915 -611 0
-915 -615 0
-915 -616 0
-915 -617 0
-915 -618 0
-915 -619 0
-915 -620 0
-915 -621 0
-915 -622 0
-915 -623 0
-915 -624 0
-916 -577 0
-916 -578 0
-916 -579 0
-916 -580 0
-916 -584 0
-916 -585 0
-916 -586 0
-916 -587 0
-916 -588 0
-916 -589 0
-916 -590 0
-916 -591 0
-916 -592 0
-916 -593 0
-916 -594 0
-916 -595 0
-916 -596 0
-916 -600 0
-916 -601 0
-916 -602 0
-916 -603 0
-916 -604 0
-916 -605 0
-916 -606 0
-916 -607 0
-916 -608 0
-916 -609 0
-916 -610 0
-916 -611 0
-916 -612 0
-916 -616 0
-916 -617 0
-916 -618 0
-916 -619 0
-916 -620 0
-916 -621 0
-916 -622 0
-916 -623 0
-916 -624 0
-917 -577 0
-917 -578 0
-917 -579 0
-917 -580 0
-917 -581 0
-917 -585 0
-917 -586 0
-917 -587 0
-917 -588 0
-917 -589 0
-917 -590 0
-917 -591 0
-917 -592 0
-917 -593 0
-917 -594 0
-917 -595 0
-917 -596 0
-917 -597 0
-917 -601 0
-917 -602 0
-917 -603 0
-917 -604 0
-917 -605 0
-917 -606 0
-917 -607 0
-917 -608 0
-917 -609 0
-917 -610 0
-917 -611 0
-917 -612 0
-917 -613 0
-917 -617 0
-917 -618 0
-917 -619 0
-917 -620 0
-917 -621 0
-917 -622 0
-917 -623 0
-917 -624 0
-918 -577 0
-918 -578 0
-918 -579 0
-918 -580 0
-918 -581 0
-918 -582 0
-918 -586 0
-918 -587 0
-918 -588 0
-918 -589 0
-918 -590 0
-918 -591 0
-918 -592 0
-918 -593 0
-918 -594 0
-918 -595 0
-918 -596 0
-918 -597 0
-918 -598 0
-918 -602 0
-918 -603 0
-918 -604 0
-918 -605 0
-918 -606 0
-918 -607 0
-918 -608 0
-918 -609 0
-918 -610 0
-918 -611 0
-918 -612 0
-918 -613 0
-918 -614 0
-918 -618 0
-918 -619 0
-918 -620 0
-918 -621 0
-918 -622 0
-918 -623 0
-918 -624 0
-919 -577 0
-919 -578 0
-919 -579 0
-919 -580 0
-919 -581 0
-919 -582 0
-919 -583 0
-919 -587 0
-919 -588 0
-919 -589 0
-919 -590 0
-919 -591 0
-919 -592 0
-919 -593 0
-919 -594 0
-919 -595 0
-919 -596 0
-919 -597 0
-919 -598 0
-919 -599 0
-919 -603 0
-919 -604 0
-919 -605 0
-919 -606 0
-919 -607 0
-919 -608 0
-919 -609 0
-919 -610 0
-919 -611 0
-919 -612 0
-919 -613 0
-919 -614 0
-919 -615 0
-919 -619 0
-919 -620 0
-919 -621 0
-919 -622 0
-919 -623 0
-919 -624 0
-920 -577 0
-920 -578 0
-920 -579 0
-920 -580 0
-920 -581 0
-920 -582 0
-920 -583 0
-920 -584 0
-920 -588 0
-920 -589 0
-920 -590 0
-920 -591 0
-920 -592 0
-920 -593 0
-920 -594 0
-920 -595 0
-920 -596 0
-920 -597 0
-920 -598 0
-920 -599 0
-920 -600 0
-920 -604 0
-920 -605 0
-920 -606 0
-920 -607 0
-920 -608 0
-920 -609 0
-920 -610 0
-920 -611 0
-920 -612 0
-920 -613 0
-920 -614 0
-920 -615 0
-920 -616 0
-920 -620 0
-920 -621 0
-920 -622 0
-920 -623 0
-920 -624 0
-921 -577 0
-921 -578 0
-921 -579 0
-921 -580 0
-921 -581 0
-921 -582 0
-921 -583 0
-921 -584 0
-921 -585 0
-921 -589 0
-921 -590 0
-921 -591 0
-921 -592 0
-921 -593 0
-921 -594 0
-921 -595 0
-921 -596 0
-921 -597 0
-921 -598 0
-921 -599 0
-921 -600 0
-921 -601 0
-921 -605 0
-921 -606 0
-921 -607 0
-921 -608 0
-921 -609 0
-921 -610 0
-921 -611 0
-921 -612 0
-921 -613 0
-921 -614 0
-921 -615 0
-921 -616 0
-921 -617 0
-921 -621 0
-921 -622 0
-921 -623 0
-921 -624 0
-922 -577 0
-922 -578 0
-922 -579 0
-922 -580 0
-922 -581 0
-922 -582 0
-922 -583 0
-922 -584 0
-922 -585 0
-922 -586 0
-922 -590 0
-922 -591 0
-922 -592 0
-922 -593 0
-922 -594 0
-922 -595 0
-922 -596 0
-922 -597 0
-922 -598 0
-922 -599 0
-922 -600 0
-922 -601 0
-922 -602 0
-922 -606 0
-922 -607 0
-922 -608 0
-922 -609 0
-922 -610 0
-922 -611 0
-922 -612 0
-922 -613 0
-922 -614 0
-922 -615 0
-922 -616 0
-922 -617 0
-922 -618 0
-922 -622 0
-922 -623 0
-922 -624 0
-923 -577 0
-923 -578 0
-923 -579 0
-923 -580 0
-923 -581 0
-923 -582 0
-923 -583 0
-923 -584 0
-923 -585 0
-923 -586 0
-923 -587 0
-923 -591 0
-923 -592 0
-923 -593 0
-923 -594 0
-923 -595 0
-923 -596 0
-923 -597 0
-923 -598 0
-923 -599 0
-923 -600 0
-923 -601 0
-923 -602 0
-923 -603 0
-923 -607 0
-923 -608 0
-923 -609 0
-923 -610 0
-923 -611 0
-923 -612 0
-923 -613 0
-923 -614 0
-923 -615 0
-923 -616 0
-923 -617 0
-923 -618 0
-923 -619 0
-923 -623 0
-923 -624 0
-924 -577 0
-924 -578 0
-924 -579 0
-924 -580 0
-924 -581 0
-924 -582 0
-924 -583 0
-924 -584 0
-924 -585 0
-924 -586 0
-924 -587 0
-924 -588 0
-924 -592 0
-924 -593 0
-924 -594 0
-924 -595 0
-924 -596 0
-924 -597 0
-924 -598 0
-924 -599 0
-924 -600 0
-924 -601 0
-924 -602 0
-924 -603 0
-924 -604 0
-924 -608 0
-924 -609 0
-924 -610 0
-924 -611 0
-924 -612 0
-924 -613 0
-924 -614 0
-924 -615 0
-924 -616 0
-924 -617 0
-924 -618 0
-924 -619 0
-924 -620 0
-924 -624 0
-925 -577 0
-925 -578 0
-925 -579 0
-925 -580 0
-925 -581 0
-925 -582 0
-925 -583 0
-925 -584 0
-925 -585 0
-925 -586 0
-925 -587 0
-925 -588 0
-925 -589 0
-925 -593 0
-925 -594 0
-925 -595 0
-925 -596 0
-925 -597 0
-925 -598 0
-925 -599 0
-925 -600 0
-925 -601 0
-925 -602 0
-925 -603 0
-925 -604 0
-925 -605 0
-925 -609 0
-925 -610 0
-925 -611 0
-925 -612 0
-925 -613 0
-925 -614 0
-925 -615 0
-925 -616 0
-925 -617 0
-925 -618 0
-925 -619 0
-925 -620 0
-925 -621 0
-625 -641 0
-625 -657 0
-641 -657 0
-626 -642 0
-626 -658 0
-642 -658 0
-627 -643 0
-627 -659 0
-643 -659 0
-628 -644 0
-628 -660 0
-644 -660 0
-629 -645 0
-629 -661 0
-645 -661 0
-630 -646 0
-630 -662 0
-646 -662 0
-631 -647 0
-631 -663 0
-647 -663 0
-632 -648 0
-632 -664 0
-648 -664 0
-633 -649 0
-633 -665 0
-649 -665 0
-634 -650 0
-634 -666 0
-650 -666 0
-635 -651 0
-635 -667 0
-651 -667 0
-636 -652 0
-636 -668 0
-652 -668 0
-637 -653 0
-637 -669 0
-653 -669 0
-638 -654 0
-638 -670 0
-654 -670 0
-639 -655 0
-639 -671 0
-655 -671 0
-640 -656 0
-640 -672 0
-656 -672 0
926 927 928 929 930 931 932 933 934 935 936 937 938 939 0
-926 -927 0
-926 -928 0
-926 -929 0
-926 -930 0
-926 -931 0
-926 -932 0
-926 -933 0
-926 -934 0
-926 -935 0
-926 -936 0
-926 -937 0
-926 -938 0
-926 -939 0
-927 -928 0
-927 -929 0
-927 -930 0
-927 -931 0
-927 -932 0
-927 -933 0
-927 -934 0
-927 -935 0
-927 -936 0
-927 -937 0
-927 -938 0
-927 -939 0
-928 -929 0
-928 -930 0
-928 -931 0
-928 -932 0
-928 -933 0
-928 -934 0
-928 -935 0
-928 -936 0
-928 -937 0
-928 -938 0
-928 -939 0
-929 -930 0
-929 -931 0
-929 -932 0
-929 -933 0
-929 -934 0
-929 -935 0
-929 -936 0
-929 -937 0
-929 -938 0
-929 -939 0
-930 -931 0
-930 -932 0
-930 -933 0
-930 -934 0
-930 -935 0
-930 -936 0
-930 -937 0
-930 -938 0
-930 -939 0
-931 -932 0
-931 -933 0
-931 -934 0
-931 -935 0
-931 -936 0
-931 -937 0
-931 -938 0
-931 -939 0
-932 -933 0
-932 -934 0
-932 -935 0
-932 -936 0
-932 -937 0
-932 -938 0
-932 -939 0
-933 -934 0
-933 -935 0
-933 -936 0
-933 -937 0
-933 -938 0
-933 -939 0
-934 -935 0
-934 -936 0
-934 -937 0
-934 -938 0
-934 -939 0
-935 -936 0
-935 -937 0
-935 -938 0
-935 -939 0
-936 -937 0
-936 -938 0
-936 -939 0
-937 -938 0
-937 -939 0
-938 -939 0
-625 926 0
-626 926 927 0
-627 926 927 928 0
-628 927 928 929 0
-629 928 929 930 0
-630 929 930 931 0
-631 930 931 932 0
-632 931 932 933 0
-633 932 933 934 0
-634 933 934 935 0
-635 934 935 936 0
-636 935 936 937 0
-637 936 937 938 0
-638 937 938 939 0
-639 938 939 0
-640 939 0
-641 926 0
-642 926 927 0
-643 926 927 928 0
-644 927 928 929 0
-645 928 929 930 0
-646 929 930 931 0
-647 930 931 932 0
-648 931 932 933 0
-649 932 933 934 0
-650 933 934 935 0
-651 934 935 936 0
-652 935 936 937 0
-653 936 937 938 0
-654 937 938 939 0
-655 938 939 0
-656 939 0
-657 926 0
-658 926 927 0
-659 926 927 928 0
-660 927 928 929 0
-661 928 929 930 0
-662 929 930 931 0
-663 930 931 932 0
-664 931 932 933 0
-665 932 933 934 0
-666 933 934 935 0
-667 934 935 936 0
-668 935 936 937 0
-669 936 937 938 0
-670 937 938 939 0
-671 938 939 0
-672 939 0
-926 -628 0
-926 -629 0
-926 -630 0
-926 -631 0
-926 -632 0
-926 -633 0
-926 -634 0
-926 -635 0
-926 -636 0
-926 -637 0
-926 -638 0
-926 -639 0
-926 -640 0
-926 -644 0
-926 -645 0
-926 -646 0
-926 -647 0
-926 -648 0
-926 -649 0
-926 -650 0
-926 -651 0
-926 -652 0
-926 -653 0
-926 -654 0
-926 -655 0
-926 -656 0
-926 -660 0
-926 -661 0
-926 -662 0
-926 -663 0
-926 -664 0
-926 -665 0
-926 -666 0
-926 -667 0
-926 -668 0
-926 -669 0
-926 -670 0
-926 -671 0
-926 -672 0
-927 -625 0
-927 -629 0
-927 -630 0
-927 -631 0
-927 -632 0
-927 -633 0
-927 -634 0
-927 -635 0
-927 -636 0
-927 -637 0
-927 -638 0
-927 -639 0
-927 -640 0
-927 -641 0
-927 -645 0
-927 -646 0
-927 -647 0
-927 -648 0
-927 -649 0
-927 -650 0
-927 -651 0
-927 -652 0
-927 -653 0
-927 -654 0
-927 -655 0
-927 -656 0
-927 -657 0
-927 -661 0
-927 -662 0
-927 -663 0
-927 -664 0
-927 -665 0
-927 -666 0
-927 -667 0
-927 -668 0
-927 -669 0
-927 -670 0
-927 -671 0
-927 -672 0
-928 -625 0
-928 -626 0
-928 -630 0
-928 -631 0
-928 -632 0
-928 -633 0
-928 -634 0
-928 -635 0
-928 -636 0
-928 -637 0
-928 -638 0
-928 -639 0
-928 -640 0
-928 -641 0
-928 -642 0
-928 -646 0
-928 -647 0
-928 -648 0
-928 -649 0
-928 -650 0
-928 -651 0
-928 -652 0
-928 -653 0
-928 -654 0
-928 -655 0
-928 -656 0
-928 -657 0
-928 -658 0
-928 -662 0
-928 -663 0
-928 -664 0
-928 -665 0
-928 -666 0
-928 -667 0
-928 -668 0
-928 -669 0
-928 -670 0
-928 -671 0
-928 -672 0
-929 -625 0
-929 -626 0
-929 -627 0
-929 -631 0
-929 -632 0
-929 -633 0
-929 -634 0
-929 -635 0
-929 -636 0
-929 -637 0
-929 -638 0
-929 -639 0
-929 -640 0
-929 -641 0
-929 -642 0
-929 -643 0
-929 -647 0
-929 -648 0
-929 -649 0
-929 -650 0
-929 -651 0
-929 -652 0
-929 -653 0
-929 -654 0
-929 -655 0
-929 -656 0
-929 -657 0
-929 -658 0
-929 -659 0
-929 -663 0
-929 -664 0
-929 -665 0
-929 -666 0
-929 -667 0
-929 -668 0
-929 -669 0
-929 -670 0
-929 -671 0
-929 -672 0
-930 -625 0
-930 -626 0
-930 -627 0
-930 -628 0
-930 -632 0
-930 -633 0
-930 -634 0
-930 -635 0
-930 -636 0
-930 -637 0
-930 -638 0
-930 -639 0
-930 -640 0
-930 -641 0
-930 -642 0
-930 -643 0
-930 -644 0
-930 -648 0
-930 -649 0
-930 -650 0
-930 -651 0
-930 -652 0
-930 -653 0
-930 -654 0
-930 -655 0
-930 -656 0
-930 -657 0
-930 -658 0
-930 -659 0
-930 -660 0
-930 -664 0
-930 -665 0
-930 -666 0
-930 -667 0
-930 -668 0
-930 -669 0
-930 -670 0
-930 -671 0
-930 -672 0
-931 -625 0
-931 -626 0
-931 -627 0
-931 -628 0
-931 -629 0
-931 -633 0
-931 -634 0
-931 -635 0
-931 -636 0
-931 -637 0
-931 -638 0
-931 -639 0
-931 -640 0
-931 -641 0
-931 -642 0
-931 -643 0
-931 -644 0
-931 -645 0
-931 -649 0
-931 -650 0
-931 -651 0
-931 -652 0
-931 -653 0
-931 -654 0
-931 -655 0
-931 -656 0
-931 -657 0
-931 -658 0
-931 -659 0
-931 -660 0
-931 -661 0
-931 -665 0
-931 -666 0
-931 -667 0
-931 -668 0
-931 -669 0
-931 -670 0
-931 -671 0
-931 -672 0
-932 -625 0
-932 -626 0
-932 -627 0
-932 -628 0
-932 -629 0
-932 -630 0
-932 -634 0
-932 -635 0
-932 -636 0
-932 -637 0
-932 -638 0
-932 -639 0
-932 -640 0
-932 -641 0
-932 -642 0
-932 -643 0
-932 -644 0
-932 -645 0
-932 -646 0
-932 -650 0
-932 -651 0
-932 -652 0
-932 -653 0
-932 -654 0
-932 -655 0
-932 -656 0
-932 -657 0
-932 -658 0
-932 -659 0
-932 -660 0
-932 -661 0
-932 -662 0
-932 -666 0
-932 -667 0
-932 -668 0
-932 -669 0
-932 -670 0
-932 -671 0
-932 -672 0
-933 -625 0
-933 -626 0
-933 -627 0
-933 -628 0
-933 -629 0
-933 -630 0
-933 -631 0
-933 -635 0
-933 -636 0
-933 -637 0
-933 -638 0
-933 -639 0
-933 -640 0
-933 -641 0
-933 -642 0
-933 -643 0
-933 -644 0
-933 -645 0
-933 -646 0
-933 -647 0
-933 -651 0
-933 -652 0
-933 -653 0
-933 -654 0
-933 -655 0
-933 -656 0
-933 -657 0
-933 -658 0
-933 -659 0
-933 -660 0
-933 -661 0
-933 -662 0
-933 -663 0
-933 -667 0
-933 -668 0
-933 -669 0
-933 -670 0
-933 -671 0
-933 -672 0
-934 -625 0
-934 -626 0
-934 -627 0
-934 -628 0
-934 -629 0
-934 -630 0
-934 -631 0
-934 -632 0
-934 -636 0
-934 -637 0
-934 -638 0
-934 -639 0
-934 -640 0
-934 -641 0
-934 -642 0
-934 -643 0
-934 -644 0
-934 -645 0
-934 -646 0
-934 -647 0
-934 -648 0
-934 -652 0
-934 -653 0
-934 -654 0
-934 -655 0
-934 -656 0
-934 -657 0
-934 -658 0
-934 -659 0
-934 -660 0
-934 -661 0
-934 -662 0
-934 -663 0
-934 -664 0
-934 -668 0
-934 -669 0
-934 -670 0
-934 -671 0
-934 -672 0
-935 -625 0
-935 -626 0
-935 -627 0
-935 -628 0
-935 -629 0
-935 -630 0
-935 -631 0
-935 -632 0
-935 -633 0
-935 -637 0
-935 -638 0
-935 -639 0
-935 -640 0
-935 -641 0
-935 -642 0
-935 -643 0
-935 -644 0
-935 -645 0
-935 -646 0
-935 -647 0
-935 -648 0
-935 -649 0
-935 -653 0
-935 -654 0
-935 -655 0
-935 -656 0
-935 -657 0
-935 -658 0
-935 -659 0
-935 -660 0
-935 -661 0
-935 -662 0
-935 -663 0
-935 -664 0
-935 -665 0
-935 -669 0
-935 -670 0
-935 -671 0
-935 -672 0
-936 -625 0
-936 -626 0
-936 -627 0
-936 -628 0
-936 -629 0
-936 -630 0
-936 -631 0
-936 -632 0
-936 -633 0
-936 -634 0
-936 -638 0
-936 -639 0
-936 -640 0
-936 -641 0
-936 -642 0
-936 -643 0
-936 -644 0
-936 -645 0
-936 -646 0
-936 -647 0
-936 -648 0
-936 -649 0
-936 -650 0
-936 -654 0
-936 -655 0
-936 -656 0
-936 -657 0
-936 -658 0
-936 -659 0
-936 -660 0
-936 -661 0
-936 -662 0
-936 -663 0
-936 -664 0
-936 -665 0
-936 -666 0
-936 -670 0
-936 -671 0
-936 -672 0
-937 -625 0
-937 -626 0
-937 -627 0
-937 -628 0
-937 -629 0
-937 -630 0
-937 -631 0
-937 -632 0
-937 -633 0
-937 -634 0
-937 -635 0
-937 -639 0
-937 -640 0
-937 -641 0
-937 -642 0
-937 -643 0
-937 -644 0
-937 -645 0
-937 -646 0
-937 -647 0
-937 -648 0
-937 -649 0
-937 -650 0
-937 -651 0
-937 -655 0
-937 -656 0
-937 -657 0
-937 -658 0
-937 -659 0
-937 -660 0
-937 -661 0
-937 -662 0
-937 -663 0
-937 -664 0
-937 -665 0
-937 -666 0
-937 -667 0
-937 -671 0
-937 -672 0
-938 -625 0
-938 -626 0
-938 -627 0
-938 -628 0
-938 -629 0
-938 -630 0
-938 -631 0
-938 -632 0
-938 -633 0
-938 -634 0
-938 -635 0
-938 -636 0
-938 -640 0
-938 -641 0
-938 -642 0
-938 -643 0
-938 -644 0
-938 -645 0
-938 -646 0
-938 -647 0
-938 -648 0
-938 -649 0
-938 -650 0
-938 -651 0
-938 -652 0
-938 -656 0
-938 -657 0
-938 -658 0
-938 -659 0
-938 -660 0
-938 -661 0
-938 -662 0
-938 -663 0
-938 -664 0
-938 -665 0
-938 -666 0
-938 -667 0
-938 -668 0
-938 -672 0
-939 -625 0
-939 -626 0
-939 -627 0
-939 -628 0
-939 -629 0
-939 -630 0
-939 -631 0
-939 -632 0
-939 -633 0
-939 -634 0
-939 -635 0
-939 -636 0
-939 -637 0
-939 -641 0
-939 -642 0
-939 -643 0
-939 -644 0
-939 -645 0
-939 -646 0
-939 -647 0
-939 -648 0
-939 -649 0
-939 -650 0
-939 -651 0
-939 -652 0
-939 -653 0
-939 -657 0
-939 -658 0
-939 -659 0
-939 -660 0
-939 -661 0
-939 -662 0
-939 -663 0
-939 -664 0
-939 -665 0
-939 -666 0
-939 -667 0
-939 -668 0
-939 -669 0
-673 -689 0
-673 -705 0
-689 -705 0
-674 -690 0
-674 -706 0
-690 -706 0
-675 -691 0
-675 -707 0
-691 -707 0
-676 -692 0
-676 -708 0
-692 -708 0
-677 -693 0
-677 -709 0
-693 -709 0
-678 -694 0
-678 -710 0
-694 -710 0
-679 -695 0
-679 -711 0
-695 -711 0
-680 -696 0
-680 -712 0
-696 -712 0
-681 -697 0
-681 -713 0
-697 -713 0
-682 -698 0
-682 -714 0
-698 -714 0
-683 -699 0
-683 -715 0
-699 -715 0
-684 -700 0
-684 -716 0
-700 -716 0
-685 -701 0
-685 -717 0
-701 -717 0
-686 -702 0
-686 -718 0
-702 -718 0
-687 -703 0
-687 -719 0
-703 -719 0
-688 -704 0
-688 -720 0
-704 -720 0
940 941 942 943 944 945 946 947 948 949 950 951 952 953 0
-940 -941 0
-940 -942 0
-940 -943 0
-940 -944 0
-940 -945 0
-940 -946 0
-940 -947 0
-940 -948 0
-940 -949 0
-940 -950 0
-940 -951 0
-940 -952 0
-940 -953 0
-941 -942 0
-941 -943 0
-941 -944 0
-941 -945 0
-941 -946 0
-941 -947 0
-941 -948 0
-941 -949 0
-941 -950 0
-941 -951 0
-941 -952 0
-941 -953 0
-942 -943 0
-942 -944 0
-942 -945 0
-942 -946 0
-942 -947 0
-942 -948 0
-942 -949 0
-942 -950 0
-942 -951 0
-942 -952 0
-942 -953 0
-943 -944 0
-943 -945 0
-943 -946 0
-943 -947 0
-943 -948 0
-943 -949 0
-943 -950 0
-943 -951 0
-943 -952 0
-943 -953 0
-944 -945 0
-944 -946 0
-944 -947 0
-944 -948 0
-944 -949 0
-944 -950 0
-944 -951 0
-944 -952 0
-944 -953 0
-945 -946 0
-945 -947 0
-945 -948 0
-945 -949 0
-945 -950 0
-945 -951 0
-945 -952 0
-945 -953 0
-946 -947 0
-946 -948 0
-946 -949 0
-946 -950 0
-946 -951 0
-946 -952 0
-946 -953 0
-947 -948 0
-947 -949 0
-947 -950 0
-947 -951 0
-947 -952 0
-947 -953 0
-948 -949 0
-948 -950 0
-948 -951 0
-948 -952 0
-948 -953 0
-949 -950 0
-949 -951 0
-949 -952 0
-949 -953 0
-950 -951 0
-950 -952 0
-950 -953 0
-951 -952 0
-951 -953 0
-952 -953 0
-673 940 0
-674 940 941 0
-675 940 941 942 0
-676 941 942 943 0
-677 942 943 944 0
-678 943 944 945 0
-679 944 945 946 0
-680 945 946 947 0
-681 946 947 948 0
-682 947 948 949 0
-683 948 949 950 0
-684 949 950 951 0
-685 950 951 952 0
-686 951 952 953 0
-687 952 953 0
-688 953 0
-689 940 0
-690 940 941 0
-691 940 941 942 0
-692 941 942 943 0
-693 942 943 944 0
-694 943 944 945 0
-695 944 945 946 0
-696 945 946 947 0
-697 946 947 948 0
-698 947 948 949 0
-699 948 949 950 0
-700 949 950 951 0
-701 950 951 952 0
-702 951 952 953 0
-703 952 953 0
-704 953 0
-705 940 0
-706 940 941 0
-707 940 941 942 0
-708 941 942 943 0
-709 942 943 944 0
-710 943 944 945 0
-711 944 945 946 0
-712 945 946 947 0
-713 946 947 948 0
-714 947 948 949 0
-715 948 949 950 0
-716 949 950 951 0
-717 950 951 952 0
-718 951 952 953 0
-719 952 953 0
-720 953 0
-940 -676 0
-940 -677 0
-940 -678 0
-940 -679 0
-940 -680 0
-940 -681 0
-940 -682 0
-940 -683 0
-940 -684 0
-940 -685 0
-940 -686 0
-940 -687 0
-940 -688 0
-940 -692 0
-940 -693 0
-940 -694 0
-940 -695 0
-940 -696 0
-940 -697 0
-940 -698 0
-940 -699 0
-940 -700 0
-940 -701 0
-940 -702 0
-940 -703 0
-940 -704 0
-940 -708 0
-940 -709 0
-940 -710 0
-940 -711 0
-940 -712 0
-940 -713 0
-940 -714 0
-940 -715 0
-940 -716 0
-940 -717 0
-940 -718 0
-940 -719 0
-940 -720 0
-941 -673 0
-941 -677 0
-941 -678 0
-941 -679 0
-941 -680 0
-941 -681 0
-941 -682 0
-941 -683 0
-941 -684 0
-941 -685 0
-941 -686 0
-941 -687 0
-941 -688 0
-941 -689 0
-941 -693 0
-941 -694 0
-941 -695 0
-941 -696 0
-941 -697 0
-941 -698 0
-941 -699 0
-941 -700 0
-941 -701 0
-941 -702 0
-941 -703 0
-941 -704 0
-941 -705 0
-941 -709 0
-941 -710 0
-941 -711 0
-941 -712 0
-941 -713 0
-941 -714 0
-941 -715 0
-941 -716 0
-941 -717 0
-941 -718 0
-941 -719 0
-941 -720 0
-942 -673 0
-942 -674 0
-942 -678 0
-942 -679 0
-942 -680 0
-942 -681 0
-942 -682 0
-942 -683 0
-942 -684 0
-942 -685 0
-942 -686 0
-942 -687 0
-942 -688 0
-942 -689 0
-942 -690 0
-942 -694 0
-942 -695 0
-942 -696 0
-942 -697 0
-942 -698 0
-942 -699 0
-942 -700 0
-942 -701 0
-942 -702 0
-942 -703 0
-942 -704 0
-942 -705 0
-942 -706 0
-942 -710 0
-942 -711 0
-942 -712 0
-942 -713 0
-942 -714 0
-942 -715 0
-942 -716 0
-942 -717 0
-942 -718 0
-942 -719 0
-942 -720 0
-943 -673 0
-943 -674 0
-943 -675 0
-943 -679 0
-943 -680 0
-943 -681 0
-943 -682 0
-943 -683 0
-943 -684 0
-943 -685 0
-943 -686 0
-943 -687 0
-943 -688 0
-943 -689 0
-943 -690 0
-943 -691 0
-943 -695 0
-943 -696 0
-943 -697 0
-943 -698 0
-943 -699 0
-943 -700 0
-943 -701 0
-943 -702 0
-943 -703 0
-943 -704 0
-943 -705 0
-943 -706 0
-943 -707 0
-943 -711 0
-943 -712 0
-943 -713 0
-943 -714 0
-943 -715 0
-943 -716 0
-943 -717 0
-943 -718 0
-943 -719 0
-943 -720 0
-944 -673 0
-944 -674 0
-944 -675 0
-944 -676 0
-944 -680 0
-944 -681 0
-944 -682 0
-944 -683 0
-944 -684 0
-944 -685 0
-944 -686 0
-944 -687 0
-944 -688 0
-944 -689 0
-944 -690 0
-944 -691 0
-944 -692 0
-944 -696 0
-944 -697 0
-944 -698 0
-944 -699 0
-944 -700 0
-944 -701 0
-944 -702 0
-944 -703 0
-944 -704 0
-944 -705 0
-944 -706 0
-944 -707 0
-944 -708 0
-944 -712 0
-944 -713 0
-944 -714 0
-944 -715 0
-944 -716 0
-944 -717 0
-944 -718 0
-944 -719 0
-944 -720 0
-945 -673 0
-945 -674 0
-945 -675 0
-945 -676 0
-945 -677 0
-945 -681 0
-945 -682 0
-945 -683 0
-945 -684 0
-945 -685 0
-945 -686 0
-945 -687 0
-945 -688 0
-945 -689 0
-945 -690 0
-945 -691 0
-945 -692 0
-945 -693 0
-945 -697 0
-945 -698 0
-945 -699 0
-945 -700 0
-945 -701 0
-945 -702 0
-945 -703 0
-945 -704 0
-945 -705 0
-945 -706 0
-945 -707 0
-945 -708 0
-945 -709 0
-945 -713 0
-945 -714 0
-945 -715 0
-945 -716 0
-945 -717 0
-945 -718 0
-945 -719 0
-945 -720 0
-946 -673 0
-946 -674 0
-946 -675 0
-946 -676 0
-946 -677 0
-946 -678 0
-946 -682 0
-946 -683 0
-946 -684 0
-946 -685 0
-946 -686 0
-946 -687 0
-946 -688 0
-946 -689 0
-946 -690 0
-946 -691 0
-946 -692 0
-946 -693 0
-946 -694 0
-946 -698 0
-946 -699 0
-946 -700 0
-946 -701 0
-946 -702 0
-946 -703 0
-946 -704 0
-946 -705 0
-946 -706 0
-946 -707 0
-946 -708 0
-946 -709 0
-946 -710 0
-946 -714 0
-946 -715 0
-946 -716 0
-946 -717 0
-946 -718 0
-946 -719 0
-946 -720 0
-947 -673 0
-947 -674 0
-947 -675 0
-947 -676 0
-947 -677 0
-947 -678 0
-947 -679 0
-947 -683 0
-947 -684 0
-947 -685 0
-947 -686 0
-947 -687 0
-947 -688 0
-947 -689 0
-947 -690 0
-947 -691 0
-947 -692 0
-947 -693 0
-947 -694 0
-947 -695 0
-947 -699 0
-947 -700 0
-947 -701 0
-947 -702 0
-947 -703 0
-947 -704 0
-947 -705 0
-947 -706 0
-947 -707 0
-947 -708 0
-947 -709 0
-947 -710 0
-947 -711 0
-947 -715 0
-947 -716 0
-947 -717 0
-947 -718 0
-947 -719 0
-947 -720 0
-948 -673 0
-948 -674 0
-948 -675 0
-948 -676 0
-948 -677 0
-948 -678 0
-948 -679 0
-948 -680 0
-948 -684 0
-948 -685 0
-948 -686 0
-948 -687 0
-948 -688 0
-948 -689 0
-948 -690 0
-948 -691 0
-948 -692 0
-948 -693 0
-948 -694 0
-948 -695 0
-948 -696 0
-948 -700 0
-948 -701 0
-948 -702 0
-948 -703 0
-948 -704 0
-948 -705 0
-948 -706 0
-948 -707 0
-948 -708 0
-948 -709 0
-948 -710 0
-948 -711 0
-948 -712 0
-948 -716 0
-948 -717 0
-948 -718 0
-948 -719 0
-948 -720 0
-949 -673 0
-949 -674 0
-949 -675 0
-949 -676 0
-949 -677 0
-949 -678 0
-949 -679 0
-949 -680 0
-949 -681 0
-949 -685 0
-949 -686 0
-949 -687 0
-949 -688 0
-949 -689 0
-949 -690 0
-949 -691 0
-949 -692 0
-949 -693 0
-949 -694 0
-949 -695 0
-949 -696 0
-949 -697 0
-949 -701 0
-949 -702 0
-949 -703 0
-949 -704 0
-949 -705 0
-949 -706 0
-949 -707 0
-949 -708 0
-949 -709 0
-949 -710 0
-949 -711 0
-949 -712 0
-949 -713 0
-949 -717 0
-949 -718 0
-949 -719 0
-949 -720 0
-950 -673 0
-950 -674 0
-950 -675 0
-950 -676 0
-950 -677 0
-950 -678 0
-950 -679 0
-950 -680 0
-950 -681 0
-950 -682 0
-950 -686 0
-950 -687 0
-950 -688 0
-950 -689 0
-950 -690 0
-950 -691 0
-950 -692 0
-950 -693 0
-950 -694 0
-950 -695 0
-950 -696 0
-950 -697 0
-950 -698 0
-950 -702 0
-950 -703 0
-950 -704 0
-950 -705 0
-950 -706 0
-950 -707 0
-950 -708 0
-950 -709 0
-950 -710 0
-950 -711 0
-950 -712 0
-950 -713 0
-950 -714 0
-950 -718 0
-950 -719 0
-950 -720 0
-951 -673 0
-951 -674 0
-951 -675 0
-951 -676 0
-951 -677 0
-951 -678 0
-951 -679 0
-951 -680 0
-951 -681 0
-951 -682 0
-951 -683 0
-951 -687 0
-951 -688 0
-951 -689 0
-951 -690 0
-951 -691 0
-951 -692 0
-951 -693 0
-951 -694 0
-951 -695 0
-951 -696 0
-951 -697 0
-951 -698 0
-951 -699 0
-951 -703 0
-951 -704 0
-951 -705 0
-951 -706 0
-951 -707 0
-951 -708 0
-951 -709 0
-951 -710 0
-951 -711 0
-951 -712 0
-951 -713 0
-951 -714 0
-951 -715 0
-951 -719 0
-951 -720 0
-952 -673 0
-952 -674 0
-952 -675 0
-952 -676 0
-952 -677 0
-952 -678 0
-952 -679 0
-952 -680 0
-952 -681 0
-952 -682 0
-952 -683 0
-952 -684 0
-952 -688 0
-952 -689 0
-952 -690 0
-952 -691 0
-952 -692 0
-952 -693 0
-952 -694 0
-952 -695 0
-952 -696 0
-952 -697 0
-952 -698 0
-952 -699 0
-952 -700 0
-952 -704 0
-952 -705 0
-952 -706 0
-952 -707 0
-952 -708 0
-952 -709 0
-952 -710 0
-952 -711 0
-952 -712 0
-952 -713 0
-952 -714 0
-952 -715 0
-952 -716 0
-952 -720 0
-953 -673 0
-953 -674 0
-953 -675 0
-953 -676 0
-953 -677 0
-953 -678 0
-953 -679 0
-953 -680 0
-953 -681 0
-953 -682 0
-953 -683 0
-953 -684 0
-953 -685 0
-953 -689 0
-953 -690 0
-953 -691 0
-953 -692 0
-953 -693 0
-953 -694 0
-953 -695 0
-953 -696 0
-953 -697 0
-953 -698 0
-953 -699 0
-953 -700 0
-953 -701 0
-953 -705 0
-953 -706 0
-953 -707 0
-953 -708 0
-953 -709 0
-953 -710 0
-953 -711 0
-953 -712 0
-953 -713 0
-953 -714 0
-953 -715 0
-953 -716 0
-953 -717 0
1 17 33 49 65 81 97 113 129 145 161 177 193 209 225 241 257 273 289 305 321 337 353 369 385 401 417 433 449 465 481 497 513 529 545 561 577 593 609 625 641 657 673 689 705 0
2 18 34 50 66 82 98 114 130 146 162 178 194 210 226 242 258 274 290 306 322 338 354 370 386 402 418 434 450 466 482 498 514 530 546 562 578 594 610 626 642 658 674 690 706 0
3 19 35 51 67 83 99 115 131 147 163 179 195 211 227 243 259 275 291 307 323 339 355 371 387 403 419 435 451 467 483 499 515 531 547 563 579 595 611 627 643 659 675 691 707 0
4 20 36 52 68 84 100 116 132 148 164 180 196 212 228 244 260 276 292 308 324 340 356 372 388 404 420 436 452 468 484 500 516 532 548 564 580 596 612 628 644 660 676 692 708 0
5 21 37 53 69 85 101 117 133 149 165 181 197 213 229 245 261 277 293 309 325 341 357 373 389 405 421 437 453 469 485 501 517 533 549 565 581 597 613 629 645 661 677 693 709 0
6 22 38 54 70 86 102 118 134 150 166 182 198 214 230 246 262 278 294 310 326 342 358 374 390 406 422 438 454 470 486 502 518 534 550 566 582 598 614 630 646 662 678 694 710 0
7 23 39 55 71 87 103 119 135 151 167 183 199 215 231 247 263 279 295 311 327 343 359 375 391 407 423 439 455 471 487 503 519 535 551 567 583 599 615 631 647 663 679 695 711 0
8 24 40 56 72 88 104 120 136 152 168 184 200 216 232 248 264 280 296 312 328 344 360 376 392 408 424 440 456 472 488 504 520 536 552 568 584 600 616 632 648 664 680 696 712 0
9 25 41 57 73 89 105 121 137 153 169 185 201 217 233 249 265 281 297 313 329 345 361 377 393 409 425 441 457 473 489 505 521 537 553 569 585 601 617 633 649 665 681 697 713 0
10 26 42 58 74 90 106 122 138 154 170 186 202 218 234 250 266 282 298 314 330 346 362 378 394 410 426 442 458 474 490 506 522 538 554 570 586 602 618 634 650 666 682 698 714 0
11 27 43 59 75 91 107 123 139 155 171 187 203 219 235 251 267 283 299 315 331 347 363 379 395 411 427 443 459 475 491 507 523 539 555 571 587 603 619 635 651 667 683 699 715 0
12 28 44 60 76 92 108 124 140 156 172 188 204 220 236 252 268 284 300 316 332 348 364 380 396 412 428 444 460 476 492 508 524 540 556 572 588 604 620 636 652 668 684 700 716 0
13 29 45 61 77 93 109 125 141 157 173 189 205 221 237 253 269 285 301 317 333 349 365 381 397 413 429 445 461 477 493 509 525 541 557 573 589 605 621 637 653 669 685 701 717 0
14 30 46 62 78 94 110 126 142 158 174 190 206 222 238 254 270 286 302 318 334 350 366 382 398 414 430 446 462 478 494 510 526 542 558 574 590 606 622 638 654 670 686 702 718 0
15 31 47 63 79 95 111 127 143 159 175 191 207 223 239 255 271 287 303 319 335 351 367 383 399 415 431 447 463 479 495 511 527 543 559 575 591 607 623 639 655 671 687 703 719 0
16 32 48 64 80 96 112 128 144 160 176 192 208 224 240 256 272 288 304 320 336 352 368 384 400 416 432 448 464 480 496 512 528 544 560 576 592 608 624 640 656 672 688 704 720 0
