p cnf 1081 28771
1 2 3 4 5 6 7 8 9 10 11 12 13 14 15 16 17 18 0
-1 -2 0
-1 -3 0
-1 -4 0
-1 -5 0
-1 -6 0
-1 -7 0
-1 -8 0
-1 -9 0
-1 -10 0
-1 -11 0
-1 -12 0
-1 -13 0
-1 -14 0
-1 -15 0
-1 -16 0
-1 -17 0
-1 -18 0
-2 -3 0
-2 -4 0
-2 -5 0
-2 -6 0
-2 -7 0
-2 -8 0
-2 -9 0
-2 -10 0
-2 -11 0
-2 -12 0
-2 -13 0
-2 -14 0
-2 -15 0
-2 -16 0
-2 -17 0
-2 -18 0
-3 -4 0
-3 -5 0
-3 -6 0
-3 -7 0
-3 -8 0
-3 -9 0
-3 -10 0
-3 -11 0
-3 -12 0
-3 -13 0
-3 -14 0
-3 -15 0
-3 -16 0
-3 -17 0
-3 -18 0
-4 -5 0
-4 -6 0
-4 -7 0
-4 -8 0
-4 -9 0
-4 -10 0
-4 -11 0
-4 -12 0
-4 -13 0
-4 -14 0
-4 -15 0
-4 -16 0
-4 -17 0
-4 -18 0
-5 -6 0
-5 -7 0
-5 -8 0
-5 -9 0
-5 -10 0
-5 -11 0
-5 -12 0
-5 -13 0
-5 -14 0
-5 -15 0
-5 -16 0
-5 -17 0
-5 -18 0
-6 -7 0
-6 -8 0
-6 -9 0
-6 -10 0
-6 -11 0
-6 -12 0
-6 -13 0
-6 -14 0
-6 -15 0
-6 -16 0
-6 -17 0
-6 -18 0
-7 -8 0
-7 -9 0
-7 -10 0
-7 -11 0
-7 -12 0
-7 -13 0
-7 -14 0
-7 -15 0
-7 -16 0
-7 -17 0
-7 -18 0
-8 -9 0
-8 -10 0
-8 -11 0
-8 -12 0
-8 -13 0
-8 -14 0
-8 -15 0
-8 -16 0
-8 -17 0
-8 -18 0
-9 -10 0
-9 -11 0
-9 -12 0
-9 -13 0
-9 -14 0
-9 -15 0
-9 -16 0
-9 -17 0
-9 -18 0
-10 -11 0
-10 -12 0
-10 -13 0
-10 -14 0
-10 -15 0
-10 -16 0
-10 -17 0
-10 -18 0
-11 -12 0
-11 -13 0
-11 -14 0
-11 -15 0
-11 -16 0
-11 -17 0
-11 -18 0
-12 -13 0
-12 -14 0
-12 -15 0
-12 -16 0
-12 -17 0
-12 -18 0
-13 -14 0
-13 -15 0
-13 -16 0
-13 -17 0
-13 -18 0
-14 -15 0
-14 -16 0
-14 -17 0
-14 -18 0
-15 -16 0
-15 -17 0
-15 -18 0
-16 -17 0
-16 -18 0
-17 -18 0
19 20 21 22 23 24 25 26 27 28 29 30 31 32 33 34 35 36 0
-19 -20 0
-19 -21 0
-19 -22 0
-19 -23 0
-19 -24 0
-19 -25 0
-19 -26 0
-19 -27 0
-19 -28 0
-19 -29 0
-19 -30 0
-19 -31 0
-19 -32 0
-19 -33 0
-19 -34 0
-19 -35 0
-19 -36 0
-20 -21 0
-20 -22 0
-20 -23 0
-20 -24 0
-20 -25 0
-20 -26 0
-20 -27 0
-20 -28 0
-20 -29 0
-20 -30 0
-20 -31 0
-20 -32 0
-20 -33 0
-20 -34 0
-20 -35 0
-20 -36 0
-21 -22 0
-21 -23 0
-21 -24 0
-21 -25 0
-21 -26 0
-21 -27 0
-21 -28 0
-21 -29 0
-21 -30 0
-21 -31 0
-21 -32 0
-21 -33 0
-21 -34 0
-21 -35 0
-21 -36 0
-22 -23 0
-22 -24 0
-22 -25 0
-22 -26 0
-22 -27 0
-22 -28 0
-22 -29 0
-22 -30 0
-22 -31 0
-22 -32 0
-22 -33 0
-22 -34 0
-22 -35 0
-22 -36 0
-23 -24 0
-23 -25 0
-23 -26 0
-23 -27 0
-23 -28 0
-23 -29 0
-23 -30 0
-23 -31 0
-23 -32 0
-23 -33 0
-23 -34 0
-23 -35 0
-23 -36 0
-24 -25 0
-24 -26 0
-24 -27 0
-24 -28 0
-24 -29 0
-24 -30 0
-24 -31 0
-24 -32 0
-24 -33 0
-24 -34 0
-24 -35 0
-24 -36 0
-25 -26 0
-25 -27 0
-25 -28 0
-25 -29 0
-25 -30 0
-25 -31 0
-25 -32 0
-25 -33 0
-25 -34 0
-25 -35 0
-25 -36 0
-26 -27 0
-26 -28 0
-26 -29 0
-26 -30 0
-26 -31 0
-26 -32 0
-26 -33 0
-26 -34 0
-26 -35 0
-26 -36 0
-27 -28 0
-27 -29 0
-27 -30 0
-27 -31 0
-27 -32 0
-27 -33 0
-27 -34 0
-27 -35 0
-27 -36 0
-28 -29 0
-28 -30 0
-28 -31 0
-28 -32 0
-28 -33 0
-28 -34 0
-28 -35 0
-28 -36 0
-29 -30 0
-29 -31 0
-29 -32 0
-29 -33 0
-29 -34 0
-29 -35 0
-29 -36 0
-30 -31 0
-30 -32 0
-30 -33 0
-30 -34 0
-30 -35 0
-30 -36 0
-31 -32 0
-31 -33 0
-31 -34 0
-31 -35 0
-31 -36 0
-32 -33 0
-32 -34 0
-32 -35 0
-32 -36 0
-33 -34 0
-33 -35 0
-33 -36 0
-34 -35 0
-34 -36 0
-35 -36 0
37 38 39 40 41 42 43 44 45 46 47 48 49 50 51 52 53 54 0
-37 -38 0
-37 -39 0
-37 -40 0
-37 -41 0
-37 -42 0
-37 -43 0
-37 -44 0
-37 -45 0
-37 -46 0
-37 -47 0
-37 -48 0
-37 -49 0
-37 -50 0
-37 -51 0
-37 -52 0
-37 -53 0
-37 -54 0
-38 -39 0
-38 -40 0
-38 -41 0
-38 -42 0
-38 -43 0
-38 -44 0
-38 -45 0
-38 -46 0
-38 -47 0
-38 -48 0
-38 -49 0
-38 -50 0
-38 -51 0
-38 -52 0
-38 -53 0
-38 -54 0
-39 -40 0
-39 -41 0
-39 -42 0
-39 -43 0
-39 -44 0
-39 -45 0
-39 -46 0
-39 -47 0
-39 -48 0
-39 -49 0
-39 -50 0
-39 -51 0
-39 -52 0
-39 -53 0
-39 -54 0
-40 -41 0
-40 -42 0
-40 -43 0
-40 -44 0
-40 -45 0
-40 -46 0
-40 -47 0
-40 -48 0
-40 -49 0
-40 -50 0
-40 -51 0
-40 -52 0
-40 -53 0
-40 -54 0
-41 -42 0
-41 -43 0
-41 -44 0
-41 -45 0
-41 -46 0
-41 -47 0
-41 -48 0
-41 -49 0
-41 -50 0
-41 -51 0
-41 -52 0
-41 -53 0
-41 -54 0
-42 -43 0
-42 -44 0
-42 -45 0
-42 -46 0
-42 -47 0
-42 -48 0
-42 -49 0
-42 -50 0
-42 -51 0
-42 -52 0
-42 -53 0
-42 -54 0
-43 -44 0
-43 -45 0
-43 -46 0
-43 -47 0
-43 -48 0
-43 -49 0
-43 -50 0
-43 -51 0
-43 -52 0
-43 -53 0
-43 -54 0
-44 -45 0
-44 -46 0
-44 -47 0
-44 -48 0
-44 -49 0
-44 -50 0
-44 -51 0
-44 -52 0
-44 -53 0
-44 -54 0
-45 -46 0
-45 -47 0
-45 -48 0
-45 -49 0
-45 -50 0
-45 -51 0
-45 -52 0
-45 -53 0
-45 -54 0
-46 -47 0
-46 -48 0
-46 -49 0
-46 -50 0
-46 -51 0
-46 -52 0
-46 -53 0
-46 -54 0
-47 -48 0
-47 -49 0
-47 -50 0
-47 -51 0
-47 -52 0
-47 -53 0
-47 -54 0
-48 -49 0
-48 -50 0
-48 -51 0
-48 -52 0
-48 -53 0
-48 -54 0
-49 -50 0
-49 -51 0
-49 -52 0
-49 -53 0
-49 -54 0
-50 -51 0
-50 -52 0
-50 -53 0
-50 -54 0
-51 -52 0
-51 -53 0
-51 -54 0
-52 -53 0
-52 -54 0
-53 -54 0
55 56 57 58 59 60 61 62 63 64 65 66 67 68 69 70 71 72 0
-55 -56 0
-55 -57 0
-55 -58 0
-55 -59 0
-55 -60 0
-55 -61 0
-55 -62 0
-55 -63 0
-55 -64 0
-55 -65 0
-55 -66 0
-55 -67 0
-55 -68 0
-55 -69 0
-55 -70 0
-55 -71 0
-55 -72 0
-56 -57 0
-56 -58 0
-56 -59 0
-56 -60 0
-56 -61 0
-56 -62 0
-56 -63 0
-56 -64 0
-56 -65 0
-56 -66 0
-56 -67 0
-56 -68 0
-56 -69 0
-56 -70 0
-56 -71 0
-56 -72 0
-57 -58 0
-57 -59 0
-57 -60 0
-57 -61 0
-57 -62 0
-57 -63 0
-57 -64 0
-57 -65 0
-57 -66 0
-57 -67 0
-57 -68 0
-57 -69 0
-57 -70 0
-57 -71 0
-57 -72 0
-58 -59 0
-58 -60 0
-58 -61 0
-58 -62 0
-58 -63 0
-58 -64 0
-58 -65 0
-58 -66 0
-58 -67 0
-58 -68 0
-58 -69 0
-58 -70 0
-58 -71 0
-58 -72 0
-59 -60 0
-59 -61 0
-59 -62 0
-59 -63 0
-59 -64 0
-59 -65 0
-59 -66 0
-59 -67 0
-59 -68 0
-59 -69 0
-59 -70 0
-59 -71 0
-59 -72 0
-60 -61 0
-60 -62 0
-60 -63 0
-60 -64 0
-60 -65 0
-60 -66 0
-60 -67 0
-60 -68 0
-60 -69 0
-60 -70 0
-60 -71 0
-60 -72 0
-61 -62 0
-61 -63 0
-61 -64 0
-61 -65 0
-61 -66 0
-61 -67 0
-61 -68 0
-61 -69 0
-61 -70 0
-61 -71 0
-61 -72 0
-62 -63 0
-62 -64 0
-62 -65 0
-62 -66 0
-62 -67 0
-62 -68 0
-62 -69 0
-62 -70 0
-62 -71 0
-62 -72 0
-63 -64 0
-63 -65 0
-63 -66 0
-63 -67 0
-63 -68 0
-63 -69 0
-63 -70 0
-63 -71 0
-63 -72 0
-64 -65 0
-64 -66 0
-64 -67 0
-64 -68 0
-64 -69 0
-64 -70 0
-64 -71 0
-64 -72 0
-65 -66 0
-65 -67 0
-65 -68 0
-65 -69 0
-65 -70 0
-65 -71 0
-65 -72 0
-66 -67 0
-66 -68 0
-66 -69 0
-66 -70 0
-66 -71 0
-66 -72 0
-67 -68 0
-67 -69 0
-67 -70 0
-67 -71 0
-67 -72 0
-68 -69 0
-68 -70 0
-68 -71 0
-68 -72 0
-69 -70 0
-69 -71 0
-69 -72 0
-70 -71 0
-70 -72 0
-71 -72 0
73 74 75 76 77 78 79 80 81 82 83 84 85 86 87 88 89 90 0
-73 -74 0
-73 -75 0
-73 -76 0
-73 -77 0
-73 -78 0
-73 -79 0
-73 -80 0
-73 -81 0
-73 -82 0
-73 -83 0
-73 -84 0
-73 -85 0
-73 -86 0
-73 -87 0
-73 -88 0
-73 -89 0
-73 -90 0
-74 -75 0
-74 -76 0
-74 -77 0
-74 -78 0
-74 -79 0
-74 -80 0
-74 -81 0
-74 -82 0
-74 -83 0
-74 -84 0
-74 -85 0
-74 -86 0
-74 -87 0
-74 -88 0
-74 -89 0
-74 -90 0
-75 -76 0
-75 -77 0
-75 -78 0
-75 -79 0
-75 -80 0
-75 -81 0
-75 -82 0
-75 -83 0
-75 -84 0
-75 -85 0
-75 -86 0
-75 -87 0
-75 -88 0
-75 -89 0
-75 -90 0
-76 -77 0
-76 -78 0
-76 -79 0
-76 -80 0
-76 -81 0
-76 -82 0
-76 -83 0
-76 -84 0
-76 -85 0
-76 -86 0
-76 -87 0
-76 -88 0
-76 -89 0
-76 -90 0
-77 -78 0
-77 -79 0
-77 -80 0
-77 -81 0
-77 -82 0
-77 -83 0
-77 -84 0
-77 -85 0
-77 -86 0
-77 -87 0
-77 -88 0
-77 -89 0
-77 -90 0
-78 -79 0
-78 -80 0
-78 -81 0
-78 -82 0
-78 -83 0
-78 -84 0
-78 -85 0
-78 -86 0
-78 -87 0
-78 -88 0
-78 -89 0
-78 -90 0
-79 -80 0
-79 -81 0
-79 -82 0
-79 -83 0
-79 -84 0
-79 -85 0
-79 -86 0
-79 -87 0
-79 -88 0
-79 -89 0
-79 -90 0
-80 -81 0
-80 -82 0
-80 -83 0
-80 -84 0
-80 -85 0
-80 -86 0
-80 -87 0
-80 -88 0
-80 -89 0
-80 -90 0
-81 -82 0
-81 -83 0
-81 -84 0
-81 -85 0
-81 -86 0
-81 -87 0
-81 -88 0
-81 -89 0
-81 -90 0
-82 -83 0
-82 -84 0
-82 -85 0
-82 -86 0
-82 -87 0
-82 -88 0
-82 -89 0
-82 -90 0
-83 -84 0
-83 -85 0
-83 -86 0
-83 -87 0
-83 -88 0
-83 -89 0
-83 -90 0
-84 -85 0
-84 -86 0
-84 -87 0
-84 -88 0
-84 -89 0
-84 -90 0
-85 -86 0
-85 -87 0
-85 -88 0
-85 -89 0
-85 -90 0
-86 -87 0
-86 -88 0
-86 -89 0
-86 -90 0
-87 -88 0
-87 -89 0
-87 -90 0
-88 -89 0
-88 -90 0
-89 -90 0
91 92 93 94 95 96 97 98 99 100 101 102 103 104 105 106 107 108 0
-91 -92 0
-91 -93 0
-91 -94 0
-91 -95 0
-91 -96 0
-91 -97 0
-91 -98 0
-91 -99 0
-91 -100 0
-91 -101 0
-91 -102 0
-91 -103 0
-91 -104 0
-91 -105 0
-91 -106 0
-91 -107 0
-91 -108 0
-92 -93 0
-92 -94 0
-92 -95 0
-92 -96 0
-92 -97 0
-92 -98 0
-92 -99 0
-92 -100 0
-92 -101 0
-92 -102 0
-92 -103 0
-92 -104 0
-92 -105 0
-92 -106 0
-92 -107 0
-92 -108 0
-93 -94 0
-93 -95 0
-93 -96 0
-93 -97 0
-93 -98 0
-93 -99 0
-93 -100 0
-93 -101 0
-93 -102 0
-93 -103 0
-93 -104 0
-93 -105 0
-93 -106 0
-93 -107 0
-93 -108 0
-94 -95 0
-94 -96 0
-94 -97 0
-94 -98 0
-94 -99 0
-94 -100 0
-94 -101 0
-94 -102 0
-94 -103 0
-94 -104 0
-94 -105 0
-94 -106 0
-94 -107 0
-94 -108 0
-95 -96 0
-95 -97 0
-95 -98 0
-95 -99 0
-95 -100 0
-95 -101 0
-95 -102 0
-95 -103 0
-95 -104 0
-95 -105 0
-95 -106 0
-95 -107 0
-95 -108 0
-96 -97 0
-96 -98 0
-96 -99 0
-96 -100 0
-96 -101 0
-96 -102 0
-96 -103 0
-96 -104 0
-96 -105 0
-96 -106 0
-96 -107 0
-96 -108 0
-97 -98 0
-97 -99 0
-97 -100 0
-97 -101 0
-97 -102 0
-97 -103 0
-97 -104 0
-97 -105 0
-97 -106 0
-97 -107 0
-97 -108 0
-98 -99 0
-98 -100 0
-98 -101 0
-98 -102 0
-98 -103 0
-98 -104 0
-98 -105 0
-98 -106 0
-98 -107 0
-98 -108 0
-99 -100 0
-99 -101 0
-99 -102 0
-99 -103 0
-99 -104 0
-99 -105 0
-99 -106 0
-99 -107 0
-99 -108 0
-100 -101 0
-100 -102 0
-100 -103 0
-100 -104 0
-100 -105 0
-100 -106 0
-100 -107 0
-100 -108 0
-101 -102 0
-101 -103 0
-101 -104 0
-101 -105 0
-101 -106 0
-101 -107 0
-101 -108 0
-102 -103 0
-102 -104 0
-102 -105 0
-102 -106 0
-102 -107 0
-102 -108 0
-103 -104 0
-103 -105 0
-103 -106 0
-103 -107 0
-103 -108 0
-104 -105 0
-104 -106 0
-104 -107 0
-104 -108 0
-105 -106 0
-105 -107 0
-105 -108 0
-106 -107 0
-106 -108 0
-107 -108 0
109 110 111 112 113 114 115 116 117 118 119 120 121 122 123 124 125 126 0
-109 -110 0
-109 -111 0
-109 -112 0
-109 -113 0
-109 -114 0
-109 -115 0
-109 -116 0
-109 -117 0
-109 -118 0
-109 -119 0
-109 -120 0
-109 -121 0
-109 -122 0
-109 -123 0
-109 -124 0
-109 -125 0
-109 -126 0
-110 -111 0
-110 -112 0
-110 -113 0
-110 -114 0
-110 -115 0
-110 -116 0
-110 -117 0
-110 -118 0
-110 -119 0
-110 -120 0
-110 -121 0
-110 -122 0
-110 -123 0
-110 -124 0
-110 -125 0
-110 -126 0
-111 -112 0
-111 -113 0
-111 -114 0
-111 -115 0
-111 -116 0
-111 -117 0
-111 -118 0
-111 -119 0
-111 -120 0
-111 -121 0
-111 -122 0
-111 -123 0
-111 -124 0
-111 -125 0
-111 -126 0
-112 -113 0
-112 -114 0
-112 -115 0
-112 -116 0
-112 -117 0
-112 -118 0
-112 -119 0
-112 -120 0
-112 -121 0
-112 -122 0
-112 -123 0
-112 -124 0
-112 -125 0
-112 -126 0
-113 -114 0
-113 -115 0
-113 -116 0
-113 -117 0
-113 -118 0
-113 -119 0
-113 -120 0
-113 -121 0
-113 -122 0
-113 -123 0
-113 -124 0
-113 -125 0
-113 -126 0
-114 -115 0
-114 -116 0
-114 -117 0
-114 -118 0
-114 -119 0
-114 -120 0
-114 -121 0
-114 -122 0
-114 -123 0
-114 -124 0
-114 -125 0
-114 -126 0
-115 -116 0
-115 -117 0
-115 -118 0
-115 -119 0
-115 -120 0
-115 -121 0
-115 -122 0
-115 -123 0
-115 -124 0
-115 -125 0
-115 -126 0
-116 -117 0
-116 -118 0
-116 -119 0
-116 -120 0
-116 -121 0
-116 -122 0
-116 -123 0
-116 -124 0
-116 -125 0
-116 -126 0
-117 -118 0
-117 -119 0
-117 -120 0
-117 -121 0
-117 -122 0
-117 -123 0
-117 -124 0
-117 -125 0
-117 -126 0
-118 -119 0
-118 -120 0
-118 -121 0
-118 -122 0
-118 -123 0
-118 -124 0
-118 -125 0
-118 -126 0
-119 -120 0
-119 -121 0
-119 -122 0
-119 -123 0
-119 -124 0
-119 -125 0
-119 -126 0
-120 -121 0
-120 -122 0
-120 -123 0
-120 -124 0
-120 -125 0
-120 -126 0
-121 -122 0
-121 -123 0
-121 -124 0
-121 -125 0
-121 -126 0
-122 -123 0
-122 -124 0
-122 -125 0
-122 -126 0
-123 -124 0
-123 -125 0
-123 -126 0
-124 -125 0
-124 -126 0
-125 -126 0
127 128 129 130 131 132 133 134 135 136 137 138 139 140 141 142 143 144 0
-127 -128 0
-127 -129 0
-127 -130 0
-127 -131 0
-127 -132 0
-127 -133 0
-127 -134 0
-127 -135 0
-127 -136 0
-127 -137 0
-127 -138 0
-127 -139 0
-127 -140 0
-127 -141 0
-127 -142 0
-127 -143 0
-127 -144 0
-128 -129 0
-128 -130 0
-128 -131 0
-128 -132 0
-128 -133 0
-128 -134 0
-128 -135 0
-128 -136 0
-128 -137 0
-128 -138 0
-128 -139 0
-128 -140 0
-128 -141 0
-128 -142 0
-128 -143 0
-128 -144 0
-129 -130 0
-129 -131 0
-129 -132 0
-129 -133 0
-129 -134 0
-129 -135 0
-129 -136 0
-129 -137 0
-129 -138 0
-129 -139 0
-129 -140 0
-129 -141 0
-129 -142 0
-129 -143 0
-129 -144 0
-130 -131 0
-130 -132 0
-130 -133 0
-130 -134 0
-130 -135 0
-130 -136 0
-130 -137 0
-130 -138 0
-130 -139 0
-130 -140 0
-130 -141 0
-130 -142 0
-130 -143 0
-130 -144 0
-131 -132 0
-131 -133 0
-131 -134 0
-131 -135 0
-131 -136 0
-131 -137 0
-131 -138 0
-131 -139 0
-131 -140 0
-131 -141 0
-131 -142 0
-131 -143 0
-131 -144 0
-132 -133 0
-132 -134 0
-132 -135 0
-132 -136 0
-132 -137 0
-132 -138 0
-132 -139 0
-132 -140 0
-132 -141 0
-132 -142 0
-132 -143 0
-132 -144 0
-133 -134 0
-133 -135 0
-133 -136 0
-133 -137 0
-133 -138 0
-133 -139 0
-133 -140 0
-133 -141 0
-133 -142 0
-133 -143 0
-133 -144 0
-134 -135 0
-134 -136 0
-134 -137 0
-134 -138 0
-134 -139 0
-134 -140 0
-134 -141 0
-134 -142 0
-134 -143 0
-134 -144 0
-135 -136 0
-135 -137 0
-135 -138 0
-135 -139 0
-135 -140 0
-135 -141 0
-135 -142 0
-135 -143 0
-135 -144 0
-136 -137 0
-136 -138 0
-136 -139 0
-136 -140 0
-136 -141 0
-136 -142 0
-136 -143 0
-136 -144 0
-137 -138 0
-137 -139 0
-137 -140 0
-137 -141 0
-137 -142 0
-137 -143 0
-137 -144 0
-138 -139 0
-138 -140 0
-138 -141 0
-138 -142 0
-138 -143 0
-138 -144 0
-139 -140 0
-139 -141 0
-139 -142 0
-139 -143 0
-139 -144 0
-140 -141 0
-140 -142 0
-140 -143 0
-140 -144 0
-141 -142 0
-141 -143 0
-141 -144 0
-142 -143 0
-142 -144 0
-143 -144 0
145 146 147 148 149 150 151 152 153 154 155 156 157 158 159 160 161 162 0
-145 -146 0
-145 -147 0
-145 -148 0
-145 -149 0
-145 -150 0
-145 -151 0
-145 -152 0
-145 -153 0
-145 -154 0
-145 -155 0
-145 -156 0
-145 -157 0
-145 -158 0
-145 -159 0
-145 -160 0
-145 -161 0
-145 -162 0
-146 -147 0
-146 -148 0
-146 -149 0
-146 -150 0
-146 -151 0
-146 -152 0
-146 -153 0
-146 -154 0
-146 -155 0
-146 -156 0
-146 -157 0
-146 -158 0
-146 -159 0
-146 -160 0
-146 -161 0
-146 -162 0
-147 -148 0
-147 -149 0
-147 -150 0
-147 -151 0
-147 -152 0
-147 -153 0
-147 -154 0
-147 -155 0
-147 -156 0
-147 -157 0
-147 -158 0
-147 -159 0
-147 -160 0
-147 -161 0
-147 -162 0
-148 -149 0
-148 -150 0
-148 -151 0
-148 -152 0
-148 -153 0
-148 -154 0
-148 -155 0
-148 -156 0
-148 -157 0
-148 -158 0
-148 -159 0
-148 -160 0
-148 -161 0
-148 -162 0
-149 -150 0
-149 -151 0
-149 -152 0
-149 -153 0
-149 -154 0
-149 -155 0
-149 -156 0
-149 -157 0
-149 -158 0
-149 -159 0
-149 -160 0
-149 -161 0
-149 -162 0
-150 -151 0
-150 -152 0
-150 -153 0
-150 -154 0
-150 -155 0
-150 -156 0
-150 -157 0
-150 -158 0
-150 -159 0
-150 -160 0
-150 -161 0
-150 -162 0
-151 -152 0
-151 -153 0
-151 -154 0
-151 -155 0
-151 -156 0
-151 -157 0
-151 -158 0
-151 -159 0
-151 -160 0
-151 -161 0
-151 -162 0
-152 -153 0
-152 -154 0
-152 -155 0
-152 -156 0
-152 -157 0
-152 -158 0
-152 -159 0
-152 -160 0
-152 -161 0
-152 -162 0
-153 -154 0
-153 -155 0
-153 -156 0
-153 -157 0
-153 -158 0
-153 -159 0
-153 -160 0
-153 -161 0
-153 -162 0
-154 -155 0
-154 -156 0
-154 -157 0
-154 -158 0
-154 -159 0
-154 -160 0
-154 -161 0
-154 -162 0
-155 -156 0
-155 -157 0
-155 -158 0
-155 -159 0
-155 -160 0
-155 -161 0
-155 -162 0
-156 -157 0
-156 -158 0
-156 -159 0
-156 -160 0
-156 -161 0
-156 -162 0
-157 -158 0
-157 -159 0
-157 -160 0
-157 -161 0
-157 -162 0
-158 -159 0
-158 -160 0
-158 -161 0
-158 -162 0
-159 -160 0
-159 -161 0
-159 -162 0
-160 -161 0
-160 -162 0
-161 -162 0
163 164 165 166 167 168 169 170 171 172 173 174 175 176 177 178 179 180 0
-163 -164 0
-163 -165 0
-163 -166 0
-163 -167 0
-163 -168 0
-163 -169 0
-163 -170 0
-163 -171 0
-163 -172 0
-163 -173 0
-163 -174 0
-163 -175 0
-163 -176 0
-163 -177 0
-163 -178 0
-163 -179 0
-163 -180 0
-164 -165 0
-164 -166 0
-164 -167 0
-164 -168 0
-164 -169 0
-164 -170 0
-164 -171 0
-164 -172 0
-164 -173 0
-164 -174 0
-164 -175 0
-164 -176 0
-164 -177 0
-164 -178 0
-164 -179 0
-164 -180 0
-165 -166 0
-165 -167 0
-165 -168 0
-165 -169 0
-165 -170 0
-165 -171 0
-165 -172 0
-165 -173 0
-165 -174 0
-165 -175 0
-165 -176 0
-165 -177 0
-165 -178 0
-165 -179 0
-165 -180 0
-166 -167 0
-166 -168 0
-166 -169 0
-166 -170 0
-166 -171 0
-166 -172 0
-166 -173 0
-166 -174 0
-166 -175 0
-166 -176 0
-166 -177 0
-166 -178 0
-166 -179 0
-166 -180 0
-167 -168 0
-167 -169 0
-167 -170 0
-167 -171 0
-167 -172 0
-167 -173 0
-167 -174 0
-167 -175 0
-167 -176 0
-167 -177 0
-167 -178 0
-167 -179 0
-167 -180 0
-168 -169 0
-168 -170 0
-168 -171 0
-168 -172 0
-168 -173 0
-168 -174 0
-168 -175 0
-168 -176 0
-168 -177 0
-168 -178 0
-168 -179 0
-168 -180 0
-169 -170 0
-169 -171 0
-169 -172 0
-169 -173 0
-169 -174 0
-169 -175 0
-169 -176 0
-169 -177 0
-169 -178 0
-169 -179 0
-169 -180 0
-170 -171 0
-170 -172 0
-170 -173 0
-170 -174 0
-170 -175 0
-170 -176 0
-170 -177 0
-170 -178 0
-170 -179 0
-170 -180 0
-171 -172 0
-171 -173 0
-171 -174 0
-171 -175 0
-171 -176 0
-171 -177 0
-171 -178 0
-171 -179 0
-171 -180 0
-172 -173 0
-172 -174 0
-172 -175 0
-172 -176 0
-172 -177 0
-172 -178 0
-172 -179 0
-172 -180 0
-173 -174 0
-173 -175 0
-173 -176 0
-173 -177 0
-173 -178 0
-173 -179 0
-173 -180 0
-174 -175 0
-174 -176 0
-174 -177 0
-174 -178 0
-174 -179 0
-174 -180 0
-175 -176 0
-175 -177 0
-175 -178 0
-175 -179 0
-175 -180 0
-176 -177 0
-176 -178 0
-176 -179 0
-176 -180 0
-177 -178 0
-177 -179 0
-177 -180 0
-178 -179 0
-178 -180 0
-179 -180 0
181 182 183 184 185 186 187 188 189 190 191 192 193 194 195 196 197 198 0
-181 -182 0
-181 -183 0
-181 -184 0
-181 -185 0
-181 -186 0
-181 -187 0
-181 -188 0
-181 -189 0
-181 -190 0
-181 -191 0
-181 -192 0
-181 -193 0
-181 -194 0
-181 -195 0
-181 -196 0
-181 -197 0
-181 -198 0
-182 -183 0
-182 -184 0
-182 -185 0
-182 -186 0
-182 -187 0
-182 -188 0
-182 -189 0
-182 -190 0
-182 -191 0
-182 -192 0
-182 -193 0
-182 -194 0
-182 -195 0
-182 -196 0
-182 -197 0
-182 -198 0
-183 -184 0
-183 -185 0
-183 -186 0
-183 -187 0
-183 -188 0
-183 -189 0
-183 -190 0
-183 -191 0
-183 -192 0
-183 -193 0
-183 -194 0
-183 -195 0
-183 -196 0
-183 -197 0
-183 -198 0
-184 -185 0
-184 -186 0
-184 -187 0
-184 -188 0
-184 -189 0
-184 -190 0
-184 -191 0
-184 -192 0
-184 -193 0
-184 -194 0
-184 -195 0
-184 -196 0
-184 -197 0
-184 -198 0
-185 -186 0
-185 -187 0
-185 -188 0
-185 -189 0
-185 -190 0
-185 -191 0
-185 -192 0
-185 -193 0
-185 -194 0
-185 -195 0
-185 -196 0
-185 -197 0
-185 -198 0
-186 -187 0
-186 -188 0
-186 -189 0
-186 -190 0
-186 -191 0
-186 -192 0
-186 -193 0
-186 -194 0
-186 -195 0
-186 -196 0
-186 -197 0
-186 -198 0
-187 -188 0
-187 -189 0
-187 -190 0
-187 -191 0
-187 -192 0
-187 -193 0
-187 -194 0
-187 -195 0
-187 -196 0
-187 -197 0
-187 -198 0
-188 -189 0
-188 -190 0
-188 -191 0
-188 -192 0
-188 -193 0
-188 -194 0
-188 -195 0
-188 -196 0
-188 -197 0
-188 -198 0
-189 -190 0
-189 -191 0
-189 -192 0
-189 -193 0
-189 -194 0
-189 -195 0
-189 -196 0
-189 -197 0
-189 -198 0
-190 -191 0
-190 -192 0
-190 -193 0
-190 -194 0
-190 -195 0
-190 -196 0
-190 -197 0
-190 -198 0
-191 -192 0
-191 -193 0
-191 -194 0
-191 -195 0
-191 -196 0
-191 -197 0
-191 -198 0
-192 -193 0
-192 -194 0
-192 -195 0
-192 -196 0
-192 -197 0
-192 -198 0
-193 -194 0
-193 -195 0
-193 -196 0
-193 -197 0
-193 -198 0
-194 -195 0
-194 -196 0
-194 -197 0
-194 -198 0
-195 -196 0
-195 -197 0
-195 -198 0
-196 -197 0
-196 -198 0
-197 -198 0
199 200 201 202 203 204 205 206 207 208 209 210 211 212 213 214 215 216 0
-199 -200 0
-199 -201 0
-199 -202 0
-199 -203 0
-199 -204 0
-199 -205 0
-199 -206 0
-199 -207 0
-199 -208 0
-199 -209 0
-199 -210 0
-199 -211 0
-199 -212 0
-199 -213 0
-199 -214 0
-199 -215 0
-199 -216 0
-200 -201 0
-200 -202 0
-200 -203 0
-200 -204 0
-200 -205 0
-200 -206 0
-200 -207 0
-200 -208 0
-200 -209 0
-200 -210 0
-200 -211 0
-200 -212 0
-200 -213 0
-200 -214 0
-200 -215 0
-200 -216 0
-201 -202 0
-201 -203 0
-201 -204 0
-201 -205 0
-201 -206 0
-201 -207 0
-201 -208 0
-201 -209 0
-201 -210 0
-201 -211 0
-201 -212 0
-201 -213 0
-201 -214 0
-201 -215 0
-201 -216 0
-202 -203 0
-202 -204 0
-202 -205 0
-202 -206 0
-202 -207 0
-202 -208 0
-202 -209 0
-202 -210 0
-202 -211 0
-202 -212 0
-202 -213 0
-202 -214 0
-202 -215 0
-202 -216 0
-203 -204 0
-203 -205 0
-203 -206 0
-203 -207 0
-203 -208 0
-203 -209 0
-203 -210 0
-203 -211 0
-203 -212 0
-203 -213 0
-203 -214 0
-203 -215 0
-203 -216 0
-204 -205 0
-204 -206 0
-204 -207 0
-204 -208 0
-204 -209 0
-204 -210 0
-204 -211 0
-204 -212 0
-204 -213 0
-204 -214 0
-204 -215 0
-204 -216 0
-205 -206 0
-205 -207 0
-205 -208 0
-205 -209 0
-205 -210 0
-205 -211 0
-205 -212 0
-205 -213 0
-205 -214 0
-205 -215 0
-205 -216 0
-206 -207 0
-206 -208 0
-206 -209 0
-206 -210 0
-206 -211 0
-206 -212 0
-206 -213 0
-206 -214 0
-206 -215 0
-206 -216 0
-207 -208 0
-207 -209 0
-207 -210 0
-207 -211 0
-207 -212 0
-207 -213 0
-207 -214 0
-207 -215 0
-207 -216 0
-208 -209 0
-208 -210 0
-208 -211 0
-208 -212 0
-208 -213 0
-208 -214 0
-208 -215 0
-208 -216 0
-209 -210 0
-209 -211 0
-209 -212 0
-209 -213 0
-209 -214 0
-209 -215 0
-209 -216 0
-210 -211 0
-210 -212 0
-210 -213 0
-210 -214 0
-210 -215 0
-210 -216 0
-211 -212 0
-211 -213 0
-211 -214 0
-211 -215 0
-211 -216 0
-212 -213 0
-212 -214 0
-212 -215 0
-212 -216 0
-213 -214 0
-213 -215 0
-213 -216 0
-214 -215 0
-214 -216 0
-215 -216 0
217 218 219 220 221 222 223 224 225 226 227 228 229 230 231 232 233 234 0
-217 -218 0
-217 -219 0
-217 -220 0
-217 -221 0
-217 -222 0
-217 -223 0
-217 -224 0
-217 -225 0
-217 -226 0
-217 -227 0
-217 -228 0
-217 -229 0
-217 -230 0
-217 -231 0
-217 -232 0
-217 -233 0
-217 -234 0
-218 -219 0
-218 -220 0
-218 -221 0
-218 -222 0
-218 -223 0
-218 -224 0
-218 -225 0
-218 -226 0
-218 -227 0
-218 -228 0
-218 -229 0
-218 -230 0
-218 -231 0
-218 -232 0
-218 -233 0
-218 -234 0
-219 -220 0
-219 -221 0
-219 -222 0
-219 -223 0
-219 -224 0
-219 -225 0
-219 -226 0
-219 -227 0
-219 -228 0
-219 -229 0
-219 -230 0
-219 -231 0
-219 -232 0
-219 -233 0
-219 -234 0
-220 -221 0
-220 -222 0
-220 -223 0
-220 -224 0
-220 -225 0
-220 -226 0
-220 -227 0
-220 -228 0
-220 -229 0
-220 -230 0
-220 -231 0
-220 -232 0
-220 -233 0
-220 -234 0
-221 -222 0
-221 -223 0
-221 -224 0
-221 -225 0
-221 -226 0
-221 -227 0
-221 -228 0
-221 -229 0
-221 -230 0
-221 -231 0
-221 -232 0
-221 -233 0
-221 -234 0
-222 -223 0
-222 -224 0
-222 -225 0
-222 -226 0
-222 -227 0
-222 -228 0
-222 -229 0
-222 -230 0
-222 -231 0
-222 -232 0
-222 -233 0
-222 -234 0
-223 -224 0
-223 -225 0
-223 -226 0
-223 -227 0
-223 -228 0
-223 -229 0
-223 -230 0
-223 -231 0
-223 -232 0
-223 -233 0
-223 -234 0
-224 -225 0
-224 -226 0
-224 -227 0
-224 -228 0
-224 -229 0
-224 -230 0
-224 -231 0
-224 -232 0
-224 -233 0
-224 -234 0
-225 -226 0
-225 -227 0
-225 -228 0
-225 -229 0
-225 -230 0
-225 -231 0
-225 -232 0
-225 -233 0
-225 -234 0
-226 -227 0
-226 -228 0
-226 -229 0
-226 -230 0
-226 -231 0
-226 -232 0
-226 -233 0
-226 -234 0
-227 -228 0
-227 -229 0
-227 -230 0
-227 -231 0
-227 -232 0
-227 -233 0
-227 -234 0
-228 -229 0
-228 -230 0
-228 -231 0
-228 -232 0
-228 -233 0
-228 -234 0
-229 -230 0
-229 -231 0
-229 -232 0
-229 -233 0
-229 -234 0
-230 -231 0
-230 -232 0
-230 -233 0
-230 -234 0
-231 -232 0
-231 -233 0
-231 -234 0
-232 -233 0
-232 -234 0
-233 -234 0
235 236 237 238 239 240 241 242 243 244 245 246 247 248 249 250 251 252 0
-235 -236 0
-235 -237 0
-235 -238 0
-235 -239 0
-235 -240 0
-235 -241 0
-235 -242 0
-235 -243 0
-235 -244 0
-235 -245 0
-235 -246 0
-235 -247 0
-235 -248 0
-235 -249 0
-235 -250 0
-235 -251 0
-235 -252 0
-236 -237 0
-236 -238 0
-236 -239 0
-236 -240 0
-236 -241 0
-236 -242 0
-236 -243 0
-236 -244 0
-236 -245 0
-236 -246 0
-236 -247 0
-236 -248 0
-236 -249 0
-236 -250 0
-236 -251 0
-236 -252 0
-237 -238 0
-237 -239 0
-237 -240 0
-237 -241 0
-237 -242 0
-237 -243 0
-237 -244 0
-237 -245 0
-237 -246 0
-237 -247 0
-237 -248 0
-237 -249 0
-237 -250 0
-237 -251 0
-237 -252 0
-238 -239 0
-238 -240 0
-238 -241 0
-238 -242 0
-238 -243 0
-238 -244 0
-238 -245 0
-238 -246 0
-238 -247 0
-238 -248 0
-238 -249 0
-238 -250 0
-238 -251 0
-238 -252 0
-239 -240 0
-239 -241 0
-239 -242 0
-239 -243 0
-239 -244 0
-239 -245 0
-239 -246 0
-239 -247 0
-239 -248 0
-239 -249 0
-239 -250 0
-239 -251 0
-239 -252 0
-240 -241 0
-240 -242 0
-240 -243 0
-240 -244 0
-240 -245 0
-240 -246 0
-240 -247 0
-240 -248 0
-240 -249 0
-240 -250 0
-240 -251 0
-240 -252 0
-241 -242 0
-241 -243 0
-241 -244 0
-241 -245 0
-241 -246 0
-241 -247 0
-241 -248 0
-241 -249 0
-241 -250 0
-241 -251 0
-241 -252 0
-242 -243 0
-242 -244 0
-242 -245 0
-242 -246 0
-242 -247 0
-242 -248 0
-242 -249 0
-242 -250 0
-242 -251 0
-242 -252 0
-243 -244 0
-243 -245 0
-243 -246 0
-243 -247 0
-243 -248 0
-243 -249 0
-243 -250 0
-243 -251 0
-243 -252 0
-244 -245 0
-244 -246 0
-244 -247 0
-244 -248 0
-244 -249 0
-244 -250 0
-244 -251 0
-244 -252 0
-245 -246 0
-245 -247 0
-245 -248 0
-245 -249 0
-245 -250 0
-245 -251 0
-245 -252 0
-246 -247 0
-246 -248 0
-246 -249 0
-246 -250 0
-246 -251 0
-246 -252 0
-247 -248 0
-247 -249 0
-247 -250 0
-247 -251 0
-247 -252 0
-248 -249 0
-248 -250 0
-248 -251 0
-248 -252 0
-249 -250 0
-249 -251 0
-249 -252 0
-250 -251 0
-250 -252 0
-251 -252 0
253 254 255 256 257 258 259 260 261 262 263 264 265 266 267 268 269 270 0
-253 -254 0
-253 -255 0
-253 -256 0
-253 -257 0
-253 -258 0
-253 -259 0
-253 -260 0
-253 -261 0
-253 -262 0
-253 -263 0
-253 -264 0
-253 -265 0
-253 -266 0
-253 -267 0
-253 -268 0
-253 -269 0
-253 -270 0
-254 -255 0
-254 -256 0
-254 -257 0
-254 -258 0
-254 -259 0
-254 -260 0
-254 -261 0
-254 -262 0
-254 -263 0
-254 -264 0
-254 -265 0
-254 -266 0
-254 -267 0
-254 -268 0
-254 -269 0
-254 -270 0
-255 -256 0
-255 -257 0
-255 -258 0
-255 -259 0
-255 -260 0
-255 -261 0
-255 -262 0
-255 -263 0
-255 -264 0
-255 -265 0
-255 -266 0
-255 -267 0
-255 -268 0
-255 -269 0
-255 -270 0
-256 -257 0
-256 -258 0
-256 -259 0
-256 -260 0
-256 -261 0
-256 -262 0
-256 -263 0
-256 -264 0
-256 -265 0
-256 -266 0
-256 -267 0
-256 -268 0
-256 -269 0
-256 -270 0
-257 -258 0
-257 -259 0
-257 -260 0
-257 -261 0
-257 -262 0
-257 -263 0
-257 -264 0
-257 -265 0
-257 -266 0
-257 -267 0
-257 -268 0
-257 -269 0
-257 -270 0
-258 -259 0
-258 -260 0
-258 -261 0
-258 -262 0
-258 -263 0
-258 -264 0
-258 -265 0
-258 -266 0
-258 -267 0
-258 -268 0
-258 -269 0
-258 -270 0
-259 -260 0
-259 -261 0
-259 -262 0
-259 -263 0
-259 -264 0
-259 -265 0
-259 -266 0
-259 -267 0
-259 -268 0
-259 -269 0
-259 -270 0
-260 -261 0
-260 -262 0
-260 -263 0
-260 -264 0
-260 -265 0
-260 -266 0
-260 -267 0
-260 -268 0
-260 -269 0
-260 -270 0
-261 -262 0
-261 -263 0
-261 -264 0
-261 -265 0
-261 -266 0
-261 -267 0
-261 -268 0
-261 -269 0
-261 -270 0
-262 -263 0
-262 -264 0
-262 -265 0
-262 -266 0
-262 -267 0
-262 -268 0
-262 -269 0
-262 -270 0
-263 -264 0
-263 -265 0
-263 -266 0
-263 -267 0
-263 -268 0
-263 -269 0
-263 -270 0
-264 -265 0
-264 -266 0
-264 -267 0
-264 -268 0
-264 -269 0
-264 -270 0
-265 -266 0
-265 -267 0
-265 -268 0
-265 -269 0
-265 -270 0
-266 -267 0
-266 -268 0
-266 -269 0
-266 -270 0
-267 -268 0
-267 -269 0
-267 -270 0
-268 -269 0
-268 -270 0
-269 -270 0
271 272 273 274 275 276 277 278 279 280 281 282 283 284 285 286 287 288 0
-271 -272 0
-271 -273 0
-271 -274 0
-271 -275 0
-271 -276 0
-271 -277 0
-271 -278 0
-271 -279 0
-271 -280 0
-271 -281 0
-271 -282 0
-271 -283 0
-271 -284 0
-271 -285 0
-271 -286 0
-271 -287 0
-271 -288 0
-272 -273 0
-272 -274 0
-272 -275 0
-272 -276 0
-272 -277 0
-272 -278 0
-272 -279 0
-272 -280 0
-272 -281 0
-272 -282 0
-272 -283 0
-272 -284 0
-272 -285 0
-272 -286 0
-272 -287 0
-272 -288 0
-273 -274 0
-273 -275 0
-273 -276 0
-273 -277 0
-273 -278 0
-273 -279 0
-273 -280 0
-273 -281 0
-273 -282 0
-273 -283 0
-273 -284 0
-273 -285 0
-273 -286 0
-273 -287 0
-273 -288 0
-274 -275 0
-274 -276 0
-274 -277 0
-274 -278 0
-274 -279 0
-274 -280 0
-274 -281 0
-274 -282 0
-274 -283 0
-274 -284 0
-274 -285 0
-274 -286 0
-274 -287 0
-274 -288 0
-275 -276 0
-275 -277 0
-275 -278 0
-275 -279 0
-275 -280 0
-275 -281 0
-275 -282 0
-275 -283 0
-275 -284 0
-275 -285 0
-275 -286 0
-275 -287 0
-275 -288 0
-276 -277 0
-276 -278 0
-276 -279 0
-276 -280 0
-276 -281 0
-276 -282 0
-276 -283 0
-276 -284 0
-276 -285 0
-276 -286 0
-276 -287 0
-276 -288 0
-277 -278 0
-277 -279 0
-277 -280 0
-277 -281 0
-277 -282 0
-277 -283 0
-277 -284 0
-277 -285 0
-277 -286 0
-277 -287 0
-277 -288 0
-278 -279 0
-278 -280 0
-278 -281 0
-278 -282 0
-278 -283 0
-278 -284 0
-278 -285 0
-278 -286 0
-278 -287 0
-278 -288 0
-279 -280 0
-279 -281 0
-279 -282 0
-279 -283 0
-279 -284 0
-279 -285 0
-279 -286 0
-279 -287 0
-279 -288 0
-280 -281 0
-280 -282 0
-280 -283 0
-280 -284 0
-280 -285 0
-280 -286 0
-280 -287 0
-280 -288 0
-281 -282 0
-281 -283 0
-281 -284 0
-281 -285 0
-281 -286 0
-281 -287 0
-281 -288 0
-282 -283 0
-282 -284 0
-282 -285 0
-282 -286 0
-282 -287 0
-282 -288 0
-283 -284 0
-283 -285 0
-283 -286 0
-283 -287 0
-283 -288 0
-284 -285 0
-284 -286 0
-284 -287 0
-284 -288 0
-285 -286 0
-285 -287 0
-285 -288 0
-286 -287 0
-286 -288 0
-287 -288 0
289 290 291 292 293 294 295 296 297 298 299 300 301 302 303 304 305 306 0
-289 -290 0
-289 -291 0
-289 -292 0
-289 -293 0
-289 -294 0
-289 -295 0
-289 -296 0
-289 -297 0
-289 -298 0
-289 -299 0
-289 -300 0
-289 -301 0
-289 -302 0
-289 -303 0
-289 -304 0
-289 -305 0
-289 -306 0
-290 -291 0
-290 -292 0
-290 -293 0
-290 -294 0
-290 -295 0
-290 -296 0
-290 -297 0
-290 -298 0
-290 -299 0
-290 -300 0
-290 -301 0
-290 -302 0
-290 -303 0
-290 -304 0
-290 -305 0
-290 -306 0
-291 -292 0
-291 -293 0
-291 -294 0
-291 -295 0
-291 -296 0
-291 -297 0
-291 -298 0
-291 -299 0
-291 -300 0
-291 -301 0
-291 -302 0
-291 -303 0
-291 -304 0
-291 -305 0
-291 -306 0
-292 -293 0
-292 -294 0
-292 -295 0
-292 -296 0
-292 -297 0
-292 -298 0
-292 -299 0
-292 -300 0
-292 -301 0
-292 -302 0
-292 -303 0
-292 -304 0
-292 -305 0
-292 -306 0
-293 -294 0
-293 -295 0
-293 -296 0
-293 -297 0
-293 -298 0
-293 -299 0
-293 -300 0
-293 -301 0
-293 -302 0
-293 -303 0
-293 -304 0
-293 -305 0
-293 -306 0
-294 -295 0
-294 -296 0
-294 -297 0
-294 -298 0
-294 -299 0
-294 -300 0
-294 -301 0
-294 -302 0
-294 -303 0
-294 -304 0
-294 -305 0
-294 -306 0
-295 -296 0
-295 -297 0
-295 -298 0
-295 -299 0
-295 -300 0
-295 -301 0
-295 -302 0
-295 -303 0
-295 -304 0
-295 -305 0
-295 -306 0
-296 -297 0
-296 -298 0
-296 -299 0
-296 -300 0
-296 -301 0
-296 -302 0
-296 -303 0
-296 -304 0
-296 -305 0
-296 -306 0
-297 -298 0
-297 -299 0
-297 -300 0
-297 -301 0
-297 -302 0
-297 -303 0
-297 -304 0
-297 -305 0
-297 -306 0
-298 -299 0
-298 -300 0
-298 -301 0
-298 -302 0
-298 -303 0
-298 -304 0
-298 -305 0
-298 -306 0
-299 -300 0
-299 -301 0
-299 -302 0
-299 -303 0
-299 -304 0
-299 -305 0
-299 -306 0
-300 -301 0
-300 -302 0
-300 -303 0
-300 -304 0
-300 -305 0
-300 -306 0
-301 -302 0
-301 -303 0
-301 -304 0
-301 -305 0
-301 -306 0
-302 -303 0
-302 -304 0
-302 -305 0
-302 -306 0
-303 -304 0
-303 -305 0
-303 -306 0
-304 -305 0
-304 -306 0
-305 -306 0
307 308 309 310 311 312 313 314 315 316 317 318 319 320 321 322 323 324 0
-307 -308 0
-307 -309 0
-307 -310 0
-307 -311 0
-307 -312 0
-307 -313 0
-307 -314 0
-307 -315 0
-307 -316 0
-307 -317 0
-307 -318 0
-307 -319 0
-307 -320 0
-307 -321 0
-307 -322 0
-307 -323 0
-307 -324 0
-308 -309 0
-308 -310 0
-308 -311 0
-308 -312 0
-308 -313 0
-308 -314 0
-308 -315 0
-308 -316 0
-308 -317 0
-308 -318 0
-308 -319 0
-308 -320 0
-308 -321 0
-308 -322 0
-308 -323 0
-308 -324 0
-309 -310 0
-309 -311 0
-309 -312 0
-309 -313 0
-309 -314 0
-309 -315 0
-309 -316 0
-309 -317 0
-309 -318 0
-309 -319 0
-309 -320 0
-309 -321 0
-309 -322 0
-309 -323 0
-309 -324 0
-310 -311 0
-310 -312 0
-310 -313 0
-310 -314 0
-310 -315 0
-310 -316 0
-310 -317 0
-310 -318 0
-310 -319 0
-310 -320 0
-310 -321 0
-310 -322 0
-310 -323 0
-310 -324 0
-311 -312 0
-311 -313 0
-311 -314 0
-311 -315 0
-311 -316 0
-311 -317 0
-311 -318 0
-311 -319 0
-311 -320 0
-311 -321 0
-311 -322 0
-311 -323 0
-311 -324 0
-312 -313 0
-312 -314 0
-312 -315 0
-312 -316 0
-312 -317 0
-312 -318 0
-312 -319 0
-312 -320 0
-312 -321 0
-312 -322 0
-312 -323 0
-312 -324 0
-313 -314 0
-313 -315 0
-313 -316 0
-313 -317 0
-313 -318 0
-313 -319 0
-313 -320 0
-313 -321 0
-313 -322 0
-313 -323 0
-313 -324 0
-314 -315 0
-314 -316 0
-314 -317 0
-314 -318 0
-314 -319 0
-314 -320 0
-314 -321 0
-314 -322 0
-314 -323 0
-314 -324 0
-315 -316 0
-315 -317 0
-315 -318 0
-315 -319 0
-315 -320 0
-315 -321 0
-315 -322 0
-315 -323 0
-315 -324 0
-316 -317 0
-316 -318 0
-316 -319 0
-316 -320 0
-316 -321 0
-316 -322 0
-316 -323 0
-316 -324 0
-317 -318 0
-317 -319 0
-317 -320 0
-317 -321 0
-317 -322 0
-317 -323 0
-317 -324 0
-318 -319 0
-318 -320 0
-318 -321 0
-318 -322 0
-318 -323 0
-318 -324 0
-319 -320 0
-319 -321 0
-319 -322 0
-319 -323 0
-319 -324 0
-320 -321 0
-320 -322 0
-320 -323 0
-320 -324 0
-321 -322 0
-321 -323 0
-321 -324 0
-322 -323 0
-322 -324 0
-323 -324 0
325 326 327 328 329 330 331 332 333 334 335 336 337 338 339 340 341 342 0
-325 -326 0
-325 -327 0
-325 -328 0
-325 -329 0
-325 -330 0
-325 -331 0
-325 -332 0
-325 -333 0
-325 -334 0
-325 -335 0
-325 -336 0
-325 -337 0
-325 -338 0
-325 -339 0
-325 -340 0
-325 -341 0
-325 -342 0
-326 -327 0
-326 -328 0
-326 -329 0
-326 -330 0
-326 -331 0
-326 -332 0
-326 -333 0
-326 -334 0
-326 -335 0
-326 -336 0
-326 -337 0
-326 -338 0
-326 -339 0
-326 -340 0
-326 -341 0
-326 -342 0
-327 -328 0
-327 -329 0
-327 -330 0
-327 -331 0
-327 -332 0
-327 -333 0
-327 -334 0
-327 -335 0
-327 -336 0
-327 -337 0
-327 -338 0
-327 -339 0
-327 -340 0
-327 -341 0
-327 -342 0
-328 -329 0
-328 -330 0
-328 -331 0
-328 -332 0
-328 -333 0
-328 -334 0
-328 -335 0
-328 -336 0
-328 -337 0
-328 -338 0
-328 -339 0
-328 -340 0
-328 -341 0
-328 -342 0
-329 -330 0
-329 -331 0
-329 -332 0
-329 -333 0
-329 -334 0
-329 -335 0
-329 -336 0
-329 -337 0
-329 -338 0
-329 -339 0
-329 -340 0
-329 -341 0
-329 -342 0
-330 -331 0
-330 -332 0
-330 -333 0
-330 -334 0
-330 -335 0
-330 -336 0
-330 -337 0
-330 -338 0
-330 -339 0
-330 -340 0
-330 -341 0
-330 -342 0
-331 -332 0
-331 -333 0
-331 -334 0
-331 -335 0
-331 -336 0
-331 -337 0
-331 -338 0
-331 -339 0
-331 -340 0
-331 -341 0
-331 -342 0
-332 -333 0
-332 -334 0
-332 -335 0
-332 -336 0
-332 -337 0
-332 -338 0
-332 -339 0
-332 -340 0
-332 -341 0
-332 -342 0
-333 -334 0
-333 -335 0
-333 -336 0
-333 -337 0
-333 -338 0
-333 -339 0
-333 -340 0
-333 -341 0
-333 -342 0
-334 -335 0
-334 -336 0
-334 -337 0
-334 -338 0
-334 -339 0
-334 -340 0
-334 -341 0
-334 -342 0
-335 -336 0
-335 -337 0
-335 -338 0
-335 -339 0
-335 -340 0
-335 -341 0
-335 -342 0
-336 -337 0
-336 -338 0
-336 -339 0
-336 -340 0
-336 -341 0
-336 -342 0
-337 -338 0
-337 -339 0
-337 -340 0
-337 -341 0
-337 -342 0
-338 -339 0
-338 -340 0
-338 -341 0
-338 -342 0
-339 -340 0
-339 -341 0
-339 -342 0
-340 -341 0
-340 -342 0
-341 -342 0
343 344 345 346 347 348 349 350 351 352 353 354 355 356 357 358 359 360 0
-343 -344 0
-343 -345 0
-343 -346 0
-343 -347 0
-343 -348 0
-343 -349 0
-343 -350 0
-343 -351 0
-343 -352 0
-343 -353 0
-343 -354 0
-343 -355 0
-343 -356 0
-343 -357 0
-343 -358 0
-343 -359 0
-343 -360 0
-344 -345 0
-344 -346 0
-344 -347 0
-344 -348 0
-344 -349 0
-344 -350 0
-344 -351 0
-344 -352 0
-344 -353 0
-344 -354 0
-344 -355 0
-344 -356 0
-344 -357 0
-344 -358 0
-344 -359 0
-344 -360 0
-345 -346 0
-345 -347 0
-345 -348 0
-345 -349 0
-345 -350 0
-345 -351 0
-345 -352 0
-345 -353 0
-345 -354 0
-345 -355 0
-345 -356 0
-345 -357 0
-345 -358 0
-345 -359 0
-345 -360 0
-346 -347 0
-346 -348 0
-346 -349 0
-346 -350 0
-346 -351 0
-346 -352 0
-346 -353 0
-346 -354 0
-346 -355 0
-346 -356 0
-346 -357 0
-346 -358 0
-346 -359 0
-346 -360 0
-347 -348 0
-347 -349 0
-347 -350 0
-347 -351 0
-347 -352 0
-347 -353 0
-347 -354 0
-347 -355 0
-347 -356 0
-347 -357 0
-347 -358 0
-347 -359 0
-347 -360 0
-348 -349 0
-348 -350 0
-348 -351 0
-348 -352 0
-348 -353 0
-348 -354 0
-348 -355 0
-348 -356 0
-348 -357 0
-348 -358 0
-348 -359 0
-348 -360 0
-349 -350 0
-349 -351 0
-349 -352 0
-349 -353 0
-349 -354 0
-349 -355 0
-349 -356 0
-349 -357 0
-349 -358 0
-349 -359 0
-349 -360 0
-350 -351 0
-350 -352 0
-350 -353 0
-350 -354 0
-350 -355 0
-350 -356 0
-350 -357 0
-350 -358 0
-350 -359 0
-350 -360 0
-351 -352 0
-351 -353 0
-351 -354 0
-351 -355 0
-351 -356 0
-351 -357 0
-351 -358 0
-351 -359 0
-351 -360 0
-352 -353 0
-352 -354 0
-352 -355 0
-352 -356 0
-352 -357 0
-352 -358 0
-352 -359 0
-352 -360 0
-353 -354 0
-353 -355 0
-353 -356 0
-353 -357 0
-353 -358 0
-353 -359 0
-353 -360 0
-354 -355 0
-354 -356 0
-354 -357 0
-354 -358 0
-354 -359 0
-354 -360 0
-355 -356 0
-355 -357 0
-355 -358 0
-355 -359 0
-355 -360 0
-356 -357 0
-356 -358 0
-356 -359 0
-356 -360 0
-357 -358 0
-357 -359 0
-357 -360 0
-358 -359 0
-358 -360 0
-359 -360 0
361 362 363 364 365 366 367 368 369 370 371 372 373 374 375 376 377 378 0
-361 -362 0
-361 -363 0
-361 -364 0
-361 -365 0
-361 -366 0
-361 -367 0
-361 -368 0
-361 -369 0
-361 -370 0
-361 -371 0
-361 -372 0
-361 -373 0
-361 -374 0
-361 -375 0
-361 -376 0
-361 -377 0
-361 -378 0
-362 -363 0
-362 -364 0
-362 -365 0
-362 -366 0
-362 -367 0
-362 -368 0
-362 -369 0
-362 -370 0
-362 -371 0
-362 -372 0
-362 -373 0
-362 -374 0
-362 -375 0
-362 -376 0
-362 -377 0
-362 -378 0
-363 -364 0
-363 -365 0
-363 -366 0
-363 -367 0
-363 -368 0
-363 -369 0
-363 -370 0
-363 -371 0
-363 -372 0
-363 -373 0
-363 -374 0
-363 -375 0
-363 -376 0
-363 -377 0
-363 -378 0
-364 -365 0
-364 -366 0
-364 -367 0
-364 -368 0
-364 -369 0
-364 -370 0
-364 -371 0
-364 -372 0
-364 -373 0
-364 -374 0
-364 -375 0
-364 -376 0
-364 -377 0
-364 -378 0
-365 -366 0
-365 -367 0
-365 -368 0
-365 -369 0
-365 -370 0
-365 -371 0
-365 -372 0
-365 -373 0
-365 -374 0
-365 -375 0
-365 -376 0
-365 -377 0
-365 -378 0
-366 -367 0
-366 -368 0
-366 -369 0
-366 -370 0
-366 -371 0
-366 -372 0
-366 -373 0
-366 -374 0
-366 -375 0
-366 -376 0
-366 -377 0
-366 -378 0
-367 -368 0
-367 -369 0
-367 -370 0
-367 -371 0
-367 -372 0
-367 -373 0
-367 -374 0
-367 -375 0
-367 -376 0
-367 -377 0
-367 -378 0
-368 -369 0
-368 -370 0
-368 -371 0
-368 -372 0
-368 -373 0
-368 -374 0
-368 -375 0
-368 -376 0
-368 -377 0
-368 -378 0
-369 -370 0
-369 -371 0
-369 -372 0
-369 -373 0
-369 -374 0
-369 -375 0
-369 -376 0
-369 -377 0
-369 -378 0
-370 -371 0
-370 -372 0
-370 -373 0
-370 -374 0
-370 -375 0
-370 -376 0
-370 -377 0
-370 -378 0
-371 -372 0
-371 -373 0
-371 -374 0
-371 -375 0
-371 -376 0
-371 -377 0
-371 -378 0
-372 -373 0
-372 -374 0
-372 -375 0
-372 -376 0
-372 -377 0
-372 -378 0
-373 -374 0
-373 -375 0
-373 -376 0
-373 -377 0
-373 -378 0
-374 -375 0
-374 -376 0
-374 -377 0
-374 -378 0
-375 -376 0
-375 -377 0
-375 -378 0
-376 -377 0
-376 -378 0
-377 -378 0
379 380 381 382 383 384 385 386 387 388 389 390 391 392 393 394 395 396 0
-379 -380 0
-379 -381 0
-379 -382 0
-379 -383 0
-379 -384 0
-379 -385 0
-379 -386 0
-379 -387 0
-379 -388 0
-379 -389 0
-379 -390 0
-379 -391 0
-379 -392 0
-379 -393 0
-379 -394 0
-379 -395 0
-379 -396 0
-380 -381 0
-380 -382 0
-380 -383 0
-380 -384 0
-380 -385 0
-380 -386 0
-380 -387 0
-380 -388 0
-380 -389 0
-380 -390 0
-380 -391 0
-380 -392 0
-380 -393 0
-380 -394 0
-380 -395 0
-380 -396 0
-381 -382 0
-381 -383 0
-381 -384 0
-381 -385 0
-381 -386 0
-381 -387 0
-381 -388 0
-381 -389 0
-381 -390 0
-381 -391 0
-381 -392 0
-381 -393 0
-381 -394 0
-381 -395 0
-381 -396 0
-382 -383 0
-382 -384 0
-382 -385 0
-382 -386 0
-382 -387 0
-382 -388 0
-382 -389 0
-382 -390 0
-382 -391 0
-382 -392 0
-382 -393 0
-382 -394 0
-382 -395 0
-382 -396 0
-383 -384 0
-383 -385 0
-383 -386 0
-383 -387 0
-383 -388 0
-383 -389 0
-383 -390 0
-383 -391 0
-383 -392 0
-383 -393 0
-383 -394 0
-383 -395 0
-383 -396 0
-384 -385 0
-384 -386 0
-384 -387 0
-384 -388 0
-384 -389 0
-384 -390 0
-384 -391 0
-384 -392 0
-384 -393 0
-384 -394 0
-384 -395 0
-384 -396 0
-385 -386 0
-385 -387 0
-385 -388 0
-385 -389 0
-385 -390 0
-385 -391 0
-385 -392 0
-385 -393 0
-385 -394 0
-385 -395 0
-385 -396 0
-386 -387 0
-386 -388 0
-386 -389 0
-386 -390 0
-386 -391 0
-386 -392 0
-386 -393 0
-386 -394 0
-386 -395 0
-386 -396 0
-387 -388 0
-387 -389 0
-387 -390 0
-387 -391 0
-387 -392 0
-387 -393 0
-387 -394 0
-387 -395 0
-387 -396 0
-388 -389 0
-388 -390 0
-388 -391 0
-388 -392 0
-388 -393 0
-388 -394 0
-388 -395 0
-388 -396 0
-389 -390 0
-389 -391 0
-389 -392 0
-389 -393 0
-389 -394 0
-389 -395 0
-389 -396 0
-390 -391 0
-390 -392 0
-390 -393 0
-390 -394 0
-390 -395 0
-390 -396 0
-391 -392 0
-391 -393 0
-391 -394 0
-391 -395 0
-391 -396 0
-392 -393 0
-392 -394 0
-392 -395 0
-392 -396 0
-393 -394 0
-393 -395 0
-393 -396 0
-394 -395 0
-394 -396 0
-395 -396 0
397 398 399 400 401 402 403 404 405 406 407 408 409 410 411 412 413 414 0
-397 -398 0
-397 -399 0
-397 -400 0
-397 -401 0
-397 -402 0
-397 -403 0
-397 -404 0
-397 -405 0
-397 -406 0
-397 -407 0
-397 -408 0
-397 -409 0
-397 -410 0
-397 -411 0
-397 -412 0
-397 -413 0
-397 -414 0
-398 -399 0
-398 -400 0
-398 -401 0
-398 -402 0
-398 -403 0
-398 -404 0
-398 -405 0
-398 -406 0
-398 -407 0
-398 -408 0
-398 -409 0
-398 -410 0
-398 -411 0
-398 -412 0
-398 -413 0
-398 -414 0
-399 -400 0
-399 -401 0
-399 -402 0
-399 -403 0
-399 -404 0
-399 -405 0
-399 -406 0
-399 -407 0
-399 -408 0
-399 -409 0
-399 -410 0
-399 -411 0
-399 -412 0
-399 -413 0
-399 -414 0
-400 -401 0
-400 -402 0
-400 -403 0
-400 -404 0
-400 -405 0
-400 -406 0
-400 -407 0
-400 -408 0
-400 -409 0
-400 -410 0
-400 -411 0
-400 -412 0
-400 -413 0
-400 -414 0
-401 -402 0
-401 -403 0
-401 -404 0
-401 -405 0
-401 -406 0
-401 -407 0
-401 -408 0
-401 -409 0
-401 -410 0
-401 -411 0
-401 -412 0
-401 -413 0
-401 -414 0
-402 -403 0
-402 -404 0
-402 -405 0
-402 -406 0
-402 -407 0
-402 -408 0
-402 -409 0
-402 -410 0
-402 -411 0
-402 -412 0
-402 -413 0
-402 -414 0
-403 -404 0
-403 -405 0
-403 -406 0
-403 -407 0
-403 -408 0
-403 -409 0
-403 -410 0
-403 -411 0
-403 -412 0
-403 -413 0
-403 -414 0
-404 -405 0
-404 -406 0
-404 -407 0
-404 -408 0
-404 -409 0
-404 -410 0
-404 -411 0
-404 -412 0
-404 -413 0
-404 -414 0
-405 -406 0
-405 -407 0
-405 -408 0
-405 -409 0
-405 -410 0
-405 -411 0
-405 -412 0
-405 -413 0
-405 -414 0
-406 -407 0
-406 -408 0
-406 -409 0
-406 -410 0
-406 -411 0
-406 -412 0
-406 -413 0
-406 -414 0
-407 -408 0
-407 -409 0
-407 -410 0
-407 -411 0
-407 -412 0
-407 -413 0
-407 -414 0
-408 -409 0
-408 -410 0
-408 -411 0
-408 -412 0
-408 -413 0
-408 -414 0
-409 -410 0
-409 -411 0
-409 -412 0
-409 -413 0
-409 -414 0
-410 -411 0
-410 -412 0
-410 -413 0
-410 -414 0
-411 -412 0
-411 -413 0
-411 -414 0
-412 -413 0
-412 -414 0
-413 -414 0
415 416 417 418 419 420 421 422 423 424 425 426 427 428 429 430 431 432 0
-415 -416 0
-415 -417 0
-415 -418 0
-415 -419 0
-415 -420 0
-415 -421 0
-415 -422 0
-415 -423 0
-415 -424 0
-415 -425 0
-415 -426 0
-415 -427 0
-415 -428 0
-415 -429 0
-415 -430 0
-415 -431 0
-415 -432 0
-416 -417 0
-416 -418 0
-416 -419 0
-416 -420 0
-416 -421 0
-416 -422 0
-416 -423 0
-416 -424 0
-416 -425 0
-416 -426 0
-416 -427 0
-416 -428 0
-416 -429 0
-416 -430 0
-416 -431 0
-416 -432 0
-417 -418 0
-417 -419 0
-417 -420 0
-417 -421 0
-417 -422 0
-417 -423 0
-417 -424 0
-417 -425 0
-417 -426 0
-417 -427 0
-417 -428 0
-417 -429 0
-417 -430 0
-417 -431 0
-417 -432 0
-418 -419 0
-418 -420 0
-418 -421 0
-418 -422 0
-418 -423 0
-418 -424 0
-418 -425 0
-418 -426 0
-418 -427 0
-418 -428 0
-418 -429 0
-418 -430 0
-418 -431 0
-418 -432 0
-419 -420 0
-419 -421 0
-419 -422 0
-419 -423 0
-419 -424 0
-419 -425 0
-419 -426 0
-419 -427 0
-419 -428 0
-419 -429 0
-419 -430 0
-419 -431 0
-419 -432 0
-420 -421 0
-420 -422 0
-420 -423 0
-420 -424 0
-420 -425 0
-420 -426 0
-420 -427 0
-420 -428 0
-420 -429 0
-420 -430 0
-420 -431 0
-420 -432 0
-421 -422 0
-421 -423 0
-421 -424 0
-421 -425 0
-421 -426 0
-421 -427 0
-421 -428 0
-421 -429 0
-421 -430 0
-421 -431 0
-421 -432 0
-422 -423 0
-422 -424 0
-422 -425 0
-422 -426 0
-422 -427 0
-422 -428 0
-422 -429 0
-422 -430 0
-422 -431 0
-422 -432 0
-423 -424 0
-423 -425 0
-423 -426 0
-423 -427 0
-423 -428 0
-423 -429 0
-423 -430 0
-423 -431 0
-423 -432 0
-424 -425 0
-424 -426 0
-424 -427 0
-424 -428 0
-424 -429 0
-424 -430 0
-424 -431 0
-424 -432 0
-425 -426 0
-425 -427 0
-425 -428 0
-425 -429 0
-425 -430 0
-425 -431 0
-425 -432 0
-426 -427 0
-426 -428 0
-426 -429 0
-426 -430 0
-426 -431 0
-426 -432 0
-427 -428 0
-427 -429 0
-427 -430 0
-427 -431 0
-427 -432 0
-428 -429 0
-428 -430 0
-428 -431 0
-428 -432 0
-429 -430 0
-429 -431 0
-429 -432 0
-430 -431 0
-430 -432 0
-431 -432 0
433 434 435 436 437 438 439 440 441 442 443 444 445 446 447 448 449 450 0
-433 -434 0
-433 -435 0
-433 -436 0
-433 -437 0
-433 -438 0
-433 -439 0
-433 -440 0
-433 -441 0
-433 -442 0
-433 -443 0
-433 -444 0
-433 -445 0
-433 -446 0
-433 -447 0
-433 -448 0
-433 -449 0
-433 -450 0
-434 -435 0
-434 -436 0
-434 -437 0
-434 -438 0
-434 -439 0
-434 -440 0
-434 -441 0
-434 -442 0
-434 -443 0
-434 -444 0
-434 -445 0
-434 -446 0
-434 -447 0
-434 -448 0
-434 -449 0
-434 -450 0
-435 -436 0
-435 -437 0
-435 -438 0
-435 -439 0
-435 -440 0
-435 -441 0
-435 -442 0
-435 -443 0
-435 -444 0
-435 -445 0
-435 -446 0
-435 -447 0
-435 -448 0
-435 -449 0
-435 -450 0
-436 -437 0
-436 -438 0
-436 -439 0
-436 -440 0
-436 -441 0
-436 -442 0
-436 -443 0
-436 -444 0
-436 -445 0
-436 -446 0
-436 -447 0
-436 -448 0
-436 -449 0
-436 -450 0
-437 -438 0
-437 -439 0
-437 -440 0
-437 -441 0
-437 -442 0
-437 -443 0
-437 -444 0
-437 -445 0
-437 -446 0
-437 -447 0
-437 -448 0
-437 -449 0
-437 -450 0
-438 -439 0
-438 -440 0
-438 -441 0
-438 -442 0
-438 -443 0
-438 -444 0
-438 -445 0
-438 -446 0
-438 -447 0
-438 -448 0
-438 -449 0
-438 -450 0
-439 -440 0
-439 -441 0
-439 -442 0
-439 -443 0
-439 -444 0
-439 -445 0
-439 -446 0
-439 -447 0
-439 -448 0
-439 -449 0
-439 -450 0
-440 -441 0
-440 -442 0
-440 -443 0
-440 -444 0
-440 -445 0
-440 -446 0
-440 -447 0
-440 -448 0
-440 -449 0
-440 -450 0
-441 -442 0
-441 -443 0
-441 -444 0
-441 -445 0
-441 -446 0
-441 -447 0
-441 -448 0
-441 -449 0
-441 -450 0
-442 -443 0
-442 -444 0
-442 -445 0
-442 -446 0
-442 -447 0
-442 -448 0
-442 -449 0
-442 -450 0
-443 -444 0
-443 -445 0
-443 -446 0
-443 -447 0
-443 -448 0
-443 -449 0
-443 -450 0
-444 -445 0
-444 -446 0
-444 -447 0
-444 -448 0
-444 -449 0
-444 -450 0
-445 -446 0
-445 -447 0
-445 -448 0
-445 -449 0
-445 -450 0
-446 -447 0
-446 -448 0
-446 -449 0
-446 -450 0
-447 -448 0
-447 -449 0
-447 -450 0
-448 -449 0
-448 -450 0
-449 -450 0
451 452 453 454 455 456 457 458 459 460 461 462 463 464 465 466 467 468 0
-451 -452 0
-451 -453 0
-451 -454 0
-451 -455 0
-451 -456 0
-451 -457 0
-451 -458 0
-451 -459 0
-451 -460 0
-451 -461 0
-451 -462 0
-451 -463 0
-451 -464 0
-451 -465 0
-451 -466 0
-451 -467 0
-451 -468 0
-452 -453 0
-452 -454 0
-452 -455 0
-452 -456 0
-452 -457 0
-452 -458 0
-452 -459 0
-452 -460 0
-452 -461 0
-452 -462 0
-452 -463 0
-452 -464 0
-452 -465 0
-452 -466 0
-452 -467 0
-452 -468 0
-453 -454 0
-453 -455 0
-453 -456 0
-453 -457 0
-453 -458 0
-453 -459 0
-453 -460 0
-453 -461 0
-453 -462 0
-453 -463 0
-453 -464 0
-453 -465 0
-453 -466 0
-453 -467 0
-453 -468 0
-454 -455 0
-454 -456 0
-454 -457 0
-454 -458 0
-454 -459 0
-454 -460 0
-454 -461 0
-454 -462 0
-454 -463 0
-454 -464 0
-454 -465 0
-454 -466 0
-454 -467 0
-454 -468 0
-455 -456 0
-455 -457 0
-455 -458 0
-455 -459 0
-455 -460 0
-455 -461 0
-455 -462 0
-455 -463 0
-455 -464 0
-455 -465 0
-455 -466 0
-455 -467 0
-455 -468 0
-456 -457 0
-456 -458 0
-456 -459 0
-456 -460 0
-456 -461 0
-456 -462 0
-456 -463 0
-456 -464 0
-456 -465 0
-456 -466 0
-456 -467 0
-456 -468 0
-457 -458 0
-457 -459 0
-457 -460 0
-457 -461 0
-457 -462 0
-457 -463 0
-457 -464 0
-457 -465 0
-457 -466 0
-457 -467 0
-457 -468 0
-458 -459 0
-458 -460 0
-458 -461 0
-458 -462 0
-458 -463 0
-458 -464 0
-458 -465 0
-458 -466 0
-458 -467 0
-458 -468 0
-459 -460 0
-459 -461 0
-459 -462 0
-459 -463 0
-459 -464 0
-459 -465 0
-459 -466 0
-459 -467 0
-459 -468 0
-460 -461 0
-460 -462 0
-460 -463 0
-460 -464 0
-460 -465 0
-460 -466 0
-460 -467 0
-460 -468 0
-461 -462 0
-461 -463 0
-461 -464 0
-461 -465 0
-461 -466 0
-461 -467 0
-461 -468 0
-462 -463 0
-462 -464 0
-462 -465 0
-462 -466 0
-462 -467 0
-462 -468 0
-463 -464 0
-463 -465 0
-463 -466 0
-463 -467 0
-463 -468 0
-464 -465 0
-464 -466 0
-464 -467 0
-464 -468 0
-465 -466 0
-465 -467 0
-465 -468 0
-466 -467 0
-466 -468 0
-467 -468 0
469 470 471 472 473 474 475 476 477 478 479 480 481 482 483 484 485 486 0
-469 -470 0
-469 -471 0
-469 -472 0
-469 -473 0
-469 -474 0
-469 -475 0
-469 -476 0
-469 -477 0
-469 -478 0
-469 -479 0
-469 -480 0
-469 -481 0
-469 -482 0
-469 -483 0
-469 -484 0
-469 -485 0
-469 -486 0
-470 -471 0
-470 -472 0
-470 -473 0
-470 -474 0
-470 -475 0
-470 -476 0
-470 -477 0
-470 -478 0
-470 -479 0
-470 -480 0
-470 -481 0
-470 -482 0
-470 -483 0
-470 -484 0
-470 -485 0
-470 -486 0
-471 -472 0
-471 -473 0
-471 -474 0
-471 -475 0
-471 -476 0
-471 -477 0
-471 -478 0
-471 -479 0
-471 -480 0
-471 -481 0
-471 -482 0
-471 -483 0
-471 -484 0
-471 -485 0
-471 -486 0
-472 -473 0
-472 -474 0
-472 -475 0
-472 -476 0
-472 -477 0
-472 -478 0
-472 -479 0
-472 -480 0
-472 -481 0
-472 -482 0
-472 -483 0
-472 -484 0
-472 -485 0
-472 -486 0
-473 -474 0
-473 -475 0
-473 -476 0
-473 -477 0
-473 -478 0
-473 -479 0
-473 -480 0
-473 -481 0
-473 -482 0
-473 -483 0
-473 -484 0
-473 -485 0
-473 -486 0
-474 -475 0
-474 -476 0
-474 -477 0
-474 -478 0
-474 -479 0
-474 -480 0
-474 -481 0
-474 -482 0
-474 -483 0
-474 -484 0
-474 -485 0
-474 -486 0
-475 -476 0
-475 -477 0
-475 -478 0
-475 -479 0
-475 -480 0
-475 -481 0
-475 -482 0
-475 -483 0
-475 -484 0
-475 -485 0
-475 -486 0
-476 -477 0
-476 -478 0
-476 -479 0
-476 -480 0
-476 -481 0
-476 -482 0
-476 -483 0
-476 -484 0
-476 -485 0
-476 -486 0
-477 -478 0
-477 -479 0
-477 -480 0
-477 -481 0
-477 -482 0
-477 -483 0
-477 -484 0
-477 -485 0
-477 -486 0
-478 -479 0
-478 -480 0
-478 -481 0
-478 -482 0
-478 -483 0
-478 -484 0
-478 -485 0
-478 -486 0
-479 -480 0
-479 -481 0
-479 -482 0
-479 -483 0
-479 -484 0
-479 -485 0
-479 -486 0
-480 -481 0
-480 -482 0
-480 -483 0
-480 -484 0
-480 -485 0
-480 -486 0
-481 -482 0
-481 -483 0
-481 -484 0
-481 -485 0
-481 -486 0
-482 -483 0
-482 -484 0
-482 -485 0
-482 -486 0
-483 -484 0
-483 -485 0
-483 -486 0
-484 -485 0
-484 -486 0
-485 -486 0
487 488 489 490 491 492 493 494 495 496 497 498 499 500 501 502 503 504 0
-487 -488 0
-487 -489 0
-487 -490 0
-487 -491 0
-487 -492 0
-487 -493 0
-487 -494 0
-487 -495 0
-487 -496 0
-487 -497 0
-487 -498 0
-487 -499 0
-487 -500 0
-487 -501 0
-487 -502 0
-487 -503 0
-487 -504 0
-488 -489 0
-488 -490 0
-488 -491 0
-488 -492 0
-488 -493 0
-488 -494 0
-488 -495 0
-488 -496 0
-488 -497 0
-488 -498 0
-488 -499 0
-488 -500 0
-488 -501 0
-488 -502 0
-488 -503 0
-488 -504 0
-489 -490 0
-489 -491 0
-489 -492 0
-489 -493 0
-489 -494 0
-489 -495 0
-489 -496 0
-489 -497 0
-489 -498 0
-489 -499 0
-489 -500 0
-489 -501 0
-489 -502 0
-489 -503 0
-489 -504 0
-490 -491 0
-490 -492 0
-490 -493 0
-490 -494 0
-490 -495 0
-490 -496 0
-490 -497 0
-490 -498 0
-490 -499 0
-490 -500 0
-490 -501 0
-490 -502 0
-490 -503 0
-490 -504 0
-491 -492 0
-491 -493 0
-491 -494 0
-491 -495 0
-491 -496 0
-491 -497 0
-491 -498 0
-491 -499 0
-491 -500 0
-491 -501 0
-491 -502 0
-491 -503 0
-491 -504 0
-492 -493 0
-492 -494 0
-492 -495 0
-492 -496 0
-492 -497 0
-492 -498 0
-492 -499 0
-492 -500 0
-492 -501 0
-492 -502 0
-492 -503 0
-492 -504 0
-493 -494 0
-493 -495 0
-493 -496 0
-493 -497 0
-493 -498 0
-493 -499 0
-493 -500 0
-493 -501 0
-493 -502 0
-493 -503 0
-493 -504 0
-494 -495 0
-494 -496 0
-494 -497 0
-494 -498 0
-494 -499 0
-494 -500 0
-494 -501 0
-494 -502 0
-494 -503 0
-494 -504 0
-495 -496 0
-495 -497 0
-495 -498 0
-495 -499 0
-495 -500 0
-495 -501 0
-495 -502 0
-495 -503 0
-495 -504 0
-496 -497 0
-496 -498 0
-496 -499 0
-496 -500 0
-496 -501 0
-496 -502 0
-496 -503 0
-496 -504 0
-497 -498 0
-497 -499 0
-497 -500 0
-497 -501 0
-497 -502 0
-497 -503 0
-497 -504 0
-498 -499 0
-498 -500 0
-498 -501 0
-498 -502 0
-498 -503 0
-498 -504 0
-499 -500 0
-499 -501 0
-499 -502 0
-499 -503 0
-499 -504 0
-500 -501 0
-500 -502 0
-500 -503 0
-500 -504 0
-501 -502 0
-501 -503 0
-501 -504 0
-502 -503 0
-502 -504 0
-503 -504 0
505 506 507 508 509 510 511 512 513 514 515 516 517 518 519 520 521 522 0
-505 -506 0
-505 -507 0
-505 -508 0
-505 -509 0
-505 -510 0
-505 -511 0
-505 -512 0
-505 -513 0
-505 -514 0
-505 -515 0
-505 -516 0
-505 -517 0
-505 -518 0
-505 -519 0
-505 -520 0
-505 -521 0
-505 -522 0
-506 -507 0
-506 -508 0
-506 -509 0
-506 -510 0
-506 -511 0
-506 -512 0
-506 -513 0
-506 -514 0
-506 -515 0
-506 -516 0
-506 -517 0
-506 -518 0
-506 -519 0
-506 -520 0
-506 -521 0
-506 -522 0
-507 -508 0
-507 -509 0
-507 -510 0
-507 -511 0
-507 -512 0
-507 -513 0
-507 -514 0
-507 -515 0
-507 -516 0
-507 -517 0
-507 -518 0
-507 -519 0
-507 -520 0
-507 -521 0
-507 -522 0
-508 -509 0
-508 -510 0
-508 -511 0
-508 -512 0
-508 -513 0
-508 -514 0
-508 -515 0
-508 -516 0
-508 -517 0
-508 -518 0
-508 -519 0
-508 -520 0
-508 -521 0
-508 -522 0
-509 -510 0
-509 -511 0
-509 -512 0
-509 -513 0
-509 -514 0
-509 -515 0
-509 -516 0
-509 -517 0
-509 -518 0
-509 -519 0
-509 -520 0
-509 -521 0
-509 -522 0
-510 -511 0
-510 -512 0
-510 -513 0
-510 -514 0
-510 -515 0
-510 -516 0
-510 -517 0
-510 -518 0
-510 -519 0
-510 -520 0
-510 -521 0
-510 -522 0
-511 -512 0
-511 -513 0
-511 -514 0
-511 -515 0
-511 -516 0
-511 -517 0
-511 -518 0
-511 -519 0
-511 -520 0
-511 -521 0
-511 -522 0
-512 -513 0
-512 -514 0
-512 -515 0
-512 -516 0
-512 -517 0
-512 -518 0
-512 -519 0
-512 -520 0
-512 -521 0
-512 -522 0
-513 -514 0
-513 -515 0
-513 -516 0
-513 -517 0
-513 -518 0
-513 -519 0
-513 -520 0
-513 -521 0
-513 -522 0
-514 -515 0
-514 -516 0
-514 -517 0
-514 -518 0
-514 -519 0
-514 -520 0
-514 -521 0
-514 -522 0
-515 -516 0
-515 -517 0
-515 -518 0
-515 -519 0
-515 -520 0
-515 -521 0
-515 -522 0
-516 -517 0
-516 -518 0
-516 -519 0
-516 -520 0
-516 -521 0
-516 -522 0
-517 -518 0
-517 -519 0
-517 -520 0
-517 -521 0
-517 -522 0
-518 -519 0
-518 -520 0
-518 -521 0
-518 -522 0
-519 -520 0
-519 -521 0
-519 -522 0
-520 -521 0
-520 -522 0
-521 -522 0
523 524 525 526 527 528 529 530 531 532 533 534 535 536 537 538 539 540 0
-523 -524 0
-523 -525 0
-523 -526 0
-523 -527 0
-523 -528 0
-523 -529 0
-523 -530 0
-523 -531 0
-523 -532 0
-523 -533 0
-523 -534 0
-523 -535 0
-523 -536 0
-523 -537 0
-523 -538 0
-523 -539 0
-523 -540 0
-524 -525 0
-524 -526 0
-524 -527 0
-524 -528 0
-524 -529 0
-524 -530 0
-524 -531 0
-524 -532 0
-524 -533 0
-524 -534 0
-524 -535 0
-524 -536 0
-524 -537 0
-524 -538 0
-524 -539 0
-524 -540 0
-525 -526 0
-525 -527 0
-525 -528 0
-525 -529 0
-525 -530 0
-525 -531 0
-525 -532 0
-525 -533 0
-525 -534 0
-525 -535 0
-525 -536 0
-525 -537 0
-525 -538 0
-525 -539 0
-525 -540 0
-526 -527 0
-526 -528 0
-526 -529 0
-526 -530 0
-526 -531 0
-526 -532 0
-526 -533 0
-526 -534 0
-526 -535 0
-526 -536 0
-526 -537 0
-526 -538 0
-526 -539 0
-526 -540 0
-527 -528 0
-527 -529 0
-527 -530 0
-527 -531 0
-527 -532 0
-527 -533 0
-527 -534 0
-527 -535 0
-527 -536 0
-527 -537 0
-527 -538 0
-527 -539 0
-527 -540 0
-528 -529 0
-528 -530 0
-528 -531 0
-528 -532 0
-528 -533 0
-528 -534 0
-528 -535 0
-528 -536 0
-528 -537 0
-528 -538 0
-528 -539 0
-528 -540 0
-529 -530 0
-529 -531 0
-529 -532 0
-529 -533 0
-529 -534 0
-529 -535 0
-529 -536 0
-529 -537 0
-529 -538 0
-529 -539 0
-529 -540 0
-530 -531 0
-530 -532 0
-530 -533 0
-530 -534 0
-530 -535 0
-530 -536 0
-530 -537 0
-530 -538 0
-530 -539 0
-530 -540 0
-531 -532 0
-531 -533 0
-531 -534 0
-531 -535 0
-531 -536 0
-531 -537 0
-531 -538 0
-531 -539 0
-531 -540 0
-532 -533 0
-532 -534 0
-532 -535 0
-532 -536 0
-532 -537 0
-532 -538 0
-532 -539 0
-532 -540 0
-533 -534 0
-533 -535 0
-533 -536 0
-533 -537 0
-533 -538 0
-533 -539 0
-533 -540 0
-534 -535 0
-534 -536 0
-534 -537 0
-534 -538 0
-534 -539 0
-534 -540 0
-535 -536 0
-535 -537 0
-535 -538 0
-535 -539 0
-535 -540 0
-536 -537 0
-536 -538 0
-536 -539 0
-536 -540 0
-537 -538 0
-537 -539 0
-537 -540 0
-538 -539 0
-538 -540 0
-539 -540 0
541 542 543 544 545 546 547 548 549 550 551 552 553 554 555 556 557 558 0
-541 -542 0
-541 -543 0
-541 -544 0
-541 -545 0
-541 -546 0
-541 -547 0
-541 -548 0
-541 -549 0
-541 -550 0
-541 -551 0
-541 -552 0
-541 -553 0
-541 -554 0
-541 -555 0
-541 -556 0
-541 -557 0
-541 -558 0
-542 -543 0
-542 -544 0
-542 -545 0
-542 -546 0
-542 -547 0
-542 -548 0
-542 -549 0
-542 -550 0
-542 -551 0
-542 -552 0
-542 -553 0
-542 -554 0
-542 -555 0
-542 -556 0
-542 -557 0
-542 -558 0
-543 -544 0
-543 -545 0
-543 -546 0
-543 -547 0
-543 -548 0
-543 -549 0
-543 -550 0
-543 -551 0
-543 -552 0
-543 -553 0
-543 -554 0
-543 -555 0
-543 -556 0
-543 -557 0
-543 -558 0
-544 -545 0
-544 -546 0
-544 -547 0
-544 -548 0
-544 -549 0
-544 -550 0
-544 -551 0
-544 -552 0
-544 -553 0
-544 -554 0
-544 -555 0
-544 -556 0
-544 -557 0
-544 -558 0
-545 -546 0
-545 -547 0
-545 -548 0
-545 -549 0
-545 -550 0
-545 -551 0
-545 -552 0
-545 -553 0
-545 -554 0
-545 -555 0
-545 -556 0
-545 -557 0
-545 -558 0
-546 -547 0
-546 -548 0
-546 -549 0
-546 -550 0
-546 -551 0
-546 -552 0
-546 -553 0
-546 -554 0
-546 -555 0
-546 -556 0
-546 -557 0
-546 -558 0
-547 -548 0
-547 -549 0
-547 -550 0
-547 -551 0
-547 -552 0
-547 -553 0
-547 -554 0
-547 -555 0
-547 -556 0
-547 -557 0
-547 -558 0
-548 -549 0
-548 -550 0
-548 -551 0
-548 -552 0
-548 -553 0
-548 -554 0
-548 -555 0
-548 -556 0
-548 -557 0
-548 -558 0
-549 -550 0
-549 -551 0
-549 -552 0
-549 -553 0
-549 -554 0
-549 -555 0
-549 -556 0
-549 -557 0
-549 -558 0
-550 -551 0
-550 -552 0
-550 -553 0
-550 -554 0
-550 -555 0
-550 -556 0
-550 -557 0
-550 -558 0
-551 -552 0
-551 -553 0
-551 -554 0
-551 -555 0
-551 -556 0
-551 -557 0
-551 -558 0
-552 -553 0
-552 -554 0
-552 -555 0
-552 -556 0
-552 -557 0
-552 -558 0
-553 -554 0
-553 -555 0
-553 -556 0
-553 -557 0
-553 -558 0
-554 -555 0
-554 -556 0
-554 -557 0
-554 -558 0
-555 -556 0
-555 -557 0
-555 -558 0
-556 -557 0
-556 -558 0
-557 -558 0
559 560 561 562 563 564 565 566 567 568 569 570 571 572 573 574 575 576 0
-559 -560 0
-559 -561 0
-559 -562 0
-559 -563 0
-559 -564 0
-559 -565 0
-559 -566 0
-559 -567 0
-559 -568 0
-559 -569 0
-559 -570 0
-559 -571 0
-559 -572 0
-559 -573 0
-559 -574 0
-559 -575 0
-559 -576 0
-560 -561 0
-560 -562 0
-560 -563 0
-560 -564 0
-560 -565 0
-560 -566 0
-560 -567 0
-560 -568 0
-560 -569 0
-560 -570 0
-560 -571 0
-560 -572 0
-560 -573 0
-560 -574 0
-560 -575 0
-560 -576 0
-561 -562 0
-561 -563 0
-561 -564 0
-561 -565 0
-561 -566 0
-561 -567 0
-561 -568 0
-561 -569 0
-561 -570 0
-561 -571 0
-561 -572 0
-561 -573 0
-561 -574 0
-561 -575 0
-561 -576 0
-562 -563 0
-562 -564 0
-562 -565 0
-562 -566 0
-562 -567 0
-562 -568 0
-562 -569 0
-562 -570 0
-562 -571 0
-562 -572 0
-562 -573 0
-562 -574 0
-562 -575 0
-562 -576 0
-563 -564 0
-563 -565 0
-563 -566 0
-563 -567 0
-563 -568 0
-563 -569 0
-563 -570 0
-563 -571 0
-563 -572 0
-563 -573 0
-563 -574 0
-563 -575 0
-563 -576 0
-564 -565 0
-564 -566 0
-564 -567 0
-564 -568 0
-564 -569 0
-564 -570 0
-564 -571 0
-564 -572 0
-564 -573 0
-564 -574 0
-564 -575 0
-564 -576 0
-565 -566 0
-565 -567 0
-565 -568 0
-565 -569 0
-565 -570 0
-565 -571 0
-565 -572 0
-565 -573 0
-565 -574 0
-565 -575 0
-565 -576 0
-566 -567 0
-566 -568 0
-566 -569 0
-566 -570 0
-566 -571 0
-566 -572 0
-566 -573 0
-566 -574 0
-566 -575 0
-566 -576 0
-567 -568 0
-567 -569 0
-567 -570 0
-567 -571 0
-567 -572 0
-567 -573 0
-567 -574 0
-567 -575 0
-567 -576 0
-568 -569 0
-568 -570 0
-568 -571 0
-568 -572 0
-568 -573 0
-568 -574 0
-568 -575 0
-568 -576 0
-569 -570 0
-569 -571 0
-569 -572 0
-569 -573 0
-569 -574 0
-569 -575 0
-569 -576 0
-570 -571 0
-570 -572 0
-570 -573 0
-570 -574 0
-570 -575 0
-570 -576 0
-571 -572 0
-571 -573 0
-571 -574 0
-571 -575 0
-571 -576 0
-572 -573 0
-572 -574 0
-572 -575 0
-572 -576 0
-573 -574 0
-573 -575 0
-573 -576 0
-574 -575 0
-574 -576 0
-575 -576 0
577 578 579 580 581 582 583 584 585 586 587 588 589 590 591 592 593 594 0
-577 -578 0
-577 -579 0
-577 -580 0
-577 -581 0
-577 -582 0
-577 -583 0
-577 -584 0
-577 -585 0
-577 -586 0
-577 -587 0
-577 -588 0
-577 -589 0
-577 -590 0
-577 -591 0
-577 -592 0
-577 -593 0
-577 -594 0
-578 -579 0
-578 -580 0
-578 -581 0
-578 -582 0
-578 -583 0
-578 -584 0
-578 -585 0
-578 -586 0
-578 -587 0
-578 -588 0
-578 -589 0
-578 -590 0
-578 -591 0
-578 -592 0
-578 -593 0
-578 -594 0
-579 -580 0
-579 -581 0
-579 -582 0
-579 -583 0
-579 -584 0
-579 -585 0
-579 -586 0
-579 -587 0
-579 -588 0
-579 -589 0
-579 -590 0
-579 -591 0
-579 -592 0
-579 -593 0
-579 -594 0
-580 -581 0
-580 -582 0
-580 -583 0
-580 -584 0
-580 -585 0
-580 -586 0
-580 -587 0
-580 -588 0
-580 -589 0
-580 -590 0
-580 -591 0
-580 -592 0
-580 -593 0
-580 -594 0
-581 -582 0
-581 -583 0
-581 -584 0
-581 -585 0
-581 -586 0
-581 -587 0
-581 -588 0
-581 -589 0
-581 -590 0
-581 -591 0
-581 -592 0
-581 -593 0
-581 -594 0
-582 -583 0
-582 -584 0
-582 -585 0
-582 -586 0
-582 -587 0
-582 -588 0
-582 -589 0
-582 -590 0
-582 -591 0
-582 -592 0
-582 -593 0
-582 -594 0
-583 -584 0
-583 -585 0
-583 -586 0
-583 -587 0
-583 -588 0
-583 -589 0
-583 -590 0
-583 -591 0
-583 -592 0
-583 -593 0
-583 -594 0
-584 -585 0
-584 -586 0
-584 -587 0
-584 -588 0
-584 -589 0
-584 -590 0
-584 -591 0
-584 -592 0
-584 -593 0
-584 -594 0
-585 -586 0
-585 -587 0
-585 -588 0
-585 -589 0
-585 -590 0
-585 -591 0
-585 -592 0
-585 -593 0
-585 -594 0
-586 -587 0
-586 -588 0
-586 -589 0
-586 -590 0
-586 -591 0
-586 -592 0
-586 -593 0
-586 -594 0
-587 -588 0
-587 -589 0
-587 -590 0
-587 -591 0
-587 -592 0
-587 -593 0
-587 -594 0
-588 -589 0
-588 -590 0
-588 -591 0
-588 -592 0
-588 -593 0
-588 -594 0
-589 -590 0
-589 -591 0
-589 -592 0
-589 -593 0
-589 -594 0
-590 -591 0
-590 -592 0
-590 -593 0
-590 -594 0
-591 -592 0
-591 -593 0
-591 -594 0
-592 -593 0
-592 -594 0
-593 -594 0
595 596 597 598 599 600 601 602 603 604 605 606 607 608 609 610 611 612 0
-595 -596 0
-595 -597 0
-595 -598 0
-595 -599 0
-595 -600 0
-595 -601 0
-595 -602 0
-595 -603 0
-595 -604 0
-595 -605 0
-595 -606 0
-595 -607 0
-595 -608 0
-595 -609 0
-595 -610 0
-595 -611 0
-595 -612 0
-596 -597 0
-596 -598 0
-596 -599 0
-596 -600 0
-596 -601 0
-596 -602 0
-596 -603 0
-596 -604 0
-596 -605 0
-596 -606 0
-596 -607 0
-596 -608 0
-596 -609 0
-596 -610 0
-596 -611 0
-596 -612 0
-597 -598 0
-597 -599 0
-597 -600 0
-597 -601 0
-597 -602 0
-597 -603 0
-597 -604 0
-597 -605 0
-597 -606 0
-597 -607 0
-597 -608 0
-597 -609 0
-597 -610 0
-597 -611 0
-597 -612 0
-598 -599 0
-598 -600 0
-598 -601 0
-598 -602 0
-598 -603 0
-598 -604 0
-598 -605 0
-598 -606 0
-598 -607 0
-598 -608 0
-598 -609 0
-598 -610 0
-598 -611 0
-598 -612 0
-599 -600 0
-599 -601 0
-599 -602 0
-599 -603 0
-599 -604 0
-599 -605 0
-599 -606 0
-599 -607 0
-599 -608 0
-599 -609 0
-599 -610 0
-599 -611 0
-599 -612 0
-600 -601 0
-600 -602 0
-600 -603 0
-600 -604 0
-600 -605 0
-600 -606 0
-600 -607 0
-600 -608 0
-600 -609 0
-600 -610 0
-600 -611 0
-600 -612 0
-601 -602 0
-601 -603 0
-601 -604 0
-601 -605 0
-601 -606 0
-601 -607 0
-601 -608 0
-601 -609 0
-601 -610 0
-601 -611 0
-601 -612 0
-602 -603 0
-602 -604 0
-602 -605 0
-602 -606 0
-602 -607 0
-602 -608 0
-602 -609 0
-602 -610 0
-602 -611 0
-602 -612 0
-603 -604 0
-603 -605 0
-603 -606 0
-603 -607 0
-603 -608 0
-603 -609 0
-603 -610 0
-603 -611 0
-603 -612 0
-604 -605 0
-604 -606 0
-604 -607 0
-604 -608 0
-604 -609 0
-604 -610 0
-604 -611 0
-604 -612 0
-605 -606 0
-605 -607 0
-605 -608 0
-605 -609 0
-605 -610 0
-605 -611 0
-605 -612 0
-606 -607 0
-606 -608 0
-606 -609 0
-606 -610 0
-606 -611 0
-606 -612 0
-607 -608 0
-607 -609 0
-607 -610 0
-607 -611 0
-607 -612 0
-608 -609 0
-608 -610 0
-608 -611 0
-608 -612 0
-609 -610 0
-609 -611 0
-609 -612 0
-610 -611 0
-610 -612 0
-611 -612 0
613 614 615 616 617 618 619 620 621 622 623 624 625 626 627 628 629 630 0
-613 -614 0
-613 -615 0
-613 -616 0
-613 -617 0
-613 -618 0
-613 -619 0
-613 -620 0
-613 -621 0
-613 -622 0
-613 -623 0
-613 -624 0
-613 -625 0
-613 -626 0
-613 -627 0
-613 -628 0
-613 -629 0
-613 -630 0
-614 -615 0
-614 -616 0
-614 -617 0
-614 -618 0
-614 -619 0
-614 -620 0
-614 -621 0
-614 -622 0
-614 -623 0
-614 -624 0
-614 -625 0
-614 -626 0
-614 -627 0
-614 -628 0
-614 -629 0
-614 -630 0
-615 -616 0
-615 -617 0
-615 -618 0
-615 -619 0
-615 -620 0
-615 -621 0
-615 -622 0
-615 -623 0
-615 -624 0
-615 -625 0
-615 -626 0
-615 -627 0
-615 -628 0
-615 -629 0
-615 -630 0
-616 -617 0
-616 -618 0
-616 -619 0
-616 -620 0
-616 -621 0
-616 -622 0
-616 -623 0
-616 -624 0
-616 -625 0
-616 -626 0
-616 -627 0
-616 -628 0
-616 -629 0
-616 -630 0
-617 -618 0
-617 -619 0
-617 -620 0
-617 -621 0
-617 -622 0
-617 -623 0
-617 -624 0
-617 -625 0
-617 -626 0
-617 -627 0
-617 -628 0
-617 -629 0
-617 -630 0
-618 -619 0
-618 -620 0
-618 -621 0
-618 -622 0
-618 -623 0
-618 -624 0
-618 -625 0
-618 -626 0
-618 -627 0
-618 -628 0
-618 -629 0
-618 -630 0
-619 -620 0
-619 -621 0
-619 -622 0
-619 -623 0
-619 -624 0
-619 -625 0
-619 -626 0
-619 -627 0
-619 -628 0
-619 -629 0
-619 -630 0
-620 -621 0
-620 -622 0
-620 -623 0
-620 -624 0
-620 -625 0
-620 -626 0
-620 -627 0
-620 -628 0
-620 -629 0
-620 -630 0
-621 -622 0
-621 -623 0
-621 -624 0
-621 -625 0
-621 -626 0
-621 -627 0
-621 -628 0
-621 -629 0
-621 -630 0
-622 -623 0
-622 -624 0
-622 -625 0
-622 -626 0
-622 -627 0
-622 -628 0
-622 -629 0
-622 -630 0
-623 -624 0
-623 -625 0
-623 -626 0
-623 -627 0
-623 -628 0
-623 -629 0
-623 -630 0
-624 -625 0
-624 -626 0
-624 -627 0
-624 -628 0
-624 -629 0
-624 -630 0
-625 -626 0
-625 -627 0
-625 -628 0
-625 -629 0
-625 -630 0
-626 -627 0
-626 -628 0
-626 -629 0
-626 -630 0
-627 -628 0
-627 -629 0
-627 -630 0
-628 -629 0
-628 -630 0
-629 -630 0
631 632 633 634 635 636 637 638 639 640 641 642 643 644 645 646 647 648 0
-631 -632 0
-631 -633 0
-631 -634 0
-631 -635 0
-631 -636 0
-631 -637 0
-631 -638 0
-631 -639 0
-631 -640 0
-631 -641 0
-631 -642 0
-631 -643 0
-631 -644 0
-631 -645 0
-631 -646 0
-631 -647 0
-631 -648 0
-632 -633 0
-632 -634 0
-632 -635 0
-632 -636 0
-632 -637 0
-632 -638 0
-632 -639 0
-632 -640 0
-632 -641 0
-632 -642 0
-632 -643 0
-632 -644 0
-632 -645 0
-632 -646 0
-632 -647 0
-632 -648 0
-633 -634 0
-633 -635 0
-633 -636 0
-633 -637 0
-633 -638 0
-633 -639 0
-633 -640 0
-633 -641 0
-633 -642 0
-633 -643 0
-633 -644 0
-633 -645 0
-633 -646 0
-633 -647 0
-633 -648 0
-634 -635 0
-634 -636 0
-634 -637 0
-634 -638 0
-634 -639 0
-634 -640 0
-634 -641 0
-634 -642 0
-634 -643 0
-634 -644 0
-634 -645 0
-634 -646 0
-634 -647 0
-634 -648 0
-635 -636 0
-635 -637 0
-635 -638 0
-635 -639 0
-635 -640 0
-635 -641 0
-635 -642 0
-635 -643 0
-635 -644 0
-635 -645 0
-635 -646 0
-635 -647 0
-635 -648 0
-636 -637 0
-636 -638 0
-636 -639 0
-636 -640 0
-636 -641 0
-636 -642 0
-636 -643 0
-636 -644 0
-636 -645 0
-636 -646 0
-636 -647 0
-636 -648 0
-637 -638 0
-637 -639 0
-637 -640 0
-637 -641 0
-637 -642 0
-637 -643 0
-637 -644 0
-637 -645 0
-637 -646 0
-637 -647 0
-637 -648 0
-638 -639 0
-638 -640 0
-638 -641 0
-638 -642 0
-638 -643 0
-638 -644 0
-638 -645 0
-638 -646 0
-638 -647 0
-638 -648 0
-639 -640 0
-639 -641 0
-639 -642 0
-639 -643 0
-639 -644 0
-639 -645 0
-639 -646 0
-639 -647 0
-639 -648 0
-640 -641 0
-640 -642 0
-640 -643 0
-640 -644 0
-640 -645 0
-640 -646 0
-640 -647 0
-640 -648 0
-641 -642 0
-641 -643 0
-641 -644 0
-641 -645 0
-641 -646 0
-641 -647 0
-641 -648 0
-642 -643 0
-642 -644 0
-642 -645 0
-642 -646 0
-642 -647 0
-642 -648 0
-643 -644 0
-643 -645 0
-643 -646 0
-643 -647 0
-643 -648 0
-644 -645 0
-644 -646 0
-644 -647 0
-644 -648 0
-645 -646 0
-645 -647 0
-645 -648 0
-646 -647 0
-646 -648 0
-647 -648 0
649 650 651 652 653 654 655 656 657 658 659 660 661 662 663 664 665 666 0
-649 -650 0
-649 -651 0
-649 -652 0
-649 -653 0
-649 -654 0
-649 -655 0
-649 -656 0
-649 -657 0
-649 -658 0
-649 -659 0
-649 -660 0
-649 -661 0
-649 -662 0
-649 -663 0
-649 -664 0
-649 -665 0
-649 -666 0
-650 -651 0
-650 -652 0
-650 -653 0
-650 -654 0
-650 -655 0
-650 -656 0
-650 -657 0
-650 -658 0
-650 -659 0
-650 -660 0
-650 -661 0
-650 -662 0
-650 -663 0
-650 -664 0
-650 -665 0
-650 -666 0
-651 -652 0
-651 -653 0
-651 -654 0
-651 -655 0
-651 -656 0
-651 -657 0
-651 -658 0
-651 -659 0
-651 -660 0
-651 -661 0
-651 -662 0
-651 -663 0
-651 -664 0
-651 -665 0
-651 -666 0
-652 -653 0
-652 -654 0
-652 -655 0
-652 -656 0
-652 -657 0
-652 -658 0
-652 -659 0
-652 -660 0
-652 -661 0
-652 -662 0
-652 -663 0
-652 -664 0
-652 -665 0
-652 -666 0
-653 -654 0
-653 -655 0
-653 -656 0
-653 -657 0
-653 -658 0
-653 -659 0
-653 -660 0
-653 -661 0
-653 -662 0
-653 -663 0
-653 -664 0
-653 -665 0
-653 -666 0
-654 -655 0
-654 -656 0
-654 -657 0
-654 -658 0
-654 -659 0
-654 -660 0
-654 -661 0
-654 -662 0
-654 -663 0
-654 -664 0
-654 -665 0
-654 -666 0
-655 -656 0
-655 -657 0
-655 -658 0
-655 -659 0
-655 -660 0
-655 -661 0
-655 -662 0
-655 -663 0
-655 -664 0
-655 -665 0
-655 -666 0
-656 -657 0
-656 -658 0
-656 -659 0
-656 -660 0
-656 -661 0
-656 -662 0
-656 -663 0
-656 -664 0
-656 -665 0
-656 -666 0
-657 -658 0
-657 -659 0
-657 -660 0
-657 -661 0
-657 -662 0
-657 -663 0
-657 -664 0
-657 -665 0
-657 -666 0
-658 -659 0
-658 -660 0
-658 -661 0
-658 -662 0
-658 -663 0
-658 -664 0
-658 -665 0
-658 -666 0
-659 -660 0
-659 -661 0
-659 -662 0
-659 -663 0
-659 -664 0
-659 -665 0
-659 -666 0
-660 -661 0
-660 -662 0
-660 -663 0
-660 -664 0
-660 -665 0
-660 -666 0
-661 -662 0
-661 -663 0
-661 -664 0
-661 -665 0
-661 -666 0
-662 -663 0
-662 -664 0
-662 -665 0
-662 -666 0
-663 -664 0
-663 -665 0
-663 -666 0
-664 -665 0
-664 -666 0
-665 -666 0
667 668 669 670 671 672 673 674 675 676 677 678 679 680 681 682 683 684 0
-667 -668 0
-667 -669 0
-667 -670 0
-667 -671 0
-667 -672 0
-667 -673 0
-667 -674 0
-667 -675 0
-667 -676 0
-667 -677 0
-667 -678 0
-667 -679 0
-667 -680 0
-667 -681 0
-667 -682 0
-667 -683 0
-667 -684 0
-668 -669 0
-668 -670 0
-668 -671 0
-668 -672 0
-668 -673 0
-668 -674 0
-668 -675 0
-668 -676 0
-668 -677 0
-668 -678 0
-668 -679 0
-668 -680 0
-668 -681 0
-668 -682 0
-668 -683 0
-668 -684 0
-669 -670 0
-669 -671 0
-669 -672 0
-669 -673 0
-669 -674 0
-669 -675 0
-669 -676 0
-669 -677 0
-669 -678 0
-669 -679 0
-669 -680 0
-669 -681 0
-669 -682 0
-669 -683 0
-669 -684 0
-670 -671 0
-670 -672 0
-670 -673 0
-670 -674 0
-670 -675 0
-670 -676 0
-670 -677 0
-670 -678 0
-670 -679 0
-670 -680 0
-670 -681 0
-670 -682 0
-670 -683 0
-670 -684 0
-671 -672 0
-671 -673 0
-671 -674 0
-671 -675 0
-671 -676 0
-671 -677 0
-671 -678 0
-671 -679 0
-671 -680 0
-671 -681 0
-671 -682 0
-671 -683 0
-671 -684 0
-672 -673 0
-672 -674 0
-672 -675 0
-672 -676 0
-672 -677 0
-672 -678 0
-672 -679 0
-672 -680 0
-672 -681 0
-672 -682 0
-672 -683 0
-672 -684 0
-673 -674 0
-673 -675 0
-673 -676 0
-673 -677 0
-673 -678 0
-673 -679 0
-673 -680 0
-673 -681 0
-673 -682 0
-673 -683 0
-673 -684 0
-674 -675 0
-674 -676 0
-674 -677 0
-674 -678 0
-674 -679 0
-674 -680 0
-674 -681 0
-674 -682 0
-674 -683 0
-674 -684 0
-675 -676 0
-675 -677 0
-675 -678 0
-675 -679 0
-675 -680 0
-675 -681 0
-675 -682 0
-675 -683 0
-675 -684 0
-676 -677 0
-676 -678 0
-676 -679 0
-676 -680 0
-676 -681 0
-676 -682 0
-676 -683 0
-676 -684 0
-677 -678 0
-677 -679 0
-677 -680 0
-677 -681 0
-677 -682 0
-677 -683 0
-677 -684 0
-678 -679 0
-678 -680 0
-678 -681 0
-678 -682 0
-678 -683 0
-678 -684 0
-679 -680 0
-679 -681 0
-679 -682 0
-679 -683 0
-679 -684 0
-680 -681 0
-680 -682 0
-680 -683 0
-680 -684 0
-681 -682 0
-681 -683 0
-681 -684 0
-682 -683 0
-682 -684 0
-683 -684 0
685 686 687 688 689 690 691 692 693 694 695 696 697 698 699 700 701 702 0
-685 -686 0
-685 -687 0
-685 -688 0
-685 -689 0
-685 -690 0
-685 -691 0
-685 -692 0
-685 -693 0
-685 -694 0
-685 -695 0
-685 -696 0
-685 -697 0
-685 -698 0
-685 -699 0
-685 -700 0
-685 -701 0
-685 -702 0
-686 -687 0
-686 -688 0
-686 -689 0
-686 -690 0
-686 -691 0
-686 -692 0
-686 -693 0
-686 -694 0
-686 -695 0
-686 -696 0
-686 -697 0
-686 -698 0
-686 -699 0
-686 -700 0
-686 -701 0
-686 -702 0
-687 -688 0
-687 -689 0
-687 -690 0
-687 -691 0
-687 -692 0
-687 -693 0
-687 -694 0
-687 -695 0
-687 -696 0
-687 -697 0
-687 -698 0
-687 -699 0
-687 -700 0
-687 -701 0
-687 -702 0
-688 -689 0
-688 -690 0
-688 -691 0
-688 -692 0
-688 -693 0
-688 -694 0
-688 -695 0
-688 -696 0
-688 -697 0
-688 -698 0
-688 -699 0
-688 -700 0
-688 -701 0
-688 -702 0
-689 -690 0
-689 -691 0
-689 -692 0
-689 -693 0
-689 -694 0
-689 -695 0
-689 -696 0
-689 -697 0
-689 -698 0
-689 -699 0
-689 -700 0
-689 -701 0
-689 -702 0
-690 -691 0
-690 -692 0
-690 -693 0
-690 -694 0
-690 -695 0
-690 -696 0
-690 -697 0
-690 -698 0
-690 -699 0
-690 -700 0
-690 -701 0
-690 -702 0
-691 -692 0
-691 -693 0
-691 -694 0
-691 -695 0
-691 -696 0
-691 -697 0
-691 -698 0
-691 -699 0
-691 -700 0
-691 -701 0
-691 -702 0
-692 -693 0
-692 -694 0
-692 -695 0
-692 -696 0
-692 -697 0
-692 -698 0
-692 -699 0
-692 -700 0
-692 -701 0
-692 -702 0
-693 -694 0
-693 -695 0
-693 -696 0
-693 -697 0
-693 -698 0
-693 -699 0
-693 -700 0
-693 -701 0
-693 -702 0
-694 -695 0
-694 -696 0
-694 -697 0
-694 -698 0
-694 -699 0
-694 -700 0
-694 -701 0
-694 -702 0
-695 -696 0
-695 -697 0
-695 -698 0
-695 -699 0
-695 -700 0
-695 -701 0
-695 -702 0
-696 -697 0
-696 -698 0
-696 -699 0
-696 -700 0
-696 -701 0
-696 -702 0
-697 -698 0
-697 -699 0
-697 -700 0
-697 -701 0
-697 -702 0
-698 -699 0
-698 -700 0
-698 -701 0
-698 -702 0
-699 -700 0
-699 -701 0
-699 -702 0
-700 -701 0
-700 -702 0
-701 -702 0
703 704 705 706 707 708 709 710 711 712 713 714 715 716 717 718 719 720 0
-703 -704 0
-703 -705 0
-703 -706 0
-703 -707 0
-703 -708 0
-703 -709 0
-703 -710 0
-703 -711 0
-703 -712 0
-703 -713 0
-703 -714 0
-703 -715 0
-703 -716 0
-703 -717 0
-703 -718 0
-703 -719 0
-703 -720 0
-704 -705 0
-704 -706 0
-704 -707 0
-704 -708 0
-704 -709 0
-704 -710 0
-704 -711 0
-704 -712 0
-704 -713 0
-704 -714 0
-704 -715 0
-704 -716 0
-704 -717 0
-704 -718 0
-704 -719 0
-704 -720 0
-705 -706 0
-705 -707 0
-705 -708 0
-705 -709 0
-705 -710 0
-705 -711 0
-705 -712 0
-705 -713 0
-705 -714 0
-705 -715 0
-705 -716 0
-705 -717 0
-705 -718 0
-705 -719 0
-705 -720 0
-706 -707 0
-706 -708 0
-706 -709 0
-706 -710 0
-706 -711 0
-706 -712 0
-706 -713 0
-706 -714 0
-706 -715 0
-706 -716 0
-706 -717 0
-706 -718 0
-706 -719 0
-706 -720 0
-707 -708 0
-707 -709 0
-707 -710 0
-707 -711 0
-707 -712 0
-707 -713 0
-707 -714 0
-707 -715 0
-707 -716 0
-707 -717 0
-707 -718 0
-707 -719 0
-707 -720 0
-708 -709 0
-708 -710 0
-708 -711 0
-708 -712 0
-708 -713 0
-708 -714 0
-708 -715 0
-708 -716 0
-708 -717 0
-708 -718 0
-708 -719 0
-708 -720 0
-709 -710 0
-709 -711 0
-709 -712 0
-709 -713 0
-709 -714 0
-709 -715 0
-709 -716 0
-709 -717 0
-709 -718 0
-709 -719 0
-709 -720 0
-710 -711 0
-710 -712 0
-710 -713 0
-710 -714 0
-710 -715 0
-710 -716 0
-710 -717 0
-710 -718 0
-710 -719 0
-710 -720 0
-711 -712 0
-711 -713 0
-711 -714 0
-711 -715 0
-711 -716 0
-711 -717 0
-711 -718 0
-711 -719 0
-711 -720 0
-712 -713 0
-712 -714 0
-712 -715 0
-712 -716 0
-712 -717 0
-712 -718 0
-712 -719 0
-712 -720 0
-713 -714 0
-713 -715 0
-713 -716 0
-713 -717 0
-713 -718 0
-713 -719 0
-713 -720 0
-714 -715 0
-714 -716 0
-714 -717 0
-714 -718 0
-714 -719 0
-714 -720 0
-715 -716 0
-715 -717 0
-715 -718 0
-715 -719 0
-715 -720 0
-716 -717 0
-716 -718 0
-716 -719 0
-716 -720 0
-717 -718 0
-717 -719 0
-717 -720 0
-718 -719 0
-718 -720 0
-719 -720 0
721 722 723 724 725 726 727 728 729 730 731 732 733 734 735 736 737 738 0
-721 -722 0
-721 -723 0
-721 -724 0
-721 -725 0
-721 -726 0
-721 -727 0
-721 -728 0
-721 -729 0
-721 -730 0
-721 -731 0
-721 -732 0
-721 -733 0
-721 -734 0
-721 -735 0
-721 -736 0
-721 -737 0
-721 -738 0
-722 -723 0
-722 -724 0
-722 -725 0
-722 -726 0
-722 -727 0
-722 -728 0
-722 -729 0
-722 -730 0
-722 -731 0
-722 -732 0
-722 -733 0
-722 -734 0
-722 -735 0
-722 -736 0
-722 -737 0
-722 -738 0
-723 -724 0
-723 -725 0
-723 -726 0
-723 -727 0
-723 -728 0
-723 -729 0
-723 -730 0
-723 -731 0
-723 -732 0
-723 -733 0
-723 -734 0
-723 -735 0
-723 -736 0
-723 -737 0
-723 -738 0
-724 -725 0
-724 -726 0
-724 -727 0
-724 -728 0
-724 -729 0
-724 -730 0
-724 -731 0
-724 -732 0
-724 -733 0
-724 -734 0
-724 -735 0
-724 -736 0
-724 -737 0
-724 -738 0
-725 -726 0
-725 -727 0
-725 -728 0
-725 -729 0
-725 -730 0
-725 -731 0
-725 -732 0
-725 -733 0
-725 -734 0
-725 -735 0
-725 -736 0
-725 -737 0
-725 -738 0
-726 -727 0
-726 -728 0
-726 -729 0
-726 -730 0
-726 -731 0
-726 -732 0
-726 -733 0
-726 -734 0
-726 -735 0
-726 -736 0
-726 -737 0
-726 -738 0
-727 -728 0
-727 -729 0
-727 -730 0
-727 -731 0
-727 -732 0
-727 -733 0
-727 -734 0
-727 -735 0
-727 -736 0
-727 -737 0
-727 -738 0
-728 -729 0
-728 -730 0
-728 -731 0
-728 -732 0
-728 -733 0
-728 -734 0
-728 -735 0
-728 -736 0
-728 -737 0
-728 -738 0
-729 -730 0
-729 -731 0
-729 -732 0
-729 -733 0
-729 -734 0
-729 -735 0
-729 -736 0
-729 -737 0
-729 -738 0
-730 -731 0
-730 -732 0
-730 -733 0
-730 -734 0
-730 -735 0
-730 -736 0
-730 -737 0
-730 -738 0
-731 -732 0
-731 -733 0
-731 -734 0
-731 -735 0
-731 -736 0
-731 -737 0
-731 -738 0
-732 -733 0
-732 -734 0
-732 -735 0
-732 -736 0
-732 -737 0
-732 -738 0
-733 -734 0
-733 -735 0
-733 -736 0
-733 -737 0
-733 -738 0
-734 -735 0
-734 -736 0
-734 -737 0
-734 -738 0
-735 -736 0
-735 -737 0
-735 -738 0
-736 -737 0
-736 -738 0
-737 -738 0
739 740 741 742 743 744 745 746 747 748 749 750 751 752 753 754 755 756 0
-739 -740 0
-739 -741 0
-739 -742 0
-739 -743 0
-739 -744 0
-739 -745 0
-739 -746 0
-739 -747 0
-739 -748 0
-739 -749 0
-739 -750 0
-739 -751 0
-739 -752 0
-739 -753 0
-739 -754 0
-739 -755 0
-739 -756 0
-740 -741 0
-740 -742 0
-740 -743 0
-740 -744 0
-740 -745 0
-740 -746 0
-740 -747 0
-740 -748 0
-740 -749 0
-740 -750 0
-740 -751 0
-740 -752 0
-740 -753 0
-740 -754 0
-740 -755 0
-740 -756 0
-741 -742 0
-741 -743 0
-741 -744 0
-741 -745 0
-741 -746 0
-741 -747 0
-741 -748 0
-741 -749 0
-741 -750 0
-741 -751 0
-741 -752 0
-741 -753 0
-741 -754 0
-741 -755 0
-741 -756 0
-742 -743 0
-742 -744 0
-742 -745 0
-742 -746 0
-742 -747 0
-742 -748 0
-742 -749 0
-742 -750 0
-742 -751 0
-742 -752 0
-742 -753 0
-742 -754 0
-742 -755 0
-742 -756 0
-743 -744 0
-743 -745 0
-743 -746 0
-743 -747 0
-743 -748 0
-743 -749 0
-743 -750 0
-743 -751 0
-743 -752 0
-743 -753 0
-743 -754 0
-743 -755 0
-743 -756 0
-744 -745 0
-744 -746 0
-744 -747 0
-744 -748 0
-744 -749 0
-744 -750 0
-744 -751 0
-744 -752 0
-744 -753 0
-744 -754 0
-744 -755 0
-744 -756 0
-745 -746 0
-745 -747 0
-745 -748 0
-745 -749 0
-745 -750 0
-745 -751 0
-745 -752 0
-745 -753 0
-745 -754 0
-745 -755 0
-745 -756 0
-746 -747 0
-746 -748 0
-746 -749 0
-746 -750 0
-746 -751 0
-746 -752 0
-746 -753 0
-746 -754 0
-746 -755 0
-746 -756 0
-747 -748 0
-747 -749 0
-747 -750 0
-747 -751 0
-747 -752 0
-747 -753 0
-747 -754 0
-747 -755 0
-747 -756 0
-748 -749 0
-748 -750 0
-748 -751 0
-748 -752 0
-748 -753 0
-748 -754 0
-748 -755 0
-748 -756 0
-749 -750 0
-749 -751 0
-749 -752 0
-749 -753 0
-749 -754 0
-749 -755 0
-749 -756 0
-750 -751 0
-750 -752 0
-750 -753 0
-750 -754 0
-750 -755 0
-750 -756 0
-751 -752 0
-751 -753 0
-751 -754 0
-751 -755 0
-751 -756 0
-752 -753 0
-752 -754 0
-752 -755 0
-752 -756 0
-753 -754 0
-753 -755 0
-753 -756 0
-754 -755 0
-754 -756 0
-755 -756 0
757 758 759 760 761 762 763 764 765 766 767 768 769 770 771 772 773 774 0
-757 -758 0
-757 -759 0
-757 -760 0
-757 -761 0
-757 -762 0
-757 -763 0
-757 -764 0
-757 -765 0
-757 -766 0
-757 -767 0
-757 -768 0
-757 -769 0
-757 -770 0
-757 -771 0
-757 -772 0
-757 -773 0
-757 -774 0
-758 -759 0
-758 -760 0
-758 -761 0
-758 -762 0
-758 -763 0
-758 -764 0
-758 -765 0
-758 -766 0
-758 -767 0
-758 -768 0
-758 -769 0
-758 -770 0
-758 -771 0
-758 -772 0
-758 -773 0
-758 -774 0
-759 -760 0
-759 -761 0
-759 -762 0
-759 -763 0
-759 -764 0
-759 -765 0
-759 -766 0
-759 -767 0
-759 -768 0
-759 -769 0
-759 -770 0
-759 -771 0
-759 -772 0
-759 -773 0
-759 -774 0
-760 -761 0
-760 -762 0
-760 -763 0
-760 -764 0
-760 -765 0
-760 -766 0
-760 -767 0
-760 -768 0
-760 -769 0
-760 -770 0
-760 -771 0
-760 -772 0
-760 -773 0
-760 -774 0
-761 -762 0
-761 -763 0
-761 -764 0
-761 -765 0
-761 -766 0
-761 -767 0
-761 -768 0
-761 -769 0
-761 -770 0
-761 -771 0
-761 -772 0
-761 -773 0
-761 -774 0
-762 -763 0
-762 -764 0
-762 -765 0
-762 -766 0
-762 -767 0
-762 -768 0
-762 -769 0
-762 -770 0
-762 -771 0
-762 -772 0
-762 -773 0
-762 -774 0
-763 -764 0
-763 -765 0
-763 -766 0
-763 -767 0
-763 -768 0
-763 -769 0
-763 -770 0
-763 -771 0
-763 -772 0
-763 -773 0
-763 -774 0
-764 -765 0
-764 -766 0
-764 -767 0
-764 -768 0
-764 -769 0
-764 -770 0
-764 -771 0
-764 -772 0
-764 -773 0
-764 -774 0
-765 -766 0
-765 -767 0
-765 -768 0
-765 -769 0
-765 -770 0
-765 -771 0
-765 -772 0
-765 -773 0
-765 -774 0
-766 -767 0
-766 -768 0
-766 -769 0
-766 -770 0
-766 -771 0
-766 -772 0
-766 -773 0
-766 -774 0
-767 -768 0
-767 -769 0
-767 -770 0
-767 -771 0
-767 -772 0
-767 -773 0
-767 -774 0
-768 -769 0
-768 -770 0
-768 -771 0
-768 -772 0
-768 -773 0
-768 -774 0
-769 -770 0
-769 -771 0
-769 -772 0
-769 -773 0
-769 -774 0
-770 -771 0
-770 -772 0
-770 -773 0
-770 -774 0
-771 -772 0
-771 -773 0
-771 -774 0
-772 -773 0
-772 -774 0
-773 -774 0
775 776 777 778 779 780 781 782 783 784 785 786 787 788 789 790 791 792 0
-775 -776 0
-775 -777 0
-775 -778 0
-775 -779 0
-775 -780 0
-775 -781 0
-775 -782 0
-775 -783 0
-775 -784 0
-775 -785 0
-775 -786 0
-775 -787 0
-775 -788 0
-775 -789 0
-775 -790 0
-775 -791 0
-775 -792 0
-776 -777 0
-776 -778 0
-776 -779 0
-776 -780 0
-776 -781 0
-776 -782 0
-776 -783 0
-776 -784 0
-776 -785 0
-776 -786 0
-776 -787 0
-776 -788 0
-776 -789 0
-776 -790 0
-776 -791 0
-776 -792 0
-777 -778 0
-777 -779 0
-777 -780 0
-777 -781 0
-777 -782 0
-777 -783 0
-777 -784 0
-777 -785 0
-777 -786 0
-777 -787 0
-777 -788 0
-777 -789 0
-777 -790 0
-777 -791 0
-777 -792 0
-778 -779 0
-778 -780 0
-778 -781 0
-778 -782 0
-778 -783 0
-778 -784 0
-778 -785 0
-778 -786 0
-778 -787 0
-778 -788 0
-778 -789 0
-778 -790 0
-778 -791 0
-778 -792 0
-779 -780 0
-779 -781 0
-779 -782 0
-779 -783 0
-779 -784 0
-779 -785 0
-779 -786 0
-779 -787 0
-779 -788 0
-779 -789 0
-779 -790 0
-779 -791 0
-779 -792 0
-780 -781 0
-780 -782 0
-780 -783 0
-780 -784 0
-780 -785 0
-780 -786 0
-780 -787 0
-780 -788 0
-780 -789 0
-780 -790 0
-780 -791 0
-780 -792 0
-781 -782 0
-781 -783 0
-781 -784 0
-781 -785 0
-781 -786 0
-781 -787 0
-781 -788 0
-781 -789 0
-781 -790 0
-781 -791 0
-781 -792 0
-782 -783 0
-782 -784 0
-782 -785 0
-782 -786 0
-782 -787 0
-782 -788 0
-782 -789 0
-782 -790 0
-782 -791 0
-782 -792 0
-783 -784 0
-783 -785 0
-783 -786 0
-783 -787 0
-783 -788 0
-783 -789 0
-783 -790 0
-783 -791 0
-783 -792 0
-784 -785 0
-784 -786 0
-784 -787 0
-784 -788 0
-784 -789 0
-784 -790 0
-784 -791 0
-784 -792 0
-785 -786 0
-785 -787 0
-785 -788 0
-785 -789 0
-785 -790 0
-785 -791 0
-785 -792 0
-786 -787 0
-786 -788 0
-786 -789 0
-786 -790 0
-786 -791 0
-786 -792 0
-787 -788 0
-787 -789 0
-787 -790 0
-787 -791 0
-787 -792 0
-788 -789 0
-788 -790 0
-788 -791 0
-788 -792 0
-789 -790 0
-789 -791 0
-789 -792 0
-790 -791 0
-790 -792 0
-791 -792 0
793 794 795 796 797 798 799 800 801 802 803 804 805 806 807 808 809 810 0
-793 -794 0
-793 -795 0
-793 -796 0
-793 -797 0
-793 -798 0
-793 -799 0
-793 -800 0
-793 -801 0
-793 -802 0
-793 -803 0
-793 -804 0
-793 -805 0
-793 -806 0
-793 -807 0
-793 -808 0
-793 -809 0
-793 -810 0
-794 -795 0
-794 -796 0
-794 -797 0
-794 -798 0
-794 -799 0
-794 -800 0
-794 -801 0
-794 -802 0
-794 -803 0
-794 -804 0
-794 -805 0
-794 -806 0
-794 -807 0
-794 -808 0
-794 -809 0
-794 -810 0
-795 -796 0
-795 -797 0
-795 -798 0
-795 -799 0
-795 -800 0
-795 -801 0
-795 -802 0
-795 -803 0
-795 -804 0
-795 -805 0
-795 -806 0
-795 -807 0
-795 -808 0
-795 -809 0
-795 -810 0
-796 -797 0
-796 -798 0
-796 -799 0
-796 -800 0
-796 -801 0
-796 -802 0
-796 -803 0
-796 -804 0
-796 -805 0
-796 -806 0
-796 -807 0
-796 -808 0
-796 -809 0
-796 -810 0
-797 -798 0
-797 -799 0
-797 -800 0
-797 -801 0
-797 -802 0
-797 -803 0
-797 -804 0
-797 -805 0
-797 -806 0
-797 -807 0
-797 -808 0
-797 -809 0
-797 -810 0
-798 -799 0
-798 -800 0
-798 -801 0
-798 -802 0
-798 -803 0
-798 -804 0
-798 -805 0
-798 -806 0
-798 -807 0
-798 -808 0
-798 -809 0
-798 -810 0
-799 -800 0
-799 -801 0
-799 -802 0
-799 -803 0
-799 -804 0
-799 -805 0
-799 -806 0
-799 -807 0
-799 -808 0
-799 -809 0
-799 -810 0
-800 -801 0
-800 -802 0
-800 -803 0
-800 -804 0
-800 -805 0
-800 -806 0
-800 -807 0
-800 -808 0
-800 -809 0
-800 -810 0
-801 -802 0
-801 -803 0
-801 -804 0
-801 -805 0
-801 -806 0
-801 -807 0
-801 -808 0
-801 -809 0
-801 -810 0
-802 -803 0
-802 -804 0
-802 -805 0
-802 -806 0
-802 -807 0
-802 -808 0
-802 -809 0
-802 -810 0
-803 -804 0
-803 -805 0
-803 -806 0
-803 -807 0
-803 -808 0
-803 -809 0
-803 -810 0
-804 -805 0
-804 -806 0
-804 -807 0
-804 -808 0
-804 -809 0
-804 -810 0
-805 -806 0
-805 -807 0
-805 -808 0
-805 -809 0
-805 -810 0
-806 -807 0
-806 -808 0
-806 -809 0
-806 -810 0
-807 -808 0
-807 -809 0
-807 -810 0
-808 -809 0
-808 -810 0
-809 -810 0
-1 -55 0
-1 -109 0
-1 -163 0
-1 -217 0
-1 -271 0
-1 -325 0
-1 -379 0
-1 -433 0
-1 -487 0
-1 -541 0
-1 -595 0
-1 -649 0
-1 -703 0
-1 -757 0
-55 -109 0
-55 -163 0
-55 -217 0
-55 -271 0
-55 -325 0
-55 -379 0
-55 -433 0
-55 -487 0
-55 -541 0
-55 -595 0
-55 -649 0
-55 -703 0
-55 -757 0
-109 -163 0
-109 -217 0
-109 -271 0
-109 -325 0
-109 -379 0
-109 -433 0
-109 -487 0
-109 -541 0
-109 -595 0
-109 -649 0
-109 -703 0
-109 -757 0
-163 -217 0
-163 -271 0
-163 -325 0
-163 -379 0
-163 -433 0
-163 -487 0
-163 -541 0
-163 -595 0
-163 -649 0
-163 -703 0
-163 -757 0
-217 -271 0
-217 -325 0
-217 -379 0
-217 -433 0
-217 -487 0
-217 -541 0
-217 -595 0
-217 -649 0
-217 -703 0
-217 -757 0
-271 -325 0
-271 -379 0
-271 -433 0
-271 -487 0
-271 -541 0
-271 -595 0
-271 -649 0
-271 -703 0
-271 -757 0
-325 -379 0
-325 -433 0
-325 -487 0
-325 -541 0
-325 -595 0
-325 -649 0
-325 -703 0
-325 -757 0
-379 -433 0
-379 -487 0
-379 -541 0
-379 -595 0
-379 -649 0
-379 -703 0
-379 -757 0
-433 -487 0
-433 -541 0
-433 -595 0
-433 -649 0
-433 -703 0
-433 -757 0
-487 -541 0
-487 -595 0
-487 -649 0
-487 -703 0
-487 -757 0
-541 -595 0
-541 -649 0
-541 -703 0
-541 -757 0
-595 -649 0
-595 -703 0
-595 -757 0
-649 -703 0
-649 -757 0
-703 -757 0
-2 -56 0
-2 -110 0
-2 -164 0
-2 -218 0
-2 -272 0
-2 -326 0
-2 -380 0
-2 -434 0
-2 -488 0
-2 -542 0
-2 -596 0
-2 -650 0
-2 -704 0
-2 -758 0
-56 -110 0
-56 -164 0
-56 -218 0
-56 -272 0
-56 -326 0
-56 -380 0
-56 -434 0
-56 -488 0
-56 -542 0
-56 -596 0
-56 -650 0
-56 -704 0
-56 -758 0
-110 -164 0
-110 -218 0
-110 -272 0
-110 -326 0
-110 -380 0
-110 -434 0
-110 -488 0
-110 -542 0
-110 -596 0
-110 -650 0
-110 -704 0
-110 -758 0
-164 -218 0
-164 -272 0
-164 -326 0
-164 -380 0
-164 -434 0
-164 -488 0
-164 -542 0
-164 -596 0
-164 -650 0
-164 -704 0
-164 -758 0
-218 -272 0
-218 -326 0
-218 -380 0
-218 -434 0
-218 -488 0
-218 -542 0
-218 -596 0
-218 -650 0
-218 -704 0
-218 -758 0
-272 -326 0
-272 -380 0
-272 -434 0
-272 -488 0
-272 -542 0
-272 -596 0
-272 -650 0
-272 -704 0
-272 -758 0
-326 -380 0
-326 -434 0
-326 -488 0
-326 -542 0
-326 -596 0
-326 -650 0
-326 -704 0
-326 -758 0
-380 -434 0
-380 -488 0
-380 -542 0
-380 -596 0
-380 -650 0
-380 -704 0
-380 -758 0
-434 -488 0
-434 -542 0
-434 -596 0
-434 -650 0
-434 -704 0
-434 -758 0
-488 -542 0
-488 -596 0
-488 -650 0
-488 -704 0
-488 -758 0
-542 -596 0
-542 -650 0
-542 -704 0
-542 -758 0
-596 -650 0
-596 -704 0
-596 -758 0
-650 -704 0
-650 -758 0
-704 -758 0
-3 -57 0
-3 -111 0
-3 -165 0
-3 -219 0
-3 -273 0
-3 -327 0
-3 -381 0
-3 -435 0
-3 -489 0
-3 -543 0
-3 -597 0
-3 -651 0
-3 -705 0
-3 -759 0
-57 -111 0
-57 -165 0
-57 -219 0
-57 -273 0
-57 -327 0
-57 -381 0
-57 -435 0
-57 -489 0
-57 -543 0
-57 -597 0
-57 -651 0
-57 -705 0
-57 -759 0
-111 -165 0
-111 -219 0
-111 -273 0
-111 -327 0
-111 -381 0
-111 -435 0
-111 -489 0
-111 -543 0
-111 -597 0
-111 -651 0
-111 -705 0
-111 -759 0
-165 -219 0
-165 -273 0
-165 -327 0
-165 -381 0
-165 -435 0
-165 -489 0
-165 -543 0
-165 -597 0
-165 -651 0
-165 -705 0
-165 -759 0
-219 -273 0
-219 -327 0
-219 -381 0
-219 -435 0
-219 -489 0
-219 -543 0
-219 -597 0
-219 -651 0
-219 -705 0
-219 -759 0
-273 -327 0
-273 -381 0
-273 -435 0
-273 -489 0
-273 -543 0
-273 -597 0
-273 -651 0
-273 -705 0
-273 -759 0
-327 -381 0
-327 -435 0
-327 -489 0
-327 -543 0
-327 -597 0
-327 -651 0
-327 -705 0
-327 -759 0
-381 -435 0
-381 -489 0
-381 -543 0
-381 -597 0
-381 -651 0
-381 -705 0
-381 -759 0
-435 -489 0
-435 -543 0
-435 -597 0
-435 -651 0
-435 -705 0
-435 -759 0
-489 -543 0
-489 -597 0
-489 -651 0
-489 -705 0
-489 -759 0
-543 -597 0
-543 -651 0
-543 -705 0
-543 -759 0
-597 -651 0
-597 -705 0
-597 -759 0
-651 -705 0
-651 -759 0
-705 -759 0
-4 -58 0
-4 -112 0
-4 -166 0
-4 -220 0
-4 -274 0
-4 -328 0
-4 -382 0
-4 -436 0
-4 -490 0
-4 -544 0
-4 -598 0
-4 -652 0
-4 -706 0
-4 -760 0
-58 -112 0
-58 -166 0
-58 -220 0
-58 -274 0
-58 -328 0
-58 -382 0
-58 -436 0
-58 -490 0
-58 -544 0
-58 -598 0
-58 -652 0
-58 -706 0
-58 -760 0
-112 -166 0
-112 -220 0
-112 -274 0
-112 -328 0
-112 -382 0
-112 -436 0
-112 -490 0
-112 -544 0
-112 -598 0
-112 -652 0
-112 -706 0
-112 -760 0
-166 -220 0
-166 -274 0
-166 -328 0
-166 -382 0
-166 -436 0
-166 -490 0
-166 -544 0
-166 -598 0
-166 -652 0
-166 -706 0
-166 -760 0
-220 -274 0
-220 -328 0
-220 -382 0
-220 -436 0
-220 -490 0
-220 -544 0
-220 -598 0
-220 -652 0
-220 -706 0
-220 -760 0
-274 -328 0
-274 -382 0
-274 -436 0
-274 -490 0
-274 -544 0
-274 -598 0
-274 -652 0
-274 -706 0
-274 -760 0
-328 -382 0
-328 -436 0
-328 -490 0
-328 -544 0
-328 -598 0
-328 -652 0
-328 -706 0
-328 -760 0
-382 -436 0
-382 -490 0
-382 -544 0
-382 -598 0
-382 -652 0
-382 -706 0
-382 -760 0
-436 -490 0
-436 -544 0
-436 -598 0
-436 -652 0
-436 -706 0
-436 -760 0
-490 -544 0
-490 -598 0
-490 -652 0
-490 -706 0
-490 -760 0
-544 -598 0
-544 -652 0
-544 -706 0
-544 -760 0
-598 -652 0
-598 -706 0
-598 -760 0
-652 -706 0
-652 -760 0
-706 -760 0
-5 -59 0
-5 -113 0
-5 -167 0
-5 -221 0
-5 -275 0
-5 -329 0
-5 -383 0
-5 -437 0
-5 -491 0
-5 -545 0
-5 -599 0
-5 -653 0
-5 -707 0
-5 -761 0
-59 -113 0
-59 -167 0
-59 -221 0
-59 -275 0
-59 -329 0
-59 -383 0
-59 -437 0
-59 -491 0
-59 -545 0
-59 -599 0
-59 -653 0
-59 -707 0
-59 -761 0
-113 -167 0
-113 -221 0
-113 -275 0
-113 -329 0
-113 -383 0
-113 -437 0
-113 -491 0
-113 -545 0
-113 -599 0
-113 -653 0
-113 -707 0
-113 -761 0
-167 -221 0
-167 -275 0
-167 -329 0
-167 -383 0
-167 -437 0
-167 -491 0
-167 -545 0
-167 -599 0
-167 -653 0
-167 -707 0
-167 -761 0
-221 -275 0
-221 -329 0
-221 -383 0
-221 -437 0
-221 -491 0
-221 -545 0
-221 -599 0
-221 -653 0
-221 -707 0
-221 -761 0
-275 -329 0
-275 -383 0
-275 -437 0
-275 -491 0
-275 -545 0
-275 -599 0
-275 -653 0
-275 -707 0
-275 -761 0
-329 -383 0
-329 -437 0
-329 -491 0
-329 -545 0
-329 -599 0
-329 -653 0
-329 -707 0
-329 -761 0
-383 -437 0
-383 -491 0
-383 -545 0
-383 -599 0
-383 -653 0
-383 -707 0
-383 -761 0
-437 -491 0
-437 -545 0
-437 -599 0
-437 -653 0
-437 -707 0
-437 -761 0
-491 -545 0
-491 -599 0
-491 -653 0
-491 -707 0
-491 -761 0
-545 -599 0
-545 -653 0
-545 -707 0
-545 -761 0
-599 -653 0
-599 -707 0
-599 -761 0
-653 -707 0
-653 -761 0
-707 -761 0
-6 -60 0
-6 -114 0
-6 -168 0
-6 -222 0
-6 -276 0
-6 -330 0
-6 -384 0
-6 -438 0
-6 -492 0
-6 -546 0
-6 -600 0
-6 -654 0
-6 -708 0
-6 -762 0
-60 -114 0
-60 -168 0
-60 -222 0
-60 -276 0
-60 -330 0
-60 -384 0
-60 -438 0
-60 -492 0
-60 -546 0
-60 -600 0
-60 -654 0
-60 -708 0
-60 -762 0
-114 -168 0
-114 -222 0
-114 -276 0
-114 -330 0
-114 -384 0
-114 -438 0
-114 -492 0
-114 -546 0
-114 -600 0
-114 -654 0
-114 -708 0
-114 -762 0
-168 -222 0
-168 -276 0
-168 -330 0
-168 -384 0
-168 -438 0
-168 -492 0
-168 -546 0
-168 -600 0
-168 -654 0
-168 -708 0
-168 -762 0
-222 -276 0
-222 -330 0
-222 -384 0
-222 -438 0
-222 -492 0
-222 -546 0
-222 -600 0
-222 -654 0
-222 -708 0
-222 -762 0
-276 -330 0
-276 -384 0
-276 -438 0
-276 -492 0
-276 -546 0
-276 -600 0
-276 -654 0
-276 -708 0
-276 -762 0
-330 -384 0
-330 -438 0
-330 -492 0
-330 -546 0
-330 -600 0
-330 -654 0
-330 -708 0
-330 -762 0
-384 -438 0
-384 -492 0
-384 -546 0
-384 -600 0
-384 -654 0
-384 -708 0
-384 -762 0
-438 -492 0
-438 -546 0
-438 -600 0
-438 -654 0
-438 -708 0
-438 -762 0
-492 -546 0
-492 -600 0
-492 -654 0
-492 -708 0
-492 -762 0
-546 -600 0
-546 -654 0
-546 -708 0
-546 -762 0
-600 -654 0
-600 -708 0
-600 -762 0
-654 -708 0
-654 -762 0
-708 -762 0
-7 -61 0
-7 -115 0
-7 -169 0
-7 -223 0
-7 -277 0
-7 -331 0
-7 -385 0
-7 -439 0
-7 -493 0
-7 -547 0
-7 -601 0
-7 -655 0
-7 -709 0
-7 -763 0
-61 -115 0
-61 -169 0
-61 -223 0
-61 -277 0
-61 -331 0
-61 -385 0
-61 -439 0
-61 -493 0
-61 -547 0
-61 -601 0
-61 -655 0
-61 -709 0
-61 -763 0
-115 -169 0
-115 -223 0
-115 -277 0
-115 -331 0
-115 -385 0
-115 -439 0
-115 -493 0
-115 -547 0
-115 -601 0
-115 -655 0
-115 -709 0
-115 -763 0
-169 -223 0
-169 -277 0
-169 -331 0
-169 -385 0
-169 -439 0
-169 -493 0
-169 -547 0
-169 -601 0
-169 -655 0
-169 -709 0
-169 -763 0
-223 -277 0
-223 -331 0
-223 -385 0
-223 -439 0
-223 -493 0
-223 -547 0
-223 -601 0
-223 -655 0
-223 -709 0
-223 -763 0
-277 -331 0
-277 -385 0
-277 -439 0
-277 -493 0
-277 -547 0
-277 -601 0
-277 -655 0
-277 -709 0
-277 -763 0
-331 -385 0
-331 -439 0
-331 -493 0
-331 -547 0
-331 -601 0
-331 -655 0
-331 -709 0
-331 -763 0
-385 -439 0
-385 -493 0
-385 -547 0
-385 -601 0
-385 -655 0
-385 -709 0
-385 -763 0
-439 -493 0
-439 -547 0
-439 -601 0
-439 -655 0
-439 -709 0
-439 -763 0
-493 -547 0
-493 -601 0
-493 -655 0
-493 -709 0
-493 -763 0
-547 -601 0
-547 -655 0
-547 -709 0
-547 -763 0
-601 -655 0
-601 -709 0
-601 -763 0
-655 -709 0
-655 -763 0
-709 -763 0
-8 -62 0
-8 -116 0
-8 -170 0
-8 -224 0
-8 -278 0
-8 -332 0
-8 -386 0
-8 -440 0
-8 -494 0
-8 -548 0
-8 -602 0
-8 -656 0
-8 -710 0
-8 -764 0
-62 -116 0
-62 -170 0
-62 -224 0
-62 -278 0
-62 -332 0
-62 -386 0
-62 -440 0
-62 -494 0
-62 -548 0
-62 -602 0
-62 -656 0
-62 -710 0
-62 -764 0
-116 -170 0
-116 -224 0
-116 -278 0
-116 -332 0
-116 -386 0
-116 -440 0
-116 -494 0
-116 -548 0
-116 -602 0
-116 -656 0
-116 -710 0
-116 -764 0
-170 -224 0
-170 -278 0
-170 -332 0
-170 -386 0
-170 -440 0
-170 -494 0
-170 -548 0
-170 -602 0
-170 -656 0
-170 -710 0
-170 -764 0
-224 -278 0
-224 -332 0
-224 -386 0
-224 -440 0
-224 -494 0
-224 -548 0
-224 -602 0
-224 -656 0
-224 -710 0
-224 -764 0
-278 -332 0
-278 -386 0
-278 -440 0
-278 -494 0
-278 -548 0
-278 -602 0
-278 -656 0
-278 -710 0
-278 -764 0
-332 -386 0
-332 -440 0
-332 -494 0
-332 -548 0
-332 -602 0
-332 -656 0
-332 -710 0
-332 -764 0
-386 -440 0
-386 -494 0
-386 -548 0
-386 -602 0
-386 -656 0
-386 -710 0
-386 -764 0
-440 -494 0
-440 -548 0
-440 -602 0
-440 -656 0
-440 -710 0
-440 -764 0
-494 -548 0
-494 -602 0
-494 -656 0
-494 -710 0
-494 -764 0
-548 -602 0
-548 -656 0
-548 -710 0
-548 -764 0
-602 -656 0
-602 -710 0
-602 -764 0
-656 -710 0
-656 -764 0
-710 -764 0
-9 -63 0
-9 -117 0
-9 -171 0
-9 -225 0
-9 -279 0
-9 -333 0
-9 -387 0
-9 -441 0
-9 -495 0
-9 -549 0
-9 -603 0
-9 -657 0
-9 -711 0
-9 -765 0
-63 -117 0
-63 -171 0
-63 -225 0
-63 -279 0
-63 -333 0
-63 -387 0
-63 -441 0
-63 -495 0
-63 -549 0
-63 -603 0
-63 -657 0
-63 -711 0
-63 -765 0
-117 -171 0
-117 -225 0
-117 -279 0
-117 -333 0
-117 -387 0
-117 -441 0
-117 -495 0
-117 -549 0
-117 -603 0
-117 -657 0
-117 -711 0
-117 -765 0
-171 -225 0
-171 -279 0
-171 -333 0
-171 -387 0
-171 -441 0
-171 -495 0
-171 -549 0
-171 -603 0
-171 -657 0
-171 -711 0
-171 -765 0
-225 -279 0
-225 -333 0
-225 -387 0
-225 -441 0
-225 -495 0
-225 -549 0
-225 -603 0
-225 -657 0
-225 -711 0
-225 -765 0
-279 -333 0
-279 -387 0
-279 -441 0
-279 -495 0
-279 -549 0
-279 -603 0
-279 -657 0
-279 -711 0
-279 -765 0
-333 -387 0
-333 -441 0
-333 -495 0
-333 -549 0
-333 -603 0
-333 -657 0
-333 -711 0
-333 -765 0
-387 -441 0
-387 -495 0
-387 -549 0
-387 -603 0
-387 -657 0
-387 -711 0
-387 -765 0
-441 -495 0
-441 -549 0
-441 -603 0
-441 -657 0
-441 -711 0
-441 -765 0
-495 -549 0
-495 -603 0
-495 -657 0
-495 -711 0
-495 -765 0
-549 -603 0
-549 -657 0
-549 -711 0
-549 -765 0
-603 -657 0
-603 -711 0
-603 -765 0
-657 -711 0
-657 -765 0
-711 -765 0
-10 -64 0
-10 -118 0
-10 -172 0
-10 -226 0
-10 -280 0
-10 -334 0
-10 -388 0
-10 -442 0
-10 -496 0
-10 -550 0
-10 -604 0
-10 -658 0
-10 -712 0
-10 -766 0
-64 -118 0
-64 -172 0
-64 -226 0
-64 -280 0
-64 -334 0
-64 -388 0
-64 -442 0
-64 -496 0
-64 -550 0
-64 -604 0
-64 -658 0
-64 -712 0
-64 -766 0
-118 -172 0
-118 -226 0
-118 -280 0
-118 -334 0
-118 -388 0
-118 -442 0
-118 -496 0
-118 -550 0
-118 -604 0
-118 -658 0
-118 -712 0
-118 -766 0
-172 -226 0
-172 -280 0
-172 -334 0
-172 -388 0
-172 -442 0
-172 -496 0
-172 -550 0
-172 -604 0
-172 -658 0
-172 -712 0
-172 -766 0
-226 -280 0
-226 -334 0
-226 -388 0
-226 -442 0
-226 -496 0
-226 -550 0
-226 -604 0
-226 -658 0
-226 -712 0
-226 -766 0
-280 -334 0
-280 -388 0
-280 -442 0
-280 -496 0
-280 -550 0
-280 -604 0
-280 -658 0
-280 -712 0
-280 -766 0
-334 -388 0
-334 -442 0
-334 -496 0
-334 -550 0
-334 -604 0
-334 -658 0
-334 -712 0
-334 -766 0
-388 -442 0
-388 -496 0
-388 -550 0
-388 -604 0
-388 -658 0
-388 -712 0
-388 -766 0
-442 -496 0
-442 -550 0
-442 -604 0
-442 -658 0
-442 -712 0
-442 -766 0
-496 -550 0
-496 -604 0
-496 -658 0
-496 -712 0
-496 -766 0
-550 -604 0
-550 -658 0
-550 -712 0
-550 -766 0
-604 -658 0
-604 -712 0
-604 -766 0
-658 -712 0
-658 -766 0
-712 -766 0
-11 -65 0
-11 -119 0
-11 -173 0
-11 -227 0
-11 -281 0
-11 -335 0
-11 -389 0
-11 -443 0
-11 -497 0
-11 -551 0
-11 -605 0
-11 -659 0
-11 -713 0
-11 -767 0
-65 -119 0
-65 -173 0
-65 -227 0
-65 -281 0
-65 -335 0
-65 -389 0
-65 -443 0
-65 -497 0
-65 -551 0
-65 -605 0
-65 -659 0
-65 -713 0
-65 -767 0
-119 -173 0
-119 -227 0
-119 -281 0
-119 -335 0
-119 -389 0
-119 -443 0
-119 -497 0
-119 -551 0
-119 -605 0
-119 -659 0
-119 -713 0
-119 -767 0
-173 -227 0
-173 -281 0
-173 -335 0
-173 -389 0
-173 -443 0
-173 -497 0
-173 -551 0
-173 -605 0
-173 -659 0
-173 -713 0
-173 -767 0
-227 -281 0
-227 -335 0
-227 -389 0
-227 -443 0
-227 -497 0
-227 -551 0
-227 -605 0
-227 -659 0
-227 -713 0
-227 -767 0
-281 -335 0
-281 -389 0
-281 -443 0
-281 -497 0
-281 -551 0
-281 -605 0
-281 -659 0
-281 -713 0
-281 -767 0
-335 -389 0
-335 -443 0
-335 -497 0
-335 -551 0
-335 -605 0
-335 -659 0
-335 -713 0
-335 -767 0
-389 -443 0
-389 -497 0
-389 -551 0
-389 -605 0
-389 -659 0
-389 -713 0
-389 -767 0
-443 -497 0
-443 -551 0
-443 -605 0
-443 -659 0
-443 -713 0
-443 -767 0
-497 -551 0
-497 -605 0
-497 -659 0
-497 -713 0
-497 -767 0
-551 -605 0
-551 -659 0
-551 -713 0
-551 -767 0
-605 -659 0
-605 -713 0
-605 -767 0
-659 -713 0
-659 -767 0
-713 -767 0
-12 -66 0
-12 -120 0
-12 -174 0
-12 -228 0
-12 -282 0
-12 -336 0
-12 -390 0
-12 -444 0
-12 -498 0
-12 -552 0
-12 -606 0
-12 -660 0
-12 -714 0
-12 -768 0
-66 -120 0
-66 -174 0
-66 -228 0
-66 -282 0
-66 -336 0
-66 -390 0
-66 -444 0
-66 -498 0
-66 -552 0
-66 -606 0
-66 -660 0
-66 -714 0
-66 -768 0
-120 -174 0
-120 -228 0
-120 -282 0
-120 -336 0
-120 -390 0
-120 -444 0
-120 -498 0
-120 -552 0
-120 -606 0
-120 -660 0
-120 -714 0
-120 -768 0
-174 -228 0
-174 -282 0
-174 -336 0
-174 -390 0
-174 -444 0
-174 -498 0
-174 -552 0
-174 -606 0
-174 -660 0
-174 -714 0
-174 -768 0
-228 -282 0
-228 -336 0
-228 -390 0
-228 -444 0
-228 -498 0
-228 -552 0
-228 -606 0
-228 -660 0
-228 -714 0
-228 -768 0
-282 -336 0
-282 -390 0
-282 -444 0
-282 -498 0
-282 -552 0
-282 -606 0
-282 -660 0
-282 -714 0
-282 -768 0
-336 -390 0
-336 -444 0
-336 -498 0
-336 -552 0
-336 -606 0
-336 -660 0
-336 -714 0
-336 -768 0
-390 -444 0
-390 -498 0
-390 -552 0
-390 -606 0
-390 -660 0
-390 -714 0
-390 -768 0
-444 -498 0
-444 -552 0
-444 -606 0
-444 -660 0
-444 -714 0
-444 -768 0
-498 -552 0
-498 -606 0
-498 -660 0
-498 -714 0
-498 -768 0
-552 -606 0
-552 -660 0
-552 -714 0
-552 -768 0
-606 -660 0
-606 -714 0
-606 -768 0
-660 -714 0
-660 -768 0
-714 -768 0
-13 -67 0
-13 -121 0
-13 -175 0
-13 -229 0
-13 -283 0
-13 -337 0
-13 -391 0
-13 -445 0
-13 -499 0
-13 -553 0
-13 -607 0
-13 -661 0
-13 -715 0
-13 -769 0
-67 -121 0
-67 -175 0
-67 -229 0
-67 -283 0
-67 -337 0
-67 -391 0
-67 -445 0
-67 -499 0
-67 -553 0
-67 -607 0
-67 -661 0
-67 -715 0
-67 -769 0
-121 -175 0
-121 -229 0
-121 -283 0
-121 -337 0
-121 -391 0
-121 -445 0
-121 -499 0
-121 -553 0
-121 -607 0
-121 -661 0
-121 -715 0
-121 -769 0
-175 -229 0
-175 -283 0
-175 -337 0
-175 -391 0
-175 -445 0
-175 -499 0
-175 -553 0
-175 -607 0
-175 -661 0
-175 -715 0
-175 -769 0
-229 -283 0
-229 -337 0
-229 -391 0
-229 -445 0
-229 -499 0
-229 -553 0
-229 -607 0
-229 -661 0
-229 -715 0
-229 -769 0
-283 -337 0
-283 -391 0
-283 -445 0
-283 -499 0
-283 -553 0
-283 -607 0
-283 -661 0
-283 -715 0
-283 -769 0
-337 -391 0
-337 -445 0
-337 -499 0
-337 -553 0
-337 -607 0
-337 -661 0
-337 -715 0
-337 -769 0
-391 -445 0
-391 -499 0
-391 -553 0
-391 -607 0
-391 -661 0
-391 -715 0
-391 -769 0
-445 -499 0
-445 -553 0
-445 -607 0
-445 -661 0
-445 -715 0
-445 -769 0
-499 -553 0
-499 -607 0
-499 -661 0
-499 -715 0
-499 -769 0
-553 -607 0
-553 -661 0
-553 -715 0
-553 -769 0
-607 -661 0
-607 -715 0
-607 -769 0
-661 -715 0
-661 -769 0
-715 -769 0
-14 -68 0
-14 -122 0
-14 -176 0
-14 -230 0
-14 -284 0
-14 -338 0
-14 -392 0
-14 -446 0
-14 -500 0
-14 -554 0
-14 -608 0
-14 -662 0
-14 -716 0
-14 -770 0
-68 -122 0
-68 -176 0
-68 -230 0
-68 -284 0
-68 -338 0
-68 -392 0
-68 -446 0
-68 -500 0
-68 -554 0
-68 -608 0
-68 -662 0
-68 -716 0
-68 -770 0
-122 -176 0
-122 -230 0
-122 -284 0
-122 -338 0
-122 -392 0
-122 -446 0
-122 -500 0
-122 -554 0
-122 -608 0
-122 -662 0
-122 -716 0
-122 -770 0
-176 -230 0
-176 -284 0
-176 -338 0
-176 -392 0
-176 -446 0
-176 -500 0
-176 -554 0
-176 -608 0
-176 -662 0
-176 -716 0
-176 -770 0
-230 -284 0
-230 -338 0
-230 -392 0
-230 -446 0
-230 -500 0
-230 -554 0
-230 -608 0
-230 -662 0
-230 -716 0
-230 -770 0
-284 -338 0
-284 -392 0
-284 -446 0
-284 -500 0
-284 -554 0
-284 -608 0
-284 -662 0
-284 -716 0
-284 -770 0
-338 -392 0
-338 -446 0
-338 -500 0
-338 -554 0
-338 -608 0
-338 -662 0
-338 -716 0
-338 -770 0
-392 -446 0
-392 -500 0
-392 -554 0
-392 -608 0
-392 -662 0
-392 -716 0
-392 -770 0
-446 -500 0
-446 -554 0
-446 -608 0
-446 -662 0
-446 -716 0
-446 -770 0
-500 -554 0
-500 -608 0
-500 -662 0
-500 -716 0
-500 -770 0
-554 -608 0
-554 -662 0
-554 -716 0
-554 -770 0
-608 -662 0
-608 -716 0
-608 -770 0
-662 -716 0
-662 -770 0
-716 -770 0
-15 -69 0
-15 -123 0
-15 -177 0
-15 -231 0
-15 -285 0
-15 -339 0
-15 -393 0
-15 -447 0
-15 -501 0
-15 -555 0
-15 -609 0
-15 -663 0
-15 -717 0
-15 -771 0
-69 -123 0
-69 -177 0
-69 -231 0
-69 -285 0
-69 -339 0
-69 -393 0
-69 -447 0
-69 -501 0
-69 -555 0
-69 -609 0
-69 -663 0
-69 -717 0
-69 -771 0
-123 -177 0
-123 -231 0
-123 -285 0
-123 -339 0
-123 -393 0
-123 -447 0
-123 -501 0
-123 -555 0
-123 -609 0
-123 -663 0
-123 -717 0
-123 -771 0
-177 -231 0
-177 -285 0
-177 -339 0
-177 -393 0
-177 -447 0
-177 -501 0
-177 -555 0
-177 -609 0
-177 -663 0
-177 -717 0
-177 -771 0
-231 -285 0
-231 -339 0
-231 -393 0
-231 -447 0
-231 -501 0
-231 -555 0
-231 -609 0
-231 -663 0
-231 -717 0
-231 -771 0
-285 -339 0
-285 -393 0
-285 -447 0
-285 -501 0
-285 -555 0
-285 -609 0
-285 -663 0
-285 -717 0
-285 -771 0
-339 -393 0
-339 -447 0
-339 -501 0
-339 -555 0
-339 -609 0
-339 -663 0
-339 -717 0
-339 -771 0
-393 -447 0
-393 -501 0
-393 -555 0
-393 -609 0
-393 -663 0
-393 -717 0
-393 -771 0
-447 -501 0
-447 -555 0
-447 -609 0
-447 -663 0
-447 -717 0
-447 -771 0
-501 -555 0
-501 -609 0
-501 -663 0
-501 -717 0
-501 -771 0
-555 -609 0
-555 -663 0
-555 -717 0
-555 -771 0
-609 -663 0
-609 -717 0
-609 -771 0
-663 -717 0
-663 -771 0
-717 -771 0
-16 -70 0
-16 -124 0
-16 -178 0
-16 -232 0
-16 -286 0
-16 -340 0
-16 -394 0
-16 -448 0
-16 -502 0
-16 -556 0
-16 -610 0
-16 -664 0
-16 -718 0
-16 -772 0
-70 -124 0
-70 -178 0
-70 -232 0
-70 -286 0
-70 -340 0
-70 -394 0
-70 -448 0
-70 -502 0
-70 -556 0
-70 -610 0
-70 -664 0
-70 -718 0
-70 -772 0
-124 -178 0
-124 -232 0
-124 -286 0
-124 -340 0
-124 -394 0
-124 -448 0
-124 -502 0
-124 -556 0
-124 -610 0
-124 -664 0
-124 -718 0
-124 -772 0
-178 -232 0
-178 -286 0
-178 -340 0
-178 -394 0
-178 -448 0
-178 -502 0
-178 -556 0
-178 -610 0
-178 -664 0
-178 -718 0
-178 -772 0
-232 -286 0
-232 -340 0
-232 -394 0
-232 -448 0
-232 -502 0
-232 -556 0
-232 -610 0
-232 -664 0
-232 -718 0
-232 -772 0
-286 -340 0
-286 -394 0
-286 -448 0
-286 -502 0
-286 -556 0
-286 -610 0
-286 -664 0
-286 -718 0
-286 -772 0
-340 -394 0
-340 -448 0
-340 -502 0
-340 -556 0
-340 -610 0
-340 -664 0
-340 -718 0
-340 -772 0
-394 -448 0
-394 -502 0
-394 -556 0
-394 -610 0
-394 -664 0
-394 -718 0
-394 -772 0
-448 -502 0
-448 -556 0
-448 -610 0
-448 -664 0
-448 -718 0
-448 -772 0
-502 -556 0
-502 -610 0
-502 -664 0
-502 -718 0
-502 -772 0
-556 -610 0
-556 -664 0
-556 -718 0
-556 -772 0
-610 -664 0
-610 -718 0
-610 -772 0
-664 -718 0
-664 -772 0
-718 -772 0
-17 -71 0
-17 -125 0
-17 -179 0
-17 -233 0
-17 -287 0
-17 -341 0
-17 -395 0
-17 -449 0
-17 -503 0
-17 -557 0
-17 -611 0
-17 -665 0
-17 -719 0
-17 -773 0
-71 -125 0
-71 -179 0
-71 -233 0
-71 -287 0
-71 -341 0
-71 -395 0
-71 -449 0
-71 -503 0
-71 -557 0
-71 -611 0
-71 -665 0
-71 -719 0
-71 -773 0
-125 -179 0
-125 -233 0
-125 -287 0
-125 -341 0
-125 -395 0
-125 -449 0
-125 -503 0
-125 -557 0
-125 -611 0
-125 -665 0
-125 -719 0
-125 -773 0
-179 -233 0
-179 -287 0
-179 -341 0
-179 -395 0
-179 -449 0
-179 -503 0
-179 -557 0
-179 -611 0
-179 -665 0
-179 -719 0
-179 -773 0
-233 -287 0
-233 -341 0
-233 -395 0
-233 -449 0
-233 -503 0
-233 -557 0
-233 -611 0
-233 -665 0
-233 -719 0
-233 -773 0
-287 -341 0
-287 -395 0
-287 -449 0
-287 -503 0
-287 -557 0
-287 -611 0
-287 -665 0
-287 -719 0
-287 -773 0
-341 -395 0
-341 -449 0
-341 -503 0
-341 -557 0
-341 -611 0
-341 -665 0
-341 -719 0
-341 -773 0
-395 -449 0
-395 -503 0
-395 -557 0
-395 -611 0
-395 -665 0
-395 -719 0
-395 -773 0
-449 -503 0
-449 -557 0
-449 -611 0
-449 -665 0
-449 -719 0
-449 -773 0
-503 -557 0
-503 -611 0
-503 -665 0
-503 -719 0
-503 -773 0
-557 -611 0
-557 -665 0
-557 -719 0
-557 -773 0
-611 -665 0
-611 -719 0
-611 -773 0
-665 -719 0
-665 -773 0
-719 -773 0
-18 -72 0
-18 -126 0
-18 -180 0
-18 -234 0
-18 -288 0
-18 -342 0
-18 -396 0
-18 -450 0
-18 -504 0
-18 -558 0
-18 -612 0
-18 -666 0
-18 -720 0
-18 -774 0
-72 -126 0
-72 -180 0
-72 -234 0
-72 -288 0
-72 -342 0
-72 -396 0
-72 -450 0
-72 -504 0
-72 -558 0
-72 -612 0
-72 -666 0
-72 -720 0
-72 -774 0
-126 -180 0
-126 -234 0
-126 -288 0
-126 -342 0
-126 -396 0
-126 -450 0
-126 -504 0
-126 -558 0
-126 -612 0
-126 -666 0
-126 -720 0
-126 -774 0
-180 -234 0
-180 -288 0
-180 -342 0
-180 -396 0
-180 -450 0
-180 -504 0
-180 -558 0
-180 -612 0
-180 -666 0
-180 -720 0
-180 -774 0
-234 -288 0
-234 -342 0
-234 -396 0
-234 -450 0
-234 -504 0
-234 -558 0
-234 -612 0
-234 -666 0
-234 -720 0
-234 -774 0
-288 -342 0
-288 -396 0
-288 -450 0
-288 -504 0
-288 -558 0
-288 -612 0
-288 -666 0
-288 -720 0
-288 -774 0
-342 -396 0
-342 -450 0
-342 -504 0
-342 -558 0
-342 -612 0
-342 -666 0
-342 -720 0
-342 -774 0
-396 -450 0
-396 -504 0
-396 -558 0
-396 -612 0
-396 -666 0
-396 -720 0
-396 -774 0
-450 -504 0
-450 -558 0
-450 -612 0
-450 -666 0
-450 -720 0
-450 -774 0
-504 -558 0
-504 -612 0
-504 -666 0
-504 -720 0
-504 -774 0
-558 -612 0
-558 -666 0
-558 -720 0
-558 -774 0
-612 -666 0
-612 -720 0
-612 -774 0
-666 -720 0
-666 -774 0
-720 -774 0
811 812 813 814 0
-811 -812 0
-811 -813 0
-811 -814 0
-812 -813 0
-812 -814 0
-813 -814 0
-1 811 0
-2 811 812 0
-3 811 812 813 0
-4 811 812 813 814 0
-5 811 812 813 814 0
-6 811 812 813 814 0
-7 811 812 813 814 0
-8 811 812 813 814 0
-9 811 812 813 814 0
-10 811 812 813 814 0
-11 811 812 813 814 0
-12 811 812 813 814 0
-13 811 812 813 814 0
-14 811 812 813 814 0
-15 811 812 813 814 0
-16 812 813 814 0
-17 813 814 0
-18 814 0
-55 811 0
-56 811 812 0
-57 811 812 813 0
-58 811 812 813 814 0
-59 811 812 813 814 0
-60 811 812 813 814 0
-61 811 812 813 814 0
-62 811 812 813 814 0
-63 811 812 813 814 0
-64 811 812 813 814 0
-65 811 812 813 814 0
-66 811 812 813 814 0
-67 811 812 813 814 0
-68 811 812 813 814 0
-69 811 812 813 814 0
-70 812 813 814 0
-71 813 814 0
-72 814 0
-109 811 0
-110 811 812 0
-111 811 812 813 0
-112 811 812 813 814 0
-113 811 812 813 814 0
-114 811 812 813 814 0
-115 811 812 813 814 0
-116 811 812 813 814 0
-117 811 812 813 814 0
-118 811 812 813 814 0
-119 811 812 813 814 0
-120 811 812 813 814 0
-121 811 812 813 814 0
-122 811 812 813 814 0
-123 811 812 813 814 0
-124 812 813 814 0
-125 813 814 0
-126 814 0
-163 811 0
-164 811 812 0
-165 811 812 813 0
-166 811 812 813 814 0
-167 811 812 813 814 0
-168 811 812 813 814 0
-169 811 812 813 814 0
-170 811 812 813 814 0
-171 811 812 813 814 0
-172 811 812 813 814 0
-173 811 812 813 814 0
-174 811 812 813 814 0
-175 811 812 813 814 0
-176 811 812 813 814 0
-177 811 812 813 814 0
-178 812 813 814 0
-179 813 814 0
-180 814 0
-217 811 0
-218 811 812 0
-219 811 812 813 0
-220 811 812 813 814 0
-221 811 812 813 814 0
-222 811 812 813 814 0
-223 811 812 813 814 0
-224 811 812 813 814 0
-225 811 812 813 814 0
-226 811 812 813 814 0
-227 811 812 813 814 0
-228 811 812 813 814 0
-229 811 812 813 814 0
-230 811 812 813 814 0
-231 811 812 813 814 0
-232 812 813 814 0
-233 813 814 0
-234 814 0
-271 811 0
-272 811 812 0
-273 811 812 813 0
-274 811 812 813 814 0
-275 811 812 813 814 0
-276 811 812 813 814 0
-277 811 812 813 814 0
-278 811 812 813 814 0
-279 811 812 813 814 0
-280 811 812 813 814 0
-281 811 812 813 814 0
-282 811 812 813 814 0
-283 811 812 813 814 0
-284 811 812 813 814 0
-285 811 812 813 814 0
-286 812 813 814 0
-287 813 814 0
-288 814 0
-325 811 0
-326 811 812 0
-327 811 812 813 0
-328 811 812 813 814 0
-329 811 812 813 814 0
-330 811 812 813 814 0
-331 811 812 813 814 0
-332 811 812 813 814 0
-333 811 812 813 814 0
-334 811 812 813 814 0
-335 811 812 813 814 0
-336 811 812 813 814 0
-337 811 812 813 814 0
-338 811 812 813 814 0
-339 811 812 813 814 0
-340 812 813 814 0
-341 813 814 0
-342 814 0
-379 811 0
-380 811 812 0
-381 811 812 813 0
-382 811 812 813 814 0
-383 811 812 813 814 0
-384 811 812 813 814 0
-385 811 812 813 814 0
-386 811 812 813 814 0
-387 811 812 813 814 0
-388 811 812 813 814 0
-389 811 812 813 814 0
-390 811 812 813 814 0
-391 811 812 813 814 0
-392 811 812 813 814 0
-393 811 812 813 814 0
-394 812 813 814 0
-395 813 814 0
-396 814 0
-433 811 0
-434 811 812 0
-435 811 812 813 0
-436 811 812 813 814 0
-437 811 812 813 814 0
-438 811 812 813 814 0
-439 811 812 813 814 0
-440 811 812 813 814 0
-441 811 812 813 814 0
-442 811 812 813 814 0
-443 811 812 813 814 0
-444 811 812 813 814 0
-445 811 812 813 814 0
-446 811 812 813 814 0
-447 811 812 813 814 0
-448 812 813 814 0
-449 813 814 0
-450 814 0
-487 811 0
-488 811 812 0
-489 811 812 813 0
-490 811 812 813 814 0
-491 811 812 813 814 0
-492 811 812 813 814 0
-493 811 812 813 814 0
-494 811 812 813 814 0
-495 811 812 813 814 0
-496 811 812 813 814 0
-497 811 812 813 814 0
-498 811 812 813 814 0
-499 811 812 813 814 0
-500 811 812 813 814 0
-501 811 812 813 814 0
-502 812 813 814 0
-503 813 814 0
-504 814 0
-541 811 0
-542 811 812 0
-543 811 812 813 0
-544 811 812 813 814 0
-545 811 812 813 814 0
-546 811 812 813 814 0
-547 811 812 813 814 0
-548 811 812 813 814 0
-549 811 812 813 814 0
-550 811 812 813 814 0
-551 811 812 813 814 0
-552 811 812 813 814 0
-553 811 812 813 814 0
-554 811 812 813 814 0
-555 811 812 813 814 0
-556 812 813 814 0
-557 813 814 0
-558 814 0
-595 811 0
-596 811 812 0
-597 811 812 813 0
-598 811 812 813 814 0
-599 811 812 813 814 0
-600 811 812 813 814 0
-601 811 812 813 814 0
-602 811 812 813 814 0
-603 811 812 813 814 0
-604 811 812 813 814 0
-605 811 812 813 814 0
-606 811 812 813 814 0
-607 811 812 813 814 0
-608 811 812 813 814 0
-609 811 812 813 814 0
-610 812 813 814 0
-611 813 814 0
-612 814 0
-649 811 0
-650 811 812 0
-651 811 812 813 0
-652 811 812 813 814 0
-653 811 812 813 814 0
-654 811 812 813 814 0
-655 811 812 813 814 0
-656 811 812 813 814 0
-657 811 812 813 814 0
-658 811 812 813 814 0
-659 811 812 813 814 0
-660 811 812 813 814 0
-661 811 812 813 814 0
-662 811 812 813 814 0
-663 811 812 813 814 0
-664 812 813 814 0
-665 813 814 0
-666 814 0
-703 811 0
-704 811 812 0
-705 811 812 813 0
-706 811 812 813 814 0
-707 811 812 813 814 0
-708 811 812 813 814 0
-709 811 812 813 814 0
-710 811 812 813 814 0
-711 811 812 813 814 0
-712 811 812 813 814 0
-713 811 812 813 814 0
-714 811 812 813 814 0
-715 811 812 813 814 0
-716 811 812 813 814 0
-717 811 812 813 814 0
-718 812 813 814 0
-719 813 814 0
-720 814 0
-757 811 0
-758 811 812 0
-759 811 812 813 0
-760 811 812 813 814 0
-761 811 812 813 814 0
-762 811 812 813 814 0
-763 811 812 813 814 0
-764 811 812 813 814 0
-765 811 812 813 814 0
-766 811 812 813 814 0
-767 811 812 813 814 0
-768 811 812 813 814 0
-769 811 812 813 814 0
-770 811 812 813 814 0
-771 811 812 813 814 0
-772 812 813 814 0
-773 813 814 0
-774 814 0
-811 -16 0
-811 -17 0
-811 -18 0
-811 -70 0
-811 -71 0
-811 -72 0
-811 -124 0
-811 -125 0
-811 -126 0
-811 -178 0
-811 -179 0
-811 -180 0
-811 -232 0
-811 -233 0
-811 -234 0
-811 -286 0
-811 -287 0
-811 -288 0
-811 -340 0
-811 -341 0
-811 -342 0
-811 -394 0
-811 -395 0
-811 -396 0
-811 -448 0
-811 -449 0
-811 -450 0
-811 -502 0
-811 -503 0
-811 -504 0
-811 -556 0
-811 -557 0
-811 -558 0
-811 -610 0
-811 -611 0
-811 -612 0
-811 -664 0
-811 -665 0
-811 -666 0
-811 -718 0
-811 -719 0
-811 -720 0
-811 -772 0
-811 -773 0
-811 -774 0
-812 -1 0
-812 -17 0
-812 -18 0
-812 -55 0
-812 -71 0
-812 -72 0
-812 -109 0
-812 -125 0
-812 -126 0
-812 -163 0
-812 -179 0
-812 -180 0
-812 -217 0
-812 -233 0
-812 -234 0
-812 -271 0
-812 -287 0
-812 -288 0
-812 -325 0
-812 -341 0
-812 -342 0
-812 -379 0
-812 -395 0
-812 -396 0
-812 -433 0
-812 -449 0
-812 -450 0
-812 -487 0
-812 -503 0
-812 -504 0
-812 -541 0
-812 -557 0
-812 -558 0
-812 -595 0
-812 -611 0
-812 -612 0
-812 -649 0
-812 -665 0
-812 -666 0
-812 -703 0
-812 -719 0
-812 -720 0
-812 -757 0
-812 -773 0
-812 -774 0
-813 -1 0
-813 -2 0
-813 -18 0
-813 -55 0
-813 -56 0
-813 -72 0
-813 -109 0
-813 -110 0
-813 -126 0
-813 -163 0
-813 -164 0
-813 -180 0
-813 -217 0
-813 -218 0
-813 -234 0
-813 -271 0
-813 -272 0
-813 -288 0
-813 -325 0
-813 -326 0
-813 -342 0
-813 -379 0
-813 -380 0
-813 -396 0
-813 -433 0
-813 -434 0
-813 -450 0
-813 -487 0
-813 -488 0
-813 -504 0
-813 -541 0
-813 -542 0
-813 -558 0
-813 -595 0
-813 -596 0
-813 -612 0
-813 -649 0
-813 -650 0
-813 -666 0
-813 -703 0
-813 -704 0
-813 -720 0
-813 -757 0
-813 -758 0
-813 -774 0
-814 -1 0
-814 -2 0
-814 -3 0
-814 -55 0
-814 -56 0
-814 -57 0
-814 -109 0
-814 -110 0
-814 -111 0
-814 -163 0
-814 -164 0
-814 -165 0
-814 -217 0
-814 -218 0
-814 -219 0
-814 -271 0
-814 -272 0
-814 -273 0
-814 -325 0
-814 -326 0
-814 -327 0
-814 -379 0
-814 -380 0
-814 -381 0
-814 -433 0
-814 -434 0
-814 -435 0
-814 -487 0
-814 -488 0
-814 -489 0
-814 -541 0
-814 -542 0
-814 -543 0
-814 -595 0
-814 -596 0
-814 -597 0
-814 -649 0
-814 -650 0
-814 -651 0
-814 -703 0
-814 -704 0
-814 -705 0
-814 -757 0
-814 -758 0
-814 -759 0
-19 -73 0
-19 -127 0
-19 -181 0
-19 -235 0
-19 -289 0
-19 -343 0
-19 -397 0
-19 -451 0
-19 -505 0
-73 -127 0
-73 -181 0
-73 -235 0
-73 -289 0
-73 -343 0
-73 -397 0
-73 -451 0
-73 -505 0
-127 -181 0
-127 -235 0
-127 -289 0
-127 -343 0
-127 -397 0
-127 -451 0
-127 -505 0
-181 -235 0
-181 -289 0
-181 -343 0
-181 -397 0
-181 -451 0
-181 -505 0
-235 -289 0
-235 -343 0
-235 -397 0
-235 -451 0
-235 -505 0
-289 -343 0
-289 -397 0
-289 -451 0
-289 -505 0
-343 -397 0
-343 -451 0
-343 -505 0
-397 -451 0
-397 -505 0
-451 -505 0
-20 -74 0
-20 -128 0
-20 -182 0
-20 -236 0
-20 -290 0
-20 -344 0
-20 -398 0
-20 -452 0
-20 -506 0
-74 -128 0
-74 -182 0
-74 -236 0
-74 -290 0
-74 -344 0
-74 -398 0
-74 -452 0
-74 -506 0
-128 -182 0
-128 -236 0
-128 -290 0
-128 -344 0
-128 -398 0
-128 -452 0
-128 -506 0
-182 -236 0
-182 -290 0
-182 -344 0
-182 -398 0
-182 -452 0
-182 -506 0
-236 -290 0
-236 -344 0
-236 -398 0
-236 -452 0
-236 -506 0
-290 -344 0
-290 -398 0
-290 -452 0
-290 -506 0
-344 -398 0
-344 -452 0
-344 -506 0
-398 -452 0
-398 -506 0
-452 -506 0
-21 -75 0
-21 -129 0
-21 -183 0
-21 -237 0
-21 -291 0
-21 -345 0
-21 -399 0
-21 -453 0
-21 -507 0
-75 -129 0
-75 -183 0
-75 -237 0
-75 -291 0
-75 -345 0
-75 -399 0
-75 -453 0
-75 -507 0
-129 -183 0
-129 -237 0
-129 -291 0
-129 -345 0
-129 -399 0
-129 -453 0
-129 -507 0
-183 -237 0
-183 -291 0
-183 -345 0
-183 -399 0
-183 -453 0
-183 -507 0
-237 -291 0
-237 -345 0
-237 -399 0
-237 -453 0
-237 -507 0
-291 -345 0
-291 -399 0
-291 -453 0
-291 -507 0
-345 -399 0
-345 -453 0
-345 -507 0
-399 -453 0
-399 -507 0
-453 -507 0
-22 -76 0
-22 -130 0
-22 -184 0
-22 -238 0
-22 -292 0
-22 -346 0
-22 -400 0
-22 -454 0
-22 -508 0
-76 -130 0
-76 -184 0
-76 -238 0
-76 -292 0
-76 -346 0
-76 -400 0
-76 -454 0
-76 -508 0
-130 -184 0
-130 -238 0
-130 -292 0
-130 -346 0
-130 -400 0
-130 -454 0
-130 -508 0
-184 -238 0
-184 -292 0
-184 -346 0
-184 -400 0
-184 -454 0
-184 -508 0
-238 -292 0
-238 -346 0
-238 -400 0
-238 -454 0
-238 -508 0
-292 -346 0
-292 -400 0
-292 -454 0
-292 -508 0
-346 -400 0
-346 -454 0
-346 -508 0
-400 -454 0
-400 -508 0
-454 -508 0
-23 -77 0
-23 -131 0
-23 -185 0
-23 -239 0
-23 -293 0
-23 -347 0
-23 -401 0
-23 -455 0
-23 -509 0
-77 -131 0
-77 -185 0
-77 -239 0
-77 -293 0
-77 -347 0
-77 -401 0
-77 -455 0
-77 -509 0
-131 -185 0
-131 -239 0
-131 -293 0
-131 -347 0
-131 -401 0
-131 -455 0
-131 -509 0
-185 -239 0
-185 -293 0
-185 -347 0
-185 -401 0
-185 -455 0
-185 -509 0
-239 -293 0
-239 -347 0
-239 -401 0
-239 -455 0
-239 -509 0
-293 -347 0
-293 -401 0
-293 -455 0
-293 -509 0
-347 -401 0
-347 -455 0
-347 -509 0
-401 -455 0
-401 -509 0
-455 -509 0
-24 -78 0
-24 -132 0
-24 -186 0
-24 -240 0
-24 -294 0
-24 -348 0
-24 -402 0
-24 -456 0
-24 -510 0
-78 -132 0
-78 -186 0
-78 -240 0
-78 -294 0
-78 -348 0
-78 -402 0
-78 -456 0
-78 -510 0
-132 -186 0
-132 -240 0
-132 -294 0
-132 -348 0
-132 -402 0
-132 -456 0
-132 -510 0
-186 -240 0
-186 -294 0
-186 -348 0
-186 -402 0
-186 -456 0
-186 -510 0
-240 -294 0
-240 -348 0
-240 -402 0
-240 -456 0
-240 -510 0
-294 -348 0
-294 -402 0
-294 -456 0
-294 -510 0
-348 -402 0
-348 -456 0
-348 -510 0
-402 -456 0
-402 -510 0
-456 -510 0
-25 -79 0
-25 -133 0
-25 -187 0
-25 -241 0
-25 -295 0
-25 -349 0
-25 -403 0
-25 -457 0
-25 -511 0
-79 -133 0
-79 -187 0
-79 -241 0
-79 -295 0
-79 -349 0
-79 -403 0
-79 -457 0
-79 -511 0
-133 -187 0
-133 -241 0
-133 -295 0
-133 -349 0
-133 -403 0
-133 -457 0
-133 -511 0
-187 -241 0
-187 -295 0
-187 -349 0
-187 -403 0
-187 -457 0
-187 -511 0
-241 -295 0
-241 -349 0
-241 -403 0
-241 -457 0
-241 -511 0
-295 -349 0
-295 -403 0
-295 -457 0
-295 -511 0
-349 -403 0
-349 -457 0
-349 -511 0
-403 -457 0
-403 -511 0
-457 -511 0
-26 -80 0
-26 -134 0
-26 -188 0
-26 -242 0
-26 -296 0
-26 -350 0
-26 -404 0
-26 -458 0
-26 -512 0
-80 -134 0
-80 -188 0
-80 -242 0
-80 -296 0
-80 -350 0
-80 -404 0
-80 -458 0
-80 -512 0
-134 -188 0
-134 -242 0
-134 -296 0
-134 -350 0
-134 -404 0
-134 -458 0
-134 -512 0
-188 -242 0
-188 -296 0
-188 -350 0
-188 -404 0
-188 -458 0
-188 -512 0
-242 -296 0
-242 -350 0
-242 -404 0
-242 -458 0
-242 -512 0
-296 -350 0
-296 -404 0
-296 -458 0
-296 -512 0
-350 -404 0
-350 -458 0
-350 -512 0
-404 -458 0
-404 -512 0
-458 -512 0
-27 -81 0
-27 -135 0
-27 -189 0
-27 -243 0
-27 -297 0
-27 -351 0
-27 -405 0
-27 -459 0
-27 -513 0
-81 -135 0
-81 -189 0
-81 -243 0
-81 -297 0
-81 -351 0
-81 -405 0
-81 -459 0
-81 -513 0
-135 -189 0
-135 -243 0
-135 -297 0
-135 -351 0
-135 -405 0
-135 -459 0
-135 -513 0
-189 -243 0
-189 -297 0
-189 -351 0
-189 -405 0
-189 -459 0
-189 -513 0
-243 -297 0
-243 -351 0
-243 -405 0
-243 -459 0
-243 -513 0
-297 -351 0
-297 -405 0
-297 -459 0
-297 -513 0
-351 -405 0
-351 -459 0
-351 -513 0
-405 -459 0
-405 -513 0
-459 -513 0
-28 -82 0
-28 -136 0
-28 -190 0
-28 -244 0
-28 -298 0
-28 -352 0
-28 -406 0
-28 -460 0
-28 -514 0
-82 -136 0
-82 -190 0
-82 -244 0
-82 -298 0
-82 -352 0
-82 -406 0
-82 -460 0
-82 -514 0
-136 -190 0
-136 -244 0
-136 -298 0
-136 -352 0
-136 -406 0
-136 -460 0
-136 -514 0
-190 -244 0
-190 -298 0
-190 -352 0
-190 -406 0
-190 -460 0
-190 -514 0
-244 -298 0
-244 -352 0
-244 -406 0
-244 -460 0
-244 -514 0
-298 -352 0
-298 -406 0
-298 -460 0
-298 -514 0
-352 -406 0
-352 -460 0
-352 -514 0
-406 -460 0
-406 -514 0
-460 -514 0
-29 -83 0
-29 -137 0
-29 -191 0
-29 -245 0
-29 -299 0
-29 -353 0
-29 -407 0
-29 -461 0
-29 -515 0
-83 -137 0
-83 -191 0
-83 -245 0
-83 -299 0
-83 -353 0
-83 -407 0
-83 -461 0
-83 -515 0
-137 -191 0
-137 -245 0
-137 -299 0
-137 -353 0
-137 -407 0
-137 -461 0
-137 -515 0
-191 -245 0
-191 -299 0
-191 -353 0
-191 -407 0
-191 -461 0
-191 -515 0
-245 -299 0
-245 -353 0
-245 -407 0
-245 -461 0
-245 -515 0
-299 -353 0
-299 -407 0
-299 -461 0
-299 -515 0
-353 -407 0
-353 -461 0
-353 -515 0
-407 -461 0
-407 -515 0
-461 -515 0
-30 -84 0
-30 -138 0
-30 -192 0
-30 -246 0
-30 -300 0
-30 -354 0
-30 -408 0
-30 -462 0
-30 -516 0
-84 -138 0
-84 -192 0
-84 -246 0
-84 -300 0
-84 -354 0
-84 -408 0
-84 -462 0
-84 -516 0
-138 -192 0
-138 -246 0
-138 -300 0
-138 -354 0
-138 -408 0
-138 -462 0
-138 -516 0
-192 -246 0
-192 -300 0
-192 -354 0
-192 -408 0
-192 -462 0
-192 -516 0
-246 -300 0
-246 -354 0
-246 -408 0
-246 -462 0
-246 -516 0
-300 -354 0
-300 -408 0
-300 -462 0
-300 -516 0
-354 -408 0
-354 -462 0
-354 -516 0
-408 -462 0
-408 -516 0
-462 -516 0
-31 -85 0
-31 -139 0
-31 -193 0
-31 -247 0
-31 -301 0
-31 -355 0
-31 -409 0
-31 -463 0
-31 -517 0
-85 -139 0
-85 -193 0
-85 -247 0
-85 -301 0
-85 -355 0
-85 -409 0
-85 -463 0
-85 -517 0
-139 -193 0
-139 -247 0
-139 -301 0
-139 -355 0
-139 -409 0
-139 -463 0
-139 -517 0
-193 -247 0
-193 -301 0
-193 -355 0
-193 -409 0
-193 -463 0
-193 -517 0
-247 -301 0
-247 -355 0
-247 -409 0
-247 -463 0
-247 -517 0
-301 -355 0
-301 -409 0
-301 -463 0
-301 -517 0
-355 -409 0
-355 -463 0
-355 -517 0
-409 -463 0
-409 -517 0
-463 -517 0
-32 -86 0
-32 -140 0
-32 -194 0
-32 -248 0
-32 -302 0
-32 -356 0
-32 -410 0
-32 -464 0
-32 -518 0
-86 -140 0
-86 -194 0
-86 -248 0
-86 -302 0
-86 -356 0
-86 -410 0
-86 -464 0
-86 -518 0
-140 -194 0
-140 -248 0
-140 -302 0
-140 -356 0
-140 -410 0
-140 -464 0
-140 -518 0
-194 -248 0
-194 -302 0
-194 -356 0
-194 -410 0
-194 -464 0
-194 -518 0
-248 -302 0
-248 -356 0
-248 -410 0
-248 -464 0
-248 -518 0
-302 -356 0
-302 -410 0
-302 -464 0
-302 -518 0
-356 -410 0
-356 -464 0
-356 -518 0
-410 -464 0
-410 -518 0
-464 -518 0
-33 -87 0
-33 -141 0
-33 -195 0
-33 -249 0
-33 -303 0
-33 -357 0
-33 -411 0
-33 -465 0
-33 -519 0
-87 -141 0
-87 -195 0
-87 -249 0
-87 -303 0
-87 -357 0
-87 -411 0
-87 -465 0
-87 -519 0
-141 -195 0
-141 -249 0
-141 -303 0
-141 -357 0
-141 -411 0
-141 -465 0
-141 -519 0
-195 -249 0
-195 -303 0
-195 -357 0
-195 -411 0
-195 -465 0
-195 -519 0
-249 -303 0
-249 -357 0
-249 -411 0
-249 -465 0
-249 -519 0
-303 -357 0
-303 -411 0
-303 -465 0
-303 -519 0
-357 -411 0
-357 -465 0
-357 -519 0
-411 -465 0
-411 -519 0
-465 -519 0
-34 -88 0
-34 -142 0
-34 -196 0
-34 -250 0
-34 -304 0
-34 -358 0
-34 -412 0
-34 -466 0
-34 -520 0
-88 -142 0
-88 -196 0
-88 -250 0
-88 -304 0
-88 -358 0
-88 -412 0
-88 -466 0
-88 -520 0
-142 -196 0
-142 -250 0
-142 -304 0
-142 -358 0
-142 -412 0
-142 -466 0
-142 -520 0
-196 -250 0
-196 -304 0
-196 -358 0
-196 -412 0
-196 -466 0
-196 -520 0
-250 -304 0
-250 -358 0
-250 -412 0
-250 -466 0
-250 -520 0
-304 -358 0
-304 -412 0
-304 -466 0
-304 -520 0
-358 -412 0
-358 -466 0
-358 -520 0
-412 -466 0
-412 -520 0
-466 -520 0
-35 -89 0
-35 -143 0
-35 -197 0
-35 -251 0
-35 -305 0
-35 -359 0
-35 -413 0
-35 -467 0
-35 -521 0
-89 -143 0
-89 -197 0
-89 -251 0
-89 -305 0
-89 -359 0
-89 -413 0
-89 -467 0
-89 -521 0
-143 -197 0
-143 -251 0
-143 -305 0
-143 -359 0
-143 -413 0
-143 -467 0
-143 -521 0
-197 -251 0
-197 -305 0
-197 -359 0
-197 -413 0
-197 -467 0
-197 -521 0
-251 -305 0
-251 -359 0
-251 -413 0
-251 -467 0
-251 -521 0
-305 -359 0
-305 -413 0
-305 -467 0
-305 -521 0
-359 -413 0
-359 -467 0
-359 -521 0
-413 -467 0
-413 -521 0
-467 -521 0
-36 -90 0
-36 -144 0
-36 -198 0
-36 -252 0
-36 -306 0
-36 -360 0
-36 -414 0
-36 -468 0
-36 -522 0
-90 -144 0
-90 -198 0
-90 -252 0
-90 -306 0
-90 -360 0
-90 -414 0
-90 -468 0
-90 -522 0
-144 -198 0
-144 -252 0
-144 -306 0
-144 -360 0
-144 -414 0
-144 -468 0
-144 -522 0
-198 -252 0
-198 -306 0
-198 -360 0
-198 -414 0
-198 -468 0
-198 -522 0
-252 -306 0
-252 -360 0
-252 -414 0
-252 -468 0
-252 -522 0
-306 -360 0
-306 -414 0
-306 -468 0
-306 -522 0
-360 -414 0
-360 -468 0
-360 -522 0
-414 -468 0
-414 -522 0
-468 -522 0
815 816 817 818 819 820 821 822 823 0
-815 -816 0
-815 -817 0
-815 -818 0
-815 -819 0
-815 -820 0
-815 -821 0
-815 -822 0
-815 -823 0
-816 -817 0
-816 -818 0
-816 -819 0
-816 -820 0
-816 -821 0
-816 -822 0
-816 -823 0
-817 -818 0
-817 -819 0
-817 -820 0
-817 -821 0
-817 -822 0
-817 -823 0
-818 -819 0
-818 -820 0
-818 -821 0
-818 -822 0
-818 -823 0
-819 -820 0
-819 -821 0
-819 -822 0
-819 -823 0
-820 -821 0
-820 -822 0
-820 -823 0
-821 -822 0
-821 -823 0
-822 -823 0
-19 815 0
-20 815 816 0
-21 815 816 817 0
-22 815 816 817 818 0
-23 815 816 817 818 819 0
-24 815 816 817 818 819 820 0
-25 815 816 817 818 819 820 821 0
-26 815 816 817 818 819 820 821 822 0
-27 815 816 817 818 819 820 821 822 823 0
-28 815 816 817 818 819 820 821 822 823 0
-29 816 817 818 819 820 821 822 823 0
-30 817 818 819 820 821 822 823 0
-31 818 819 820 821 822 823 0
-32 819 820 821 822 823 0
-33 820 821 822 823 0
-34 821 822 823 0
-35 822 823 0
-36 823 0
-73 815 0
-74 815 816 0
-75 815 816 817 0
-76 815 816 817 818 0
-77 815 816 817 818 819 0
-78 815 816 817 818 819 820 0
-79 815 816 817 818 819 820 821 0
-80 815 816 817 818 819 820 821 822 0
-81 815 816 817 818 819 820 821 822 823 0
-82 815 816 817 818 819 820 821 822 823 0
-83 816 817 818 819 820 821 822 823 0
-84 817 818 819 820 821 822 823 0
-85 818 819 820 821 822 823 0
-86 819 820 821 822 823 0
-87 820 821 822 823 0
-88 821 822 823 0
-89 822 823 0
-90 823 0
-127 815 0
-128 815 816 0
-129 815 816 817 0
-130 815 816 817 818 0
-131 815 816 817 818 819 0
-132 815 816 817 818 819 820 0
-133 815 816 817 818 819 820 821 0
-134 815 816 817 818 819 820 821 822 0
-135 815 816 817 818 819 820 821 822 823 0
-136 815 816 817 818 819 820 821 822 823 0
-137 816 817 818 819 820 821 822 823 0
-138 817 818 819 820 821 822 823 0
-139 818 819 820 821 822 823 0
-140 819 820 821 822 823 0
-141 820 821 822 823 0
-142 821 822 823 0
-143 822 823 0
-144 823 0
-181 815 0
-182 815 816 0
-183 815 816 817 0
-184 815 816 817 818 0
-185 815 816 817 818 819 0
-186 815 816 817 818 819 820 0
-187 815 816 817 818 819 820 821 0
-188 815 816 817 818 819 820 821 822 0
-189 815 816 817 818 819 820 821 822 823 0
-190 815 816 817 818 819 820 821 822 823 0
-191 816 817 818 819 820 821 822 823 0
-192 817 818 819 820 821 822 823 0
-193 818 819 820 821 822 823 0
-194 819 820 821 822 823 0
-195 820 821 822 823 0
-196 821 822 823 0
-197 822 823 0
-198 823 0
-235 815 0
-236 815 816 0
-237 815 816 817 0
-238 815 816 817 818 0
-239 815 816 817 818 819 0
-240 815 816 817 818 819 820 0
-241 815 816 817 818 819 820 821 0
-242 815 816 817 818 819 820 821 822 0
-243 815 816 817 818 819 820 821 822 823 0
-244 815 816 817 818 819 820 821 822 823 0
-245 816 817 818 819 820 821 822 823 0
-246 817 818 819 820 821 822 823 0
-247 818 819 820 821 822 823 0
-248 819 820 821 822 823 0
-249 820 821 822 823 0
-250 821 822 823 0
-251 822 823 0
-252 823 0
-289 815 0
-290 815 816 0
-291 815 816 817 0
-292 815 816 817 818 0
-293 815 816 817 818 819 0
-294 815 816 817 818 819 820 0
-295 815 816 817 818 819 820 821 0
-296 815 816 817 818 819 820 821 822 0
-297 815 816 817 818 819 820 821 822 823 0
-298 815 816 817 818 819 820 821 822 823 0
-299 816 817 818 819 820 821 822 823 0
-300 817 818 819 820 821 822 823 0
-301 818 819 820 821 822 823 0
-302 819 820 821 822 823 0
-303 820 821 822 823 0
-304 821 822 823 0
-305 822 823 0
-306 823 0
-343 815 0
-344 815 816 0
-345 815 816 817 0
-346 815 816 817 818 0
-347 815 816 817 818 819 0
-348 815 816 817 818 819 820 0
-349 815 816 817 818 819 820 821 0
-350 815 816 817 818 819 820 821 822 0
-351 815 816 817 818 819 820 821 822 823 0
-352 815 816 817 818 819 820 821 822 823 0
-353 816 817 818 819 820 821 822 823 0
-354 817 818 819 820 821 822 823 0
-355 818 819 820 821 822 823 0
-356 819 820 821 822 823 0
-357 820 821 822 823 0
-358 821 822 823 0
-359 822 823 0
-360 823 0
-397 815 0
-398 815 816 0
-399 815 816 817 0
-400 815 816 817 818 0
-401 815 816 817 818 819 0
-402 815 816 817 818 819 820 0
-403 815 816 817 818 819 820 821 0
-404 815 816 817 818 819 820 821 822 0
-405 815 816 817 818 819 820 821 822 823 0
-406 815 816 817 818 819 820 821 822 823 0
-407 816 817 818 819 820 821 822 823 0
-408 817 818 819 820 821 822 823 0
-409 818 819 820 821 822 823 0
-410 819 820 821 822 823 0
-411 820 821 822 823 0
-412 821 822 823 0
-413 822 823 0
-414 823 0
-451 815 0
-452 815 816 0
-453 815 816 817 0
-454 815 816 817 818 0
-455 815 816 817 818 819 0
-456 815 816 817 818 819 820 0
-457 815 816 817 818 819 820 821 0
-458 815 816 817 818 819 820 821 822 0
-459 815 816 817 818 819 820 821 822 823 0
-460 815 816 817 818 819 820 821 822 823 0
-461 816 817 818 819 820 821 822 823 0
-462 817 818 819 820 821 822 823 0
-463 818 819 820 821 822 823 0
-464 819 820 821 822 823 0
-465 820 821 822 823 0
-466 821 822 823 0
-467 822 823 0
-468 823 0
-505 815 0
-506 815 816 0
-507 815 816 817 0
-508 815 816 817 818 0
-509 815 816 817 818 819 0
-510 815 816 817 818 819 820 0
-511 815 816 817 818 819 820 821 0
-512 815 816 817 818 819 820 821 822 0
-513 815 816 817 818 819 820 821 822 823 0
-514 815 816 817 818 819 820 821 822 823 0
-515 816 817 818 819 820 821 822 823 0
-516 817 818 819 820 821 822 823 0
-517 818 819 820 821 822 823 0
-518 819 820 821 822 823 0
-519 820 821 822 823 0
-520 821 822 823 0
-521 822 823 0
-522 823 0
-815 -29 0
-815 -30 0
-815 -31 0
-815 -32 0
-815 -33 0
-815 -34 0
-815 -35 0
-815 -36 0
-815 -83 0
-815 -84 0
-815 -85 0
-815 -86 0
-815 -87 0
-815 -88 0
-815 -89 0
-815 -90 0
-815 -137 0
-815 -138 0
-815 -139 0
-815 -140 0
-815 -141 0
-815 -142 0
-815 -143 0
-815 -144 0
-815 -191 0
-815 -192 0
-815 -193 0
-815 -194 0
-815 -195 0
-815 -196 0
-815 -197 0
-815 -198 0
-815 -245 0
-815 -246 0
-815 -247 0
-815 -248 0
-815 -249 0
-815 -250 0
-815 -251 0
-815 -252 0
-815 -299 0
-815 -300 0
-815 -301 0
-815 -302 0
-815 -303 0
-815 -304 0
-815 -305 0
-815 -306 0
-815 -353 0
-815 -354 0
-815 -355 0
-815 -356 0
-815 -357 0
-815 -358 0
-815 -359 0
-815 -360 0
-815 -407 0
-815 -408 0
-815 -409 0
-815 -410 0
-815 -411 0
-815 -412 0
-815 -413 0
-815 -414 0
-815 -461 0
-815 -462 0
-815 -463 0
-815 -464 0
-815 -465 0
-815 -466 0
-815 -467 0
-815 -468 0
-815 -515 0
-815 -516 0
-815 -517 0
-815 -518 0
-815 -519 0
-815 -520 0
-815 -521 0
-815 -522 0
-816 -19 0
-816 -30 0
-816 -31 0
-816 -32 0
-816 -33 0
-816 -34 0
-816 -35 0
-816 -36 0
-816 -73 0
-816 -84 0
-816 -85 0
-816 -86 0
-816 -87 0
-816 -88 0
-816 -89 0
-816 -90 0
-816 -127 0
-816 -138 0
-816 -139 0
-816 -140 0
-816 -141 0
-816 -142 0
-816 -143 0
-816 -144 0
-816 -181 0
-816 -192 0
-816 -193 0
-816 -194 0
-816 -195 0
-816 -196 0
-816 -197 0
-816 -198 0
-816 -235 0
-816 -246 0
-816 -247 0
-816 -248 0
-816 -249 0
-816 -250 0
-816 -251 0
-816 -252 0
-816 -289 0
-816 -300 0
-816 -301 0
-816 -302 0
-816 -303 0
-816 -304 0
-816 -305 0
-816 -306 0
-816 -343 0
-816 -354 0
-816 -355 0
-816 -356 0
-816 -357 0
-816 -358 0
-816 -359 0
-816 -360 0
-816 -397 0
-816 -408 0
-816 -409 0
-816 -410 0
-816 -411 0
-816 -412 0
-816 -413 0
-816 -414 0
-816 -451 0
-816 -462 0
-816 -463 0
-816 -464 0
-816 -465 0
-816 -466 0
-816 -467 0
-816 -468 0
-816 -505 0
-816 -516 0
-816 -517 0
-816 -518 0
-816 -519 0
-816 -520 0
-816 -521 0
-816 -522 0
-817 -19 0
-817 -20 0
-817 -31 0
-817 -32 0
-817 -33 0
-817 -34 0
-817 -35 0
-817 -36 0
-817 -73 0
-817 -74 0
-817 -85 0
-817 -86 0
-817 -87 0
-817 -88 0
-817 -89 0
-817 -90 0
-817 -127 0
-817 -128 0
-817 -139 0
-817 -140 0
-817 -141 0
-817 -142 0
-817 -143 0
-817 -144 0
-817 -181 0
-817 -182 0
-817 -193 0
-817 -194 0
-817 -195 0
-817 -196 0
-817 -197 0
-817 -198 0
-817 -235 0
-817 -236 0
-817 -247 0
-817 -248 0
-817 -249 0
-817 -250 0
-817 -251 0
-817 -252 0
-817 -289 0
-817 -290 0
-817 -301 0
-817 -302 0
-817 -303 0
-817 -304 0
-817 -305 0
-817 -306 0
-817 -343 0
-817 -344 0
-817 -355 0
-817 -356 0
-817 -357 0
-817 -358 0
-817 -359 0
-817 -360 0
-817 -397 0
-817 -398 0
-817 -409 0
-817 -410 0
-817 -411 0
-817 -412 0
-817 -413 0
-817 -414 0
-817 -451 0
-817 -452 0
-817 -463 0
-817 -464 0
-817 -465 0
-817 -466 0
-817 -467 0
-817 -468 0
-817 -505 0
-817 -506 0
-817 -517 0
-817 -518 0
-817 -519 0
-817 -520 0
-817 -521 0
-817 -522 0
-818 -19 0
-818 -20 0
-818 -21 0
-818 -32 0
-818 -33 0
-818 -34 0
-818 -35 0
-818 -36 0
-818 -73 0
-818 -74 0
-818 -75 0
-818 -86 0
-818 -87 0
-818 -88 0
-818 -89 0
-818 -90 0
-818 -127 0
-818 -128 0
-818 -129 0
-818 -140 0
-818 -141 0
-818 -142 0
-818 -143 0
-818 -144 0
-818 -181 0
-818 -182 0
-818 -183 0
-818 -194 0
-818 -195 0
-818 -196 0
-818 -197 0
-818 -198 0
-818 -235 0
-818 -236 0
-818 -237 0
-818 -248 0
-818 -249 0
-818 -250 0
-818 -251 0
-818 -252 0
-818 -289 0
-818 -290 0
-818 -291 0
-818 -302 0
-818 -303 0
-818 -304 0
-818 -305 0
-818 -306 0
-818 -343 0
-818 -344 0
-818 -345 0
-818 -356 0
-818 -357 0
-818 -358 0
-818 -359 0
-818 -360 0
-818 -397 0
-818 -398 0
-818 -399 0
-818 -410 0
-818 -411 0
-818 -412 0
-818 -413 0
-818 -414 0
-818 -451 0
-818 -452 0
-818 -453 0
-818 -464 0
-818 -465 0
-818 -466 0
-818 -467 0
-818 -468 0
-818 -505 0
-818 -506 0
-818 -507 0
-818 -518 0
-818 -519 0
-818 -520 0
-818 -521 0
-818 -522 0
-819 -19 0
-819 -20 0
-819 -21 0
-819 -22 0
-819 -33 0
-819 -34 0
-819 -35 0
-819 -36 0
-819 -73 0
-819 -74 0
-819 -75 0
-819 -76 0
-819 -87 0
-819 -88 0
-819 -89 0
-819 -90 0
-819 -127 0
-819 -128 0
-819 -129 0
-819 -130 0
-819 -141 0
-819 -142 0
-819 -143 0
-819 -144 0
-819 -181 0
-819 -182 0
-819 -183 0
-819 -184 0
-819 -195 0
-819 -196 0
-819 -197 0
-819 -198 0
-819 -235 0
-819 -236 0
-819 -237 0
-819 -238 0
-819 -249 0
-819 -250 0
-819 -251 0
-819 -252 0
-819 -289 0
-819 -290 0
-819 -291 0
-819 -292 0
-819 -303 0
-819 -304 0
-819 -305 0
-819 -306 0
-819 -343 0
-819 -344 0
-819 -345 0
-819 -346 0
-819 -357 0
-819 -358 0
-819 -359 0
-819 -360 0
-819 -397 0
-819 -398 0
-819 -399 0
-819 -400 0
-819 -411 0
-819 -412 0
-819 -413 0
-819 -414 0
-819 -451 0
-819 -452 0
-819 -453 0
-819 -454 0
-819 -465 0
-819 -466 0
-819 -467 0
-819 -468 0
-819 -505 0
-819 -506 0
-819 -507 0
-819 -508 0
-819 -519 0
-819 -520 0
-819 -521 0
-819 -522 0
-820 -19 0
-820 -20 0
-820 -21 0
-820 -22 0
-820 -23 0
-820 -34 0
-820 -35 0
-820 -36 0
-820 -73 0
-820 -74 0
-820 -75 0
-820 -76 0
-820 -77 0
-820 -88 0
-820 -89 0
-820 -90 0
-820 -127 0
-820 -128 0
-820 -129 0
-820 -130 0
-820 -131 0
-820 -142 0
-820 -143 0
-820 -144 0
-820 -181 0
-820 -182 0
-820 -183 0
-820 -184 0
-820 -185 0
-820 -196 0
-820 -197 0
-820 -198 0
-820 -235 0
-820 -236 0
-820 -237 0
-820 -238 0
-820 -239 0
-820 -250 0
-820 -251 0
-820 -252 0
-820 -289 0
-820 -290 0
-820 -291 0
-820 -292 0
-820 -293 0
-820 -304 0
-820 -305 0
-820 -306 0
-820 -343 0
-820 -344 0
-820 -345 0
-820 -346 0
-820 -347 0
-820 -358 0
-820 -359 0
-820 -360 0
-820 -397 0
-820 -398 0
-820 -399 0
-820 -400 0
-820 -401 0
-820 -412 0
-820 -413 0
-820 -414 0
-820 -451 0
-820 -452 0
-820 -453 0
-820 -454 0
-820 -455 0
-820 -466 0
-820 -467 0
-820 -468 0
-820 -505 0
-820 -506 0
-820 -507 0
-820 -508 0
-820 -509 0
-820 -520 0
-820 -521 0
-820 -522 0
-821 -19 0
-821 -20 0
-821 -21 0
-821 -22 0
-821 -23 0
-821 -24 0
-821 -35 0
-821 -36 0
-821 -73 0
-821 -74 0
-821 -75 0
-821 -76 0
-821 -77 0
-821 -78 0
-821 -89 0
-821 -90 0
-821 -127 0
-821 -128 0
-821 -129 0
-821 -130 0
-821 -131 0
-821 -132 0
-821 -143 0
-821 -144 0
-821 -181 0
-821 -182 0
-821 -183 0
-821 -184 0
-821 -185 0
-821 -186 0
-821 -197 0
-821 -198 0
-821 -235 0
-821 -236 0
-821 -237 0
-821 -238 0
-821 -239 0
-821 -240 0
-821 -251 0
-821 -252 0
-821 -289 0
-821 -290 0
-821 -291 0
-821 -292 0
-821 -293 0
-821 -294 0
-821 -305 0
-821 -306 0
-821 -343 0
-821 -344 0
-821 -345 0
-821 -346 0
-821 -347 0
-821 -348 0
-821 -359 0
-821 -360 0
-821 -397 0
-821 -398 0
-821 -399 0
-821 -400 0
-821 -401 0
-821 -402 0
-821 -413 0
-821 -414 0
-821 -451 0
-821 -452 0
-821 -453 0
-821 -454 0
-821 -455 0
-821 -456 0
-821 -467 0
-821 -468 0
-821 -505 0
-821 -506 0
-821 -507 0
-821 -508 0
-821 -509 0
-821 -510 0
-821 -521 0
-821 -522 0
-822 -19 0
-822 -20 0
-822 -21 0
-822 -22 0
-822 -23 0
-822 -24 0
-822 -25 0
-822 -36 0
-822 -73 0
-822 -74 0
-822 -75 0
-822 -76 0
-822 -77 0
-822 -78 0
-822 -79 0
-822 -90 0
-822 -127 0
-822 -128 0
-822 -129 0
-822 -130 0
-822 -131 0
-822 -132 0
-822 -133 0
-822 -144 0
-822 -181 0
-822 -182 0
-822 -183 0
-822 -184 0
-822 -185 0
-822 -186 0
-822 -187 0
-822 -198 0
-822 -235 0
-822 -236 0
-822 -237 0
-822 -238 0
-822 -239 0
-822 -240 0
-822 -241 0
-822 -252 0
-822 -289 0
-822 -290 0
-822 -291 0
-822 -292 0
-822 -293 0
-822 -294 0
-822 -295 0
-822 -306 0
-822 -343 0
-822 -344 0
-822 -345 0
-822 -346 0
-822 -347 0
-822 -348 0
-822 -349 0
-822 -360 0
-822 -397 0
-822 -398 0
-822 -399 0
-822 -400 0
-822 -401 0
-822 -402 0
-822 -403 0
-822 -414 0
-822 -451 0
-822 -452 0
-822 -453 0
-822 -454 0
-822 -455 0
-822 -456 0
-822 -457 0
-822 -468 0
-822 -505 0
-822 -506 0
-822 -507 0
-822 -508 0
-822 -509 0
-822 -510 0
-822 -511 0
-822 -522 0
-823 -19 0
-823 -20 0
-823 -21 0
-823 -22 0
-823 -23 0
-823 -24 0
-823 -25 0
-823 -26 0
-823 -73 0
-823 -74 0
-823 -75 0
-823 -76 0
-823 -77 0
-823 -78 0
-823 -79 0
-823 -80 0
-823 -127 0
-823 -128 0
-823 -129 0
-823 -130 0
-823 -131 0
-823 -132 0
-823 -133 0
-823 -134 0
-823 -181 0
-823 -182 0
-823 -183 0
-823 -184 0
-823 -185 0
-823 -186 0
-823 -187 0
-823 -188 0
-823 -235 0
-823 -236 0
-823 -237 0
-823 -238 0
-823 -239 0
-823 -240 0
-823 -241 0
-823 -242 0
-823 -289 0
-823 -290 0
-823 -291 0
-823 -292 0
-823 -293 0
-823 -294 0
-823 -295 0
-823 -296 0
-823 -343 0
-823 -344 0
-823 -345 0
-823 -346 0
-823 -347 0
-823 -348 0
-823 -349 0
-823 -350 0
-823 -397 0
-823 -398 0
-823 -399 0
-823 -400 0
-823 -401 0
-823 -402 0
-823 -403 0
-823 -404 0
-823 -451 0
-823 -452 0
-823 -453 0
-823 -454 0
-823 -455 0
-823 -456 0
-823 -457 0
-823 -458 0
-823 -505 0
-823 -506 0
-823 -507 0
-823 -508 0
-823 -509 0
-823 -510 0
-823 -511 0
-823 -512 0
-37 -91 0
-37 -145 0
-37 -199 0
-37 -253 0
-37 -559 0
-37 -613 0
-37 -667 0
-37 -721 0
-37 -775 0
-91 -145 0
-91 -199 0
-91 -253 0
-91 -559 0
-91 -613 0
-91 -667 0
-91 -721 0
-91 -775 0
-145 -199 0
-145 -253 0
-145 -559 0
-145 -613 0
-145 -667 0
-145 -721 0
-145 -775 0
-199 -253 0
-199 -559 0
-199 -613 0
-199 -667 0
-199 -721 0
-199 -775 0
-253 -559 0
-253 -613 0
-253 -667 0
-253 -721 0
-253 -775 0
-559 -613 0
-559 -667 0
-559 -721 0
-559 -775 0
-613 -667 0
-613 -721 0
-613 -775 0
-667 -721 0
-667 -775 0
-721 -775 0
-38 -92 0
-38 -146 0
-38 -200 0
-38 -254 0
-38 -560 0
-38 -614 0
-38 -668 0
-38 -722 0
-38 -776 0
-92 -146 0
-92 -200 0
-92 -254 0
-92 -560 0
-92 -614 0
-92 -668 0
-92 -722 0
-92 -776 0
-146 -200 0
-146 -254 0
-146 -560 0
-146 -614 0
-146 -668 0
-146 -722 0
-146 -776 0
-200 -254 0
-200 -560 0
-200 -614 0
-200 -668 0
-200 -722 0
-200 -776 0
-254 -560 0
-254 -614 0
-254 -668 0
-254 -722 0
-254 -776 0
-560 -614 0
-560 -668 0
-560 -722 0
-560 -776 0
-614 -668 0
-614 -722 0
-614 -776 0
-668 -722 0
-668 -776 0
-722 -776 0
-39 -93 0
-39 -147 0
-39 -201 0
-39 -255 0
-39 -561 0
-39 -615 0
-39 -669 0
-39 -723 0
-39 -777 0
-93 -147 0
-93 -201 0
-93 -255 0
-93 -561 0
-93 -615 0
-93 -669 0
-93 -723 0
-93 -777 0
-147 -201 0
-147 -255 0
-147 -561 0
-147 -615 0
-147 -669 0
-147 -723 0
-147 -777 0
-201 -255 0
-201 -561 0
-201 -615 0
-201 -669 0
-201 -723 0
-201 -777 0
-255 -561 0
-255 -615 0
-255 -669 0
-255 -723 0
-255 -777 0
-561 -615 0
-561 -669 0
-561 -723 0
-561 -777 0
-615 -669 0
-615 -723 0
-615 -777 0
-669 -723 0
-669 -777 0
-723 -777 0
-40 -94 0
-40 -148 0
-40 -202 0
-40 -256 0
-40 -562 0
-40 -616 0
-40 -670 0
-40 -724 0
-40 -778 0
-94 -148 0
-94 -202 0
-94 -256 0
-94 -562 0
-94 -616 0
-94 -670 0
-94 -724 0
-94 -778 0
-148 -202 0
-148 -256 0
-148 -562 0
-148 -616 0
-148 -670 0
-148 -724 0
-148 -778 0
-202 -256 0
-202 -562 0
-202 -616 0
-202 -670 0
-202 -724 0
-202 -778 0
-256 -562 0
-256 -616 0
-256 -670 0
-256 -724 0
-256 -778 0
-562 -616 0
-562 -670 0
-562 -724 0
-562 -778 0
-616 -670 0
-616 -724 0
-616 -778 0
-670 -724 0
-670 -778 0
-724 -778 0
-41 -95 0
-41 -149 0
-41 -203 0
-41 -257 0
-41 -563 0
-41 -617 0
-41 -671 0
-41 -725 0
-41 -779 0
-95 -149 0
-95 -203 0
-95 -257 0
-95 -563 0
-95 -617 0
-95 -671 0
-95 -725 0
-95 -779 0
-149 -203 0
-149 -257 0
-149 -563 0
-149 -617 0
-149 -671 0
-149 -725 0
-149 -779 0
-203 -257 0
-203 -563 0
-203 -617 0
-203 -671 0
-203 -725 0
-203 -779 0
-257 -563 0
-257 -617 0
-257 -671 0
-257 -725 0
-257 -779 0
-563 -617 0
-563 -671 0
-563 -725 0
-563 -779 0
-617 -671 0
-617 -725 0
-617 -779 0
-671 -725 0
-671 -779 0
-725 -779 0
-42 -96 0
-42 -150 0
-42 -204 0
-42 -258 0
-42 -564 0
-42 -618 0
-42 -672 0
-42 -726 0
-42 -780 0
-96 -150 0
-96 -204 0
-96 -258 0
-96 -564 0
-96 -618 0
-96 -672 0
-96 -726 0
-96 -780 0
-150 -204 0
-150 -258 0
-150 -564 0
-150 -618 0
-150 -672 0
-150 -726 0
-150 -780 0
-204 -258 0
-204 -564 0
-204 -618 0
-204 -672 0
-204 -726 0
-204 -780 0
-258 -564 0
-258 -618 0
-258 -672 0
-258 -726 0
-258 -780 0
-564 -618 0
-564 -672 0
-564 -726 0
-564 -780 0
-618 -672 0
-618 -726 0
-618 -780 0
-672 -726 0
-672 -780 0
-726 -780 0
-43 -97 0
-43 -151 0
-43 -205 0
-43 -259 0
-43 -565 0
-43 -619 0
-43 -673 0
-43 -727 0
-43 -781 0
-97 -151 0
-97 -205 0
-97 -259 0
-97 -565 0
-97 -619 0
-97 -673 0
-97 -727 0
-97 -781 0
-151 -205 0
-151 -259 0
-151 -565 0
-151 -619 0
-151 -673 0
-151 -727 0
-151 -781 0
-205 -259 0
-205 -565 0
-205 -619 0
-205 -673 0
-205 -727 0
-205 -781 0
-259 -565 0
-259 -619 0
-259 -673 0
-259 -727 0
-259 -781 0
-565 -619 0
-565 -673 0
-565 -727 0
-565 -781 0
-619 -673 0
-619 -727 0
-619 -781 0
-673 -727 0
-673 -781 0
-727 -781 0
-44 -98 0
-44 -152 0
-44 -206 0
-44 -260 0
-44 -566 0
-44 -620 0
-44 -674 0
-44 -728 0
-44 -782 0
-98 -152 0
-98 -206 0
-98 -260 0
-98 -566 0
-98 -620 0
-98 -674 0
-98 -728 0
-98 -782 0
-152 -206 0
-152 -260 0
-152 -566 0
-152 -620 0
-152 -674 0
-152 -728 0
-152 -782 0
-206 -260 0
-206 -566 0
-206 -620 0
-206 -674 0
-206 -728 0
-206 -782 0
-260 -566 0
-260 -620 0
-260 -674 0
-260 -728 0
-260 -782 0
-566 -620 0
-566 -674 0
-566 -728 0
-566 -782 0
-620 -674 0
-620 -728 0
-620 -782 0
-674 -728 0
-674 -782 0
-728 -782 0
-45 -99 0
-45 -153 0
-45 -207 0
-45 -261 0
-45 -567 0
-45 -621 0
-45 -675 0
-45 -729 0
-45 -783 0
-99 -153 0
-99 -207 0
-99 -261 0
-99 -567 0
-99 -621 0
-99 -675 0
-99 -729 0
-99 -783 0
-153 -207 0
-153 -261 0
-153 -567 0
-153 -621 0
-153 -675 0
-153 -729 0
-153 -783 0
-207 -261 0
-207 -567 0
-207 -621 0
-207 -675 0
-207 -729 0
-207 -783 0
-261 -567 0
-261 -621 0
-261 -675 0
-261 -729 0
-261 -783 0
-567 -621 0
-567 -675 0
-567 -729 0
-567 -783 0
-621 -675 0
-621 -729 0
-621 -783 0
-675 -729 0
-675 -783 0
-729 -783 0
-46 -100 0
-46 -154 0
-46 -208 0
-46 -262 0
-46 -568 0
-46 -622 0
-46 -676 0
-46 -730 0
-46 -784 0
-100 -154 0
-100 -208 0
-100 -262 0
-100 -568 0
-100 -622 0
-100 -676 0
-100 -730 0
-100 -784 0
-154 -208 0
-154 -262 0
-154 -568 0
-154 -622 0
-154 -676 0
-154 -730 0
-154 -784 0
-208 -262 0
-208 -568 0
-208 -622 0
-208 -676 0
-208 -730 0
-208 -784 0
-262 -568 0
-262 -622 0
-262 -676 0
-262 -730 0
-262 -784 0
-568 -622 0
-568 -676 0
-568 -730 0
-568 -784 0
-622 -676 0
-622 -730 0
-622 -784 0
-676 -730 0
-676 -784 0
-730 -784 0
-47 -101 0
-47 -155 0
-47 -209 0
-47 -263 0
-47 -569 0
-47 -623 0
-47 -677 0
-47 -731 0
-47 -785 0
-101 -155 0
-101 -209 0
-101 -263 0
-101 -569 0
-101 -623 0
-101 -677 0
-101 -731 0
-101 -785 0
-155 -209 0
-155 -263 0
-155 -569 0
-155 -623 0
-155 -677 0
-155 -731 0
-155 -785 0
-209 -263 0
-209 -569 0
-209 -623 0
-209 -677 0
-209 -731 0
-209 -785 0
-263 -569 0
-263 -623 0
-263 -677 0
-263 -731 0
-263 -785 0
-569 -623 0
-569 -677 0
-569 -731 0
-569 -785 0
-623 -677 0
-623 -731 0
-623 -785 0
-677 -731 0
-677 -785 0
-731 -785 0
-48 -102 0
-48 -156 0
-48 -210 0
-48 -264 0
-48 -570 0
-48 -624 0
-48 -678 0
-48 -732 0
-48 -786 0
-102 -156 0
-102 -210 0
-102 -264 0
-102 -570 0
-102 -624 0
-102 -678 0
-102 -732 0
-102 -786 0
-156 -210 0
-156 -264 0
-156 -570 0
-156 -624 0
-156 -678 0
-156 -732 0
-156 -786 0
-210 -264 0
-210 -570 0
-210 -624 0
-210 -678 0
-210 -732 0
-210 -786 0
-264 -570 0
-264 -624 0
-264 -678 0
-264 -732 0
-264 -786 0
-570 -624 0
-570 -678 0
-570 -732 0
-570 -786 0
-624 -678 0
-624 -732 0
-624 -786 0
-678 -732 0
-678 -786 0
-732 -786 0
-49 -103 0
-49 -157 0
-49 -211 0
-49 -265 0
-49 -571 0
-49 -625 0
-49 -679 0
-49 -733 0
-49 -787 0
-103 -157 0
-103 -211 0
-103 -265 0
-103 -571 0
-103 -625 0
-103 -679 0
-103 -733 0
-103 -787 0
-157 -211 0
-157 -265 0
-157 -571 0
-157 -625 0
-157 -679 0
-157 -733 0
-157 -787 0
-211 -265 0
-211 -571 0
-211 -625 0
-211 -679 0
-211 -733 0
-211 -787 0
-265 -571 0
-265 -625 0
-265 -679 0
-265 -733 0
-265 -787 0
-571 -625 0
-571 -679 0
-571 -733 0
-571 -787 0
-625 -679 0
-625 -733 0
-625 -787 0
-679 -733 0
-679 -787 0
-733 -787 0
-50 -104 0
-50 -158 0
-50 -212 0
-50 -266 0
-50 -572 0
-50 -626 0
-50 -680 0
-50 -734 0
-50 -788 0
-104 -158 0
-104 -212 0
-104 -266 0
-104 -572 0
-104 -626 0
-104 -680 0
-104 -734 0
-104 -788 0
-158 -212 0
-158 -266 0
-158 -572 0
-158 -626 0
-158 -680 0
-158 -734 0
-158 -788 0
-212 -266 0
-212 -572 0
-212 -626 0
-212 -680 0
-212 -734 0
-212 -788 0
-266 -572 0
-266 -626 0
-266 -680 0
-266 -734 0
-266 -788 0
-572 -626 0
-572 -680 0
-572 -734 0
-572 -788 0
-626 -680 0
-626 -734 0
-626 -788 0
-680 -734 0
-680 -788 0
-734 -788 0
-51 -105 0
-51 -159 0
-51 -213 0
-51 -267 0
-51 -573 0
-51 -627 0
-51 -681 0
-51 -735 0
-51 -789 0
-105 -159 0
-105 -213 0
-105 -267 0
-105 -573 0
-105 -627 0
-105 -681 0
-105 -735 0
-105 -789 0
-159 -213 0
-159 -267 0
-159 -573 0
-159 -627 0
-159 -681 0
-159 -735 0
-159 -789 0
-213 -267 0
-213 -573 0
-213 -627 0
-213 -681 0
-213 -735 0
-213 -789 0
-267 -573 0
-267 -627 0
-267 -681 0
-267 -735 0
-267 -789 0
-573 -627 0
-573 -681 0
-573 -735 0
-573 -789 0
-627 -681 0
-627 -735 0
-627 -789 0
-681 -735 0
-681 -789 0
-735 -789 0
-52 -106 0
-52 -160 0
-52 -214 0
-52 -268 0
-52 -574 0
-52 -628 0
-52 -682 0
-52 -736 0
-52 -790 0
-106 -160 0
-106 -214 0
-106 -268 0
-106 -574 0
-106 -628 0
-106 -682 0
-106 -736 0
-106 -790 0
-160 -214 0
-160 -268 0
-160 -574 0
-160 -628 0
-160 -682 0
-160 -736 0
-160 -790 0
-214 -268 0
-214 -574 0
-214 -628 0
-214 -682 0
-214 -736 0
-214 -790 0
-268 -574 0
-268 -628 0
-268 -682 0
-268 -736 0
-268 -790 0
-574 -628 0
-574 -682 0
-574 -736 0
-574 -790 0
-628 -682 0
-628 -736 0
-628 -790 0
-682 -736 0
-682 -790 0
-736 -790 0
-53 -107 0
-53 -161 0
-53 -215 0
-53 -269 0
-53 -575 0
-53 -629 0
-53 -683 0
-53 -737 0
-53 -791 0
-107 -161 0
-107 -215 0
-107 -269 0
-107 -575 0
-107 -629 0
-107 -683 0
-107 -737 0
-107 -791 0
-161 -215 0
-161 -269 0
-161 -575 0
-161 -629 0
-161 -683 0
-161 -737 0
-161 -791 0
-215 -269 0
-215 -575 0
-215 -629 0
-215 -683 0
-215 -737 0
-215 -791 0
-269 -575 0
-269 -629 0
-269 -683 0
-269 -737 0
-269 -791 0
-575 -629 0
-575 -683 0
-575 -737 0
-575 -791 0
-629 -683 0
-629 -737 0
-629 -791 0
-683 -737 0
-683 -791 0
-737 -791 0
-54 -108 0
-54 -162 0
-54 -216 0
-54 -270 0
-54 -576 0
-54 -630 0
-54 -684 0
-54 -738 0
-54 -792 0
-108 -162 0
-108 -216 0
-108 -270 0
-108 -576 0
-108 -630 0
-108 -684 0
-108 -738 0
-108 -792 0
-162 -216 0
-162 -270 0
-162 -576 0
-162 -630 0
-162 -684 0
-162 -738 0
-162 -792 0
-216 -270 0
-216 -576 0
-216 -630 0
-216 -684 0
-216 -738 0
-216 -792 0
-270 -576 0
-270 -630 0
-270 -684 0
-270 -738 0
-270 -792 0
-576 -630 0
-576 -684 0
-576 -738 0
-576 -792 0
-630 -684 0
-630 -738 0
-630 -792 0
-684 -738 0
-684 -792 0
-738 -792 0
824 825 826 827 828 829 830 831 832 0
-824 -825 0
-824 -826 0
-824 -827 0
-824 -828 0
-824 -829 0
-824 -830 0
-824 -831 0
-824 -832 0
-825 -826 0
-825 -827 0
-825 -828 0
-825 -829 0
-825 -830 0
-825 -831 0
-825 -832 0
-826 -827 0
-826 -828 0
-826 -829 0
-826 -830 0
-826 -831 0
-826 -832 0
-827 -828 0
-827 -829 0
-827 -830 0
-827 -831 0
-827 -832 0
-828 -829 0
-828 -830 0
-828 -831 0
-828 -832 0
-829 -830 0
-829 -831 0
-829 -832 0
-830 -831 0
-830 -832 0
-831 -832 0
-37 824 0
-38 824 825 0
-39 824 825 826 0
-40 824 825 826 827 0
-41 824 825 826 827 828 0
-42 824 825 826 827 828 829 0
-43 824 825 826 827 828 829 830 0
-44 824 825 826 827 828 829 830 831 0
-45 824 825 826 827 828 829 830 831 832 0
-46 824 825 826 827 828 829 830 831 832 0
-47 825 826 827 828 829 830 831 832 0
-48 826 827 828 829 830 831 832 0
-49 827 828 829 830 831 832 0
-50 828 829 830 831 832 0
-51 829 830 831 832 0
-52 830 831 832 0
-53 831 832 0
-54 832 0
-91 824 0
-92 824 825 0
-93 824 825 826 0
-94 824 825 826 827 0
-95 824 825 826 827 828 0
-96 824 825 826 827 828 829 0
-97 824 825 826 827 828 829 830 0
-98 824 825 826 827 828 829 830 831 0
-99 824 825 826 827 828 829 830 831 832 0
-100 824 825 826 827 828 829 830 831 832 0
-101 825 826 827 828 829 830 831 832 0
-102 826 827 828 829 830 831 832 0
-103 827 828 829 830 831 832 0
-104 828 829 830 831 832 0
-105 829 830 831 832 0
-106 830 831 832 0
-107 831 832 0
-108 832 0
-145 824 0
-146 824 825 0
-147 824 825 826 0
-148 824 825 826 827 0
-149 824 825 826 827 828 0
-150 824 825 826 827 828 829 0
-151 824 825 826 827 828 829 830 0
-152 824 825 826 827 828 829 830 831 0
-153 824 825 826 827 828 829 830 831 832 0
-154 824 825 826 827 828 829 830 831 832 0
-155 825 826 827 828 829 830 831 832 0
-156 826 827 828 829 830 831 832 0
-157 827 828 829 830 831 832 0
-158 828 829 830 831 832 0
-159 829 830 831 832 0
-160 830 831 832 0
-161 831 832 0
-162 832 0
-199 824 0
-200 824 825 0
-201 824 825 826 0
-202 824 825 826 827 0
-203 824 825 826 827 828 0
-204 824 825 826 827 828 829 0
-205 824 825 826 827 828 829 830 0
-206 824 825 826 827 828 829 830 831 0
-207 824 825 826 827 828 829 830 831 832 0
-208 824 825 826 827 828 829 830 831 832 0
-209 825 826 827 828 829 830 831 832 0
-210 826 827 828 829 830 831 832 0
-211 827 828 829 830 831 832 0
-212 828 829 830 831 832 0
-213 829 830 831 832 0
-214 830 831 832 0
-215 831 832 0
-216 832 0
-253 824 0
-254 824 825 0
-255 824 825 826 0
-256 824 825 826 827 0
-257 824 825 826 827 828 0
-258 824 825 826 827 828 829 0
-259 824 825 826 827 828 829 830 0
-260 824 825 826 827 828 829 830 831 0
-261 824 825 826 827 828 829 830 831 832 0
-262 824 825 826 827 828 829 830 831 832 0
-263 825 826 827 828 829 830 831 832 0
-264 826 827 828 829 830 831 832 0
-265 827 828 829 830 831 832 0
-266 828 829 830 831 832 0
-267 829 830 831 832 0
-268 830 831 832 0
-269 831 832 0
-270 832 0
-559 824 0
-560 824 825 0
-561 824 825 826 0
-562 824 825 826 827 0
-563 824 825 826 827 828 0
-564 824 825 826 827 828 829 0
-565 824 825 826 827 828 829 830 0
-566 824 825 826 827 828 829 830 831 0
-567 824 825 826 827 828 829 830 831 832 0
-568 824 825 826 827 828 829 830 831 832 0
-569 825 826 827 828 829 830 831 832 0
-570 826 827 828 829 830 831 832 0
-571 827 828 829 830 831 832 0
-572 828 829 830 831 832 0
-573 829 830 831 832 0
-574 830 831 832 0
-575 831 832 0
-576 832 0
-613 824 0
-614 824 825 0
-615 824 825 826 0
-616 824 825 826 827 0
-617 824 825 826 827 828 0
-618 824 825 826 827 828 829 0
-619 824 825 826 827 828 829 830 0
-620 824 825 826 827 828 829 830 831 0
-621 824 825 826 827 828 829 830 831 832 0
-622 824 825 826 827 828 829 830 831 832 0
-623 825 826 827 828 829 830 831 832 0
-624 826 827 828 829 830 831 832 0
-625 827 828 829 830 831 832 0
-626 828 829 830 831 832 0
-627 829 830 831 832 0
-628 830 831 832 0
-629 831 832 0
-630 832 0
-667 824 0
-668 824 825 0
-669 824 825 826 0
-670 824 825 826 827 0
-671 824 825 826 827 828 0
-672 824 825 826 827 828 829 0
-673 824 825 826 827 828 829 830 0
-674 824 825 826 827 828 829 830 831 0
-675 824 825 826 827 828 829 830 831 832 0
-676 824 825 826 827 828 829 830 831 832 0
-677 825 826 827 828 829 830 831 832 0
-678 826 827 828 829 830 831 832 0
-679 827 828 829 830 831 832 0
-680 828 829 830 831 832 0
-681 829 830 831 832 0
-682 830 831 832 0
-683 831 832 0
-684 832 0
-721 824 0
-722 824 825 0
-723 824 825 826 0
-724 824 825 826 827 0
-725 824 825 826 827 828 0
-726 824 825 826 827 828 829 0
-727 824 825 826 827 828 829 830 0
-728 824 825 826 827 828 829 830 831 0
-729 824 825 826 827 828 829 830 831 832 0
-730 824 825 826 827 828 829 830 831 832 0
-731 825 826 827 828 829 830 831 832 0
-732 826 827 828 829 830 831 832 0
-733 827 828 829 830 831 832 0
-734 828 829 830 831 832 0
-735 829 830 831 832 0
-736 830 831 832 0
-737 831 832 0
-738 832 0
-775 824 0
-776 824 825 0
-777 824 825 826 0
-778 824 825 826 827 0
-779 824 825 826 827 828 0
-780 824 825 826 827 828 829 0
-781 824 825 826 827 828 829 830 0
-782 824 825 826 827 828 829 830 831 0
-783 824 825 826 827 828 829 830 831 832 0
-784 824 825 826 827 828 829 830 831 832 0
-785 825 826 827 828 829 830 831 832 0
-786 826 827 828 829 830 831 832 0
-787 827 828 829 830 831 832 0
-788 828 829 830 831 832 0
-789 829 830 831 832 0
-790 830 831 832 0
-791 831 832 0
-792 832 0
-824 -47 0
-824 -48 0
-824 -49 0
-824 -50 0
-824 -51 0
-824 -52 0
-824 -53 0
-824 -54 0
-824 -101 0
-824 -102 0
-824 -103 0
-824 -104 0
-824 -105 0
-824 -106 0
-824 -107 0
-824 -108 0
-824 -155 0
-824 -156 0
-824 -157 0
-824 -158 0
-824 -159 0
-824 -160 0
-824 -161 0
-824 -162 0
-824 -209 0
-824 -210 0
-824 -211 0
-824 -212 0
-824 -213 0
-824 -214 0
-824 -215 0
-824 -216 0
-824 -263 0
-824 -264 0
-824 -265 0
-824 -266 0
-824 -267 0
-824 -268 0
-824 -269 0
-824 -270 0
-824 -569 0
-824 -570 0
-824 -571 0
-824 -572 0
-824 -573 0
-824 -574 0
-824 -575 0
-824 -576 0
-824 -623 0
-824 -624 0
-824 -625 0
-824 -626 0
-824 -627 0
-824 -628 0
-824 -629 0
-824 -630 0
-824 -677 0
-824 -678 0
-824 -679 0
-824 -680 0
-824 -681 0
-824 -682 0
-824 -683 0
-824 -684 0
-824 -731 0
-824 -732 0
-824 -733 0
-824 -734 0
-824 -735 0
-824 -736 0
-824 -737 0
-824 -738 0
-824 -785 0
-824 -786 0
-824 -787 0
-824 -788 0
-824 -789 0
-824 -790 0
-824 -791 0
-824 -792 0
-825 -37 0
-825 -48 0
-825 -49 0
-825 -50 0
-825 -51 0
-825 -52 0
-825 -53 0
-825 -54 0
-825 -91 0
-825 -102 0
-825 -103 0
-825 -104 0
-825 -105 0
-825 -106 0
-825 -107 0
-825 -108 0
-825 -145 0
-825 -156 0
-825 -157 0
-825 -158 0
-825 -159 0
-825 -160 0
-825 -161 0
-825 -162 0
-825 -199 0
-825 -210 0
-825 -211 0
-825 -212 0
-825 -213 0
-825 -214 0
-825 -215 0
-825 -216 0
-825 -253 0
-825 -264 0
-825 -265 0
-825 -266 0
-825 -267 0
-825 -268 0
-825 -269 0
-825 -270 0
-825 -559 0
-825 -570 0
-825 -571 0
-825 -572 0
-825 -573 0
-825 -574 0
-825 -575 0
-825 -576 0
-825 -613 0
-825 -624 0
-825 -625 0
-825 -626 0
-825 -627 0
-825 -628 0
-825 -629 0
-825 -630 0
-825 -667 0
-825 -678 0
-825 -679 0
-825 -680 0
-825 -681 0
-825 -682 0
-825 -683 0
-825 -684 0
-825 -721 0
-825 -732 0
-825 -733 0
-825 -734 0
-825 -735 0
-825 -736 0
-825 -737 0
-825 -738 0
-825 -775 0
-825 -786 0
-825 -787 0
-825 -788 0
-825 -789 0
-825 -790 0
-825 -791 0
-825 -792 0
-826 -37 0
-826 -38 0
-826 -49 0
-826 -50 0
-826 -51 0
-826 -52 0
-826 -53 0
-826 -54 0
-826 -91 0
-826 -92 0
-826 -103 0
-826 -104 0
-826 -105 0
-826 -106 0
-826 -107 0
-826 -108 0
-826 -145 0
-826 -146 0
-826 -157 0
-826 -158 0
-826 -159 0
-826 -160 0
-826 -161 0
-826 -162 0
-826 -199 0
-826 -200 0
-826 -211 0
-826 -212 0
-826 -213 0
-826 -214 0
-826 -215 0
-826 -216 0
-826 -253 0
-826 -254 0
-826 -265 0
-826 -266 0
-826 -267 0
-826 -268 0
-826 -269 0
-826 -270 0
-826 -559 0
-826 -560 0
-826 -571 0
-826 -572 0
-826 -573 0
-826 -574 0
-826 -575 0
-826 -576 0
-826 -613 0
-826 -614 0
-826 -625 0
-826 -626 0
-826 -627 0
-826 -628 0
-826 -629 0
-826 -630 0
-826 -667 0
-826 -668 0
-826 -679 0
-826 -680 0
-826 -681 0
-826 -682 0
-826 -683 0
-826 -684 0
-826 -721 0
-826 -722 0
-826 -733 0
-826 -734 0
-826 -735 0
-826 -736 0
-826 -737 0
-826 -738 0
-826 -775 0
-826 -776 0
-826 -787 0
-826 -788 0
-826 -789 0
-826 -790 0
-826 -791 0
-826 -792 0
-827 -37 0
-827 -38 0
-827 -39 0
-827 -50 0
-827 -51 0
-827 -52 0
-827 -53 0
-827 -54 0
-827 -91 0
-827 -92 0
-827 -93 0
-827 -104 0
-827 -105 0
-827 -106 0
-827 -107 0
-827 -108 0
-827 -145 0
-827 -146 0
-827 -147 0
-827 -158 0
-827 -159 0
-827 -160 0
-827 -161 0
-827 -162 0
-827 -199 0
-827 -200 0
-827 -201 0
-827 -212 0
-827 -213 0
-827 -214 0
-827 -215 0
-827 -216 0
-827 -253 0
-827 -254 0
-827 -255 0
-827 -266 0
-827 -267 0
-827 -268 0
-827 -269 0
-827 -270 0
-827 -559 0
-827 -560 0
-827 -561 0
-827 -572 0
-827 -573 0
-827 -574 0
-827 -575 0
-827 -576 0
-827 -613 0
-827 -614 0
-827 -615 0
-827 -626 0
-827 -627 0
-827 -628 0
-827 -629 0
-827 -630 0
-827 -667 0
-827 -668 0
-827 -669 0
-827 -680 0
-827 -681 0
-827 -682 0
-827 -683 0
-827 -684 0
-827 -721 0
-827 -722 0
-827 -723 0
-827 -734 0
-827 -735 0
-827 -736 0
-827 -737 0
-827 -738 0
-827 -775 0
-827 -776 0
-827 -777 0
-827 -788 0
-827 -789 0
-827 -790 0
-827 -791 0
-827 -792 0
-828 -37 0
-828 -38 0
-828 -39 0
-828 -40 0
-828 -51 0
-828 -52 0
-828 -53 0
-828 -54 0
-828 -91 0
-828 -92 0
-828 -93 0
-828 -94 0
-828 -105 0
-828 -106 0
-828 -107 0
-828 -108 0
-828 -145 0
-828 -146 0
-828 -147 0
-828 -148 0
-828 -159 0
-828 -160 0
-828 -161 0
-828 -162 0
-828 -199 0
-828 -200 0
-828 -201 0
-828 -202 0
-828 -213 0
-828 -214 0
-828 -215 0
-828 -216 0
-828 -253 0
-828 -254 0
-828 -255 0
-828 -256 0
-828 -267 0
-828 -268 0
-828 -269 0
-828 -270 0
-828 -559 0
-828 -560 0
-828 -561 0
-828 -562 0
-828 -573 0
-828 -574 0
-828 -575 0
-828 -576 0
-828 -613 0
-828 -614 0
-828 -615 0
-828 -616 0
-828 -627 0
-828 -628 0
-828 -629 0
-828 -630 0
-828 -667 0
-828 -668 0
-828 -669 0
-828 -670 0
-828 -681 0
-828 -682 0
-828 -683 0
-828 -684 0
-828 -721 0
-828 -722 0
-828 -723 0
-828 -724 0
-828 -735 0
-828 -736 0
-828 -737 0
-828 -738 0
-828 -775 0
-828 -776 0
-828 -777 0
-828 -778 0
-828 -789 0
-828 -790 0
-828 -791 0
-828 -792 0
-829 -37 0
-829 -38 0
-829 -39 0
-829 -40 0
-829 -41 0
-829 -52 0
-829 -53 0
-829 -54 0
-829 -91 0
-829 -92 0
-829 -93 0
-829 -94 0
-829 -95 0
-829 -106 0
-829 -107 0
-829 -108 0
-829 -145 0
-829 -146 0
-829 -147 0
-829 -148 0
-829 -149 0
-829 -160 0
-829 -161 0
-829 -162 0
-829 -199 0
-829 -200 0
-829 -201 0
-829 -202 0
-829 -203 0
-829 -214 0
-829 -215 0
-829 -216 0
-829 -253 0
-829 -254 0
-829 -255 0
-829 -256 0
-829 -257 0
-829 -268 0
-829 -269 0
-829 -270 0
-829 -559 0
-829 -560 0
-829 -561 0
-829 -562 0
-829 -563 0
-829 -574 0
-829 -575 0
-829 -576 0
-829 -613 0
-829 -614 0
-829 -615 0
-829 -616 0
-829 -617 0
-829 -628 0
-829 -629 0
-829 -630 0
-829 -667 0
-829 -668 0
-829 -669 0
-829 -670 0
-829 -671 0
-829 -682 0
-829 -683 0
-829 -684 0
-829 -721 0
-829 -722 0
-829 -723 0
-829 -724 0
-829 -725 0
-829 -736 0
-829 -737 0
-829 -738 0
-829 -775 0
-829 -776 0
-829 -777 0
-829 -778 0
-829 -779 0
-829 -790 0
-829 -791 0
-829 -792 0
-830 -37 0
-830 -38 0
-830 -39 0
-830 -40 0
-830 -41 0
-830 -42 0
-830 -53 0
-830 -54 0
-830 -91 0
-830 -92 0
-830 -93 0
-830 -94 0
-830 -95 0
-830 -96 0
-830 -107 0
-830 -108 0
-830 -145 0
-830 -146 0
-830 -147 0
-830 -148 0
-830 -149 0
-830 -150 0
-830 -161 0
-830 -162 0
-830 -199 0
-830 -200 0
-830 -201 0
-830 -202 0
-830 -203 0
-830 -204 0
-830 -215 0
-830 -216 0
-830 -253 0
-830 -254 0
-830 -255 0
-830 -256 0
-830 -257 0
-830 -258 0
-830 -269 0
-830 -270 0
-830 -559 0
-830 -560 0
-830 -561 0
-830 -562 0
-830 -563 0
-830 -564 0
-830 -575 0
-830 -576 0
-830 -613 0
-830 -614 0
-830 -615 0
-830 -616 0
-830 -617 0
-830 -618 0
-830 -629 0
-830 -630 0
-830 -667 0
-830 -668 0
-830 -669 0
-830 -670 0
-830 -671 0
-830 -672 0
-830 -683 0
-830 -684 0
-830 -721 0
-830 -722 0
-830 -723 0
-830 -724 0
-830 -725 0
-830 -726 0
-830 -737 0
-830 -738 0
-830 -775 0
-830 -776 0
-830 -777 0
-830 -778 0
-830 -779 0
-830 -780 0
-830 -791 0
-830 -792 0
-831 -37 0
-831 -38 0
-831 -39 0
-831 -40 0
-831 -41 0
-831 -42 0
-831 -43 0
-831 -54 0
-831 -91 0
-831 -92 0
-831 -93 0
-831 -94 0
-831 -95 0
-831 -96 0
-831 -97 0
-831 -108 0
-831 -145 0
-831 -146 0
-831 -147 0
-831 -148 0
-831 -149 0
-831 -150 0
-831 -151 0
-831 -162 0
-831 -199 0
-831 -200 0
-831 -201 0
-831 -202 0
-831 -203 0
-831 -204 0
-831 -205 0
-831 -216 0
-831 -253 0
-831 -254 0
-831 -255 0
-831 -256 0
-831 -257 0
-831 -258 0
-831 -259 0
-831 -270 0
-831 -559 0
-831 -560 0
-831 -561 0
-831 -562 0
-831 -563 0
-831 -564 0
-831 -565 0
-831 -576 0
-831 -613 0
-831 -614 0
-831 -615 0
-831 -616 0
-831 -617 0
-831 -618 0
-831 -619 0
-831 -630 0
-831 -667 0
-831 -668 0
-831 -669 0
-831 -670 0
-831 -671 0
-831 -672 0
-831 -673 0
-831 -684 0
-831 -721 0
-831 -722 0
-831 -723 0
-831 -724 0
-831 -725 0
-831 -726 0
-831 -727 0
-831 -738 0
-831 -775 0
-831 -776 0
-831 -777 0
-831 -778 0
-831 -779 0
-831 -780 0
-831 -781 0
-831 -792 0
-832 -37 0
-832 -38 0
-832 -39 0
-832 -40 0
-832 -41 0
-832 -42 0
-832 -43 0
-832 -44 0
-832 -91 0
-832 -92 0
-832 -93 0
-832 -94 0
-832 -95 0
-832 -96 0
-832 -97 0
-832 -98 0
-832 -145 0
-832 -146 0
-832 -147 0
-832 -148 0
-832 -149 0
-832 -150 0
-832 -151 0
-832 -152 0
-832 -199 0
-832 -200 0
-832 -201 0
-832 -202 0
-832 -203 0
-832 -204 0
-832 -205 0
-832 -206 0
-832 -253 0
-832 -254 0
-832 -255 0
-832 -256 0
-832 -257 0
-832 -258 0
-832 -259 0
-832 -260 0
-832 -559 0
-832 -560 0
-832 -561 0
-832 -562 0
-832 -563 0
-832 -564 0
-832 -565 0
-832 -566 0
-832 -613 0
-832 -614 0
-832 -615 0
-832 -616 0
-832 -617 0
-832 -618 0
-832 -619 0
-832 -620 0
-832 -667 0
-832 -668 0
-832 -669 0
-832 -670 0
-832 -671 0
-832 -672 0
-832 -673 0
-832 -674 0
-832 -721 0
-832 -722 0
-832 -723 0
-832 -724 0
-832 -725 0
-832 -726 0
-832 -727 0
-832 -728 0
-832 -775 0
-832 -776 0
-832 -777 0
-832 -778 0
-832 -779 0
-832 -780 0
-832 -781 0
-832 -782 0
-307 -361 0
-307 -415 0
-307 -469 0
-307 -523 0
-307 -577 0
-307 -631 0
-307 -685 0
-307 -739 0
-307 -793 0
-361 -415 0
-361 -469 0
-361 -523 0
-361 -577 0
-361 -631 0
-361 -685 0
-361 -739 0
-361 -793 0
-415 -469 0
-415 -523 0
-415 -577 0
-415 -631 0
-415 -685 0
-415 -739 0
-415 -793 0
-469 -523 0
-469 -577 0
-469 -631 0
-469 -685 0
-469 -739 0
-469 -793 0
-523 -577 0
-523 -631 0
-523 -685 0
-523 -739 0
-523 -793 0
-577 -631 0
-577 -685 0
-577 -739 0
-577 -793 0
-631 -685 0
-631 -739 0
-631 -793 0
-685 -739 0
-685 -793 0
-739 -793 0
-308 -362 0
-308 -416 0
-308 -470 0
-308 -524 0
-308 -578 0
-308 -632 0
-308 -686 0
-308 -740 0
-308 -794 0
-362 -416 0
-362 -470 0
-362 -524 0
-362 -578 0
-362 -632 0
-362 -686 0
-362 -740 0
-362 -794 0
-416 -470 0
-416 -524 0
-416 -578 0
-416 -632 0
-416 -686 0
-416 -740 0
-416 -794 0
-470 -524 0
-470 -578 0
-470 -632 0
-470 -686 0
-470 -740 0
-470 -794 0
-524 -578 0
-524 -632 0
-524 -686 0
-524 -740 0
-524 -794 0
-578 -632 0
-578 -686 0
-578 -740 0
-578 -794 0
-632 -686 0
-632 -740 0
-632 -794 0
-686 -740 0
-686 -794 0
-740 -794 0
-309 -363 0
-309 -417 0
-309 -471 0
-309 -525 0
-309 -579 0
-309 -633 0
-309 -687 0
-309 -741 0
-309 -795 0
-363 -417 0
-363 -471 0
-363 -525 0
-363 -579 0
-363 -633 0
-363 -687 0
-363 -741 0
-363 -795 0
-417 -471 0
-417 -525 0
-417 -579 0
-417 -633 0
-417 -687 0
-417 -741 0
-417 -795 0
-471 -525 0
-471 -579 0
-471 -633 0
-471 -687 0
-471 -741 0
-471 -795 0
-525 -579 0
-525 -633 0
-525 -687 0
-525 -741 0
-525 -795 0
-579 -633 0
-579 -687 0
-579 -741 0
-579 -795 0
-633 -687 0
-633 -741 0
-633 -795 0
-687 -741 0
-687 -795 0
-741 -795 0
-310 -364 0
-310 -418 0
-310 -472 0
-310 -526 0
-310 -580 0
-310 -634 0
-310 -688 0
-310 -742 0
-310 -796 0
-364 -418 0
-364 -472 0
-364 -526 0
-364 -580 0
-364 -634 0
-364 -688 0
-364 -742 0
-364 -796 0
-418 -472 0
-418 -526 0
-418 -580 0
-418 -634 0
-418 -688 0
-418 -742 0
-418 -796 0
-472 -526 0
-472 -580 0
-472 -634 0
-472 -688 0
-472 -742 0
-472 -796 0
-526 -580 0
-526 -634 0
-526 -688 0
-526 -742 0
-526 -796 0
-580 -634 0
-580 -688 0
-580 -742 0
-580 -796 0
-634 -688 0
-634 -742 0
-634 -796 0
-688 -742 0
-688 -796 0
-742 -796 0
-311 -365 0
-311 -419 0
-311 -473 0
-311 -527 0
-311 -581 0
-311 -635 0
-311 -689 0
-311 -743 0
-311 -797 0
-365 -419 0
-365 -473 0
-365 -527 0
-365 -581 0
-365 -635 0
-365 -689 0
-365 -743 0
-365 -797 0
-419 -473 0
-419 -527 0
-419 -581 0
-419 -635 0
-419 -689 0
-419 -743 0
-419 -797 0
-473 -527 0
-473 -581 0
-473 -635 0
-473 -689 0
-473 -743 0
-473 -797 0
-527 -581 0
-527 -635 0
-527 -689 0
-527 -743 0
-527 -797 0
-581 -635 0
-581 -689 0
-581 -743 0
-581 -797 0
-635 -689 0
-635 -743 0
-635 -797 0
-689 -743 0
-689 -797 0
-743 -797 0
-312 -366 0
-312 -420 0
-312 -474 0
-312 -528 0
-312 -582 0
-312 -636 0
-312 -690 0
-312 -744 0
-312 -798 0
-366 -420 0
-366 -474 0
-366 -528 0
-366 -582 0
-366 -636 0
-366 -690 0
-366 -744 0
-366 -798 0
-420 -474 0
-420 -528 0
-420 -582 0
-420 -636 0
-420 -690 0
-420 -744 0
-420 -798 0
-474 -528 0
-474 -582 0
-474 -636 0
-474 -690 0
-474 -744 0
-474 -798 0
-528 -582 0
-528 -636 0
-528 -690 0
-528 -744 0
-528 -798 0
-582 -636 0
-582 -690 0
-582 -744 0
-582 -798 0
-636 -690 0
-636 -744 0
-636 -798 0
-690 -744 0
-690 -798 0
-744 -798 0
-313 -367 0
-313 -421 0
-313 -475 0
-313 -529 0
-313 -583 0
-313 -637 0
-313 -691 0
-313 -745 0
-313 -799 0
-367 -421 0
-367 -475 0
-367 -529 0
-367 -583 0
-367 -637 0
-367 -691 0
-367 -745 0
-367 -799 0
-421 -475 0
-421 -529 0
-421 -583 0
-421 -637 0
-421 -691 0
-421 -745 0
-421 -799 0
-475 -529 0
-475 -583 0
-475 -637 0
-475 -691 0
-475 -745 0
-475 -799 0
-529 -583 0
-529 -637 0
-529 -691 0
-529 -745 0
-529 -799 0
-583 -637 0
-583 -691 0
-583 -745 0
-583 -799 0
-637 -691 0
-637 -745 0
-637 -799 0
-691 -745 0
-691 -799 0
-745 -799 0
-314 -368 0
-314 -422 0
-314 -476 0
-314 -530 0
-314 -584 0
-314 -638 0
-314 -692 0
-314 -746 0
-314 -800 0
-368 -422 0
-368 -476 0
-368 -530 0
-368 -584 0
-368 -638 0
-368 -692 0
-368 -746 0
-368 -800 0
-422 -476 0
-422 -530 0
-422 -584 0
-422 -638 0
-422 -692 0
-422 -746 0
-422 -800 0
-476 -530 0
-476 -584 0
-476 -638 0
-476 -692 0
-476 -746 0
-476 -800 0
-530 -584 0
-530 -638 0
-530 -692 0
-530 -746 0
-530 -800 0
-584 -638 0
-584 -692 0
-584 -746 0
-584 -800 0
-638 -692 0
-638 -746 0
-638 -800 0
-692 -746 0
-692 -800 0
-746 -800 0
-315 -369 0
-315 -423 0
-315 -477 0
-315 -531 0
-315 -585 0
-315 -639 0
-315 -693 0
-315 -747 0
-315 -801 0
-369 -423 0
-369 -477 0
-369 -531 0
-369 -585 0
-369 -639 0
-369 -693 0
-369 -747 0
-369 -801 0
-423 -477 0
-423 -531 0
-423 -585 0
-423 -639 0
-423 -693 0
-423 -747 0
-423 -801 0
-477 -531 0
-477 -585 0
-477 -639 0
-477 -693 0
-477 -747 0
-477 -801 0
-531 -585 0
-531 -639 0
-531 -693 0
-531 -747 0
-531 -801 0
-585 -639 0
-585 -693 0
-585 -747 0
-585 -801 0
-639 -693 0
-639 -747 0
-639 -801 0
-693 -747 0
-693 -801 0
-747 -801 0
-316 -370 0
-316 -424 0
-316 -478 0
-316 -532 0
-316 -586 0
-316 -640 0
-316 -694 0
-316 -748 0
-316 -802 0
-370 -424 0
-370 -478 0
-370 -532 0
-370 -586 0
-370 -640 0
-370 -694 0
-370 -748 0
-370 -802 0
-424 -478 0
-424 -532 0
-424 -586 0
-424 -640 0
-424 -694 0
-424 -748 0
-424 -802 0
-478 -532 0
-478 -586 0
-478 -640 0
-478 -694 0
-478 -748 0
-478 -802 0
-532 -586 0
-532 -640 0
-532 -694 0
-532 -748 0
-532 -802 0
-586 -640 0
-586 -694 0
-586 -748 0
-586 -802 0
-640 -694 0
-640 -748 0
-640 -802 0
-694 -748 0
-694 -802 0
-748 -802 0
-317 -371 0
-317 -425 0
-317 -479 0
-317 -533 0
-317 -587 0
-317 -641 0
-317 -695 0
-317 -749 0
-317 -803 0
-371 -425 0
-371 -479 0
-371 -533 0
-371 -587 0
-371 -641 0
-371 -695 0
-371 -749 0
-371 -803 0
-425 -479 0
-425 -533 0
-425 -587 0
-425 -641 0
-425 -695 0
-425 -749 0
-425 -803 0
-479 -533 0
-479 -587 0
-479 -641 0
-479 -695 0
-479 -749 0
-479 -803 0
-533 -587 0
-533 -641 0
-533 -695 0
-533 -749 0
-533 -803 0
-587 -641 0
-587 -695 0
-587 -749 0
-587 -803 0
-641 -695 0
-641 -749 0
-641 -803 0
-695 -749 0
-695 -803 0
-749 -803 0
-318 -372 0
-318 -426 0
-318 -480 0
-318 -534 0
-318 -588 0
-318 -642 0
-318 -696 0
-318 -750 0
-318 -804 0
-372 -426 0
-372 -480 0
-372 -534 0
-372 -588 0
-372 -642 0
-372 -696 0
-372 -750 0
-372 -804 0
-426 -480 0
-426 -534 0
-426 -588 0
-426 -642 0
-426 -696 0
-426 -750 0
-426 -804 0
-480 -534 0
-480 -588 0
-480 -642 0
-480 -696 0
-480 -750 0
-480 -804 0
-534 -588 0
-534 -642 0
-534 -696 0
-534 -750 0
-534 -804 0
-588 -642 0
-588 -696 0
-588 -750 0
-588 -804 0
-642 -696 0
-642 -750 0
-642 -804 0
-696 -750 0
-696 -804 0
-750 -804 0
-319 -373 0
-319 -427 0
-319 -481 0
-319 -535 0
-319 -589 0
-319 -643 0
-319 -697 0
-319 -751 0
-319 -805 0
-373 -427 0
-373 -481 0
-373 -535 0
-373 -589 0
-373 -643 0
-373 -697 0
-373 -751 0
-373 -805 0
-427 -481 0
-427 -535 0
-427 -589 0
-427 -643 0
-427 -697 0
-427 -751 0
-427 -805 0
-481 -535 0
-481 -589 0
-481 -643 0
-481 -697 0
-481 -751 0
-481 -805 0
-535 -589 0
-535 -643 0
-535 -697 0
-535 -751 0
-535 -805 0
-589 -643 0
-589 -697 0
-589 -751 0
-589 -805 0
-643 -697 0
-643 -751 0
-643 -805 0
-697 -751 0
-697 -805 0
-751 -805 0
-320 -374 0
-320 -428 0
-320 -482 0
-320 -536 0
-320 -590 0
-320 -644 0
-320 -698 0
-320 -752 0
-320 -806 0
-374 -428 0
-374 -482 0
-374 -536 0
-374 -590 0
-374 -644 0
-374 -698 0
-374 -752 0
-374 -806 0
-428 -482 0
-428 -536 0
-428 -590 0
-428 -644 0
-428 -698 0
-428 -752 0
-428 -806 0
-482 -536 0
-482 -590 0
-482 -644 0
-482 -698 0
-482 -752 0
-482 -806 0
-536 -590 0
-536 -644 0
-536 -698 0
-536 -752 0
-536 -806 0
-590 -644 0
-590 -698 0
-590 -752 0
-590 -806 0
-644 -698 0
-644 -752 0
-644 -806 0
-698 -752 0
-698 -806 0
-752 -806 0
-321 -375 0
-321 -429 0
-321 -483 0
-321 -537 0
-321 -591 0
-321 -645 0
-321 -699 0
-321 -753 0
-321 -807 0
-375 -429 0
-375 -483 0
-375 -537 0
-375 -591 0
-375 -645 0
-375 -699 0
-375 -753 0
-375 -807 0
-429 -483 0
-429 -537 0
-429 -591 0
-429 -645 0
-429 -699 0
-429 -753 0
-429 -807 0
-483 -537 0
-483 -591 0
-483 -645 0
-483 -699 0
-483 -753 0
-483 -807 0
-537 -591 0
-537 -645 0
-537 -699 0
-537 -753 0
-537 -807 0
-591 -645 0
-591 -699 0
-591 -753 0
-591 -807 0
-645 -699 0
-645 -753 0
-645 -807 0
-699 -753 0
-699 -807 0
-753 -807 0
-322 -376 0
-322 -430 0
-322 -484 0
-322 -538 0
-322 -592 0
-322 -646 0
-322 -700 0
-322 -754 0
-322 -808 0
-376 -430 0
-376 -484 0
-376 -538 0
-376 -592 0
-376 -646 0
-376 -700 0
-376 -754 0
-376 -808 0
-430 -484 0
-430 -538 0
-430 -592 0
-430 -646 0
-430 -700 0
-430 -754 0
-430 -808 0
-484 -538 0
-484 -592 0
-484 -646 0
-484 -700 0
-484 -754 0
-484 -808 0
-538 -592 0
-538 -646 0
-538 -700 0
-538 -754 0
-538 -808 0
-592 -646 0
-592 -700 0
-592 -754 0
-592 -808 0
-646 -700 0
-646 -754 0
-646 -808 0
-700 -754 0
-700 -808 0
-754 -808 0
-323 -377 0
-323 -431 0
-323 -485 0
-323 -539 0
-323 -593 0
-323 -647 0
-323 -701 0
-323 -755 0
-323 -809 0
-377 -431 0
-377 -485 0
-377 -539 0
-377 -593 0
-377 -647 0
-377 -701 0
-377 -755 0
-377 -809 0
-431 -485 0
-431 -539 0
-431 -593 0
-431 -647 0
-431 -701 0
-431 -755 0
-431 -809 0
-485 -539 0
-485 -593 0
-485 -647 0
-485 -701 0
-485 -755 0
-485 -809 0
-539 -593 0
-539 -647 0
-539 -701 0
-539 -755 0
-539 -809 0
-593 -647 0
-593 -701 0
-593 -755 0
-593 -809 0
-647 -701 0
-647 -755 0
-647 -809 0
-701 -755 0
-701 -809 0
-755 -809 0
-324 -378 0
-324 -432 0
-324 -486 0
-324 -540 0
-324 -594 0
-324 -648 0
-324 -702 0
-324 -756 0
-324 -810 0
-378 -432 0
-378 -486 0
-378 -540 0
-378 -594 0
-378 -648 0
-378 -702 0
-378 -756 0
-378 -810 0
-432 -486 0
-432 -540 0
-432 -594 0
-432 -648 0
-432 -702 0
-432 -756 0
-432 -810 0
-486 -540 0
-486 -594 0
-486 -648 0
-486 -702 0
-486 -756 0
-486 -810 0
-540 -594 0
-540 -648 0
-540 -702 0
-540 -756 0
-540 -810 0
-594 -648 0
-594 -702 0
-594 -756 0
-594 -810 0
-648 -702 0
-648 -756 0
-648 -810 0
-702 -756 0
-702 -810 0
-756 -810 0
833 834 835 836 837 838 839 840 841 0
-833 -834 0
-833 -835 0
-833 -836 0
-833 -837 0
-833 -838 0
-833 -839 0
-833 -840 0
-833 -841 0
-834 -835 0
-834 -836 0
-834 -837 0
-834 -838 0
-834 -839 0
-834 -840 0
-834 -841 0
-835 -836 0
-835 -837 0
-835 -838 0
-835 -839 0
-835 -840 0
-835 -841 0
-836 -837 0
-836 -838 0
-836 -839 0
-836 -840 0
-836 -841 0
-837 -838 0
-837 -839 0
-837 -840 0
-837 -841 0
-838 -839 0
-838 -840 0
-838 -841 0
-839 -840 0
-839 -841 0
-840 -841 0
-307 833 0
-308 833 834 0
-309 833 834 835 0
-310 833 834 835 836 0
-311 833 834 835 836 837 0
-312 833 834 835 836 837 838 0
-313 833 834 835 836 837 838 839 0
-314 833 834 835 836 837 838 839 840 0
-315 833 834 835 836 837 838 839 840 841 0
-316 833 834 835 836 837 838 839 840 841 0
-317 834 835 836 837 838 839 840 841 0
-318 835 836 837 838 839 840 841 0
-319 836 837 838 839 840 841 0
-320 837 838 839 840 841 0
-321 838 839 840 841 0
-322 839 840 841 0
-323 840 841 0
-324 841 0
-361 833 0
-362 833 834 0
-363 833 834 835 0
-364 833 834 835 836 0
-365 833 834 835 836 837 0
-366 833 834 835 836 837 838 0
-367 833 834 835 836 837 838 839 0
-368 833 834 835 836 837 838 839 840 0
-369 833 834 835 836 837 838 839 840 841 0
-370 833 834 835 836 837 838 839 840 841 0
-371 834 835 836 837 838 839 840 841 0
-372 835 836 837 838 839 840 841 0
-373 836 837 838 839 840 841 0
-374 837 838 839 840 841 0
-375 838 839 840 841 0
-376 839 840 841 0
-377 840 841 0
-378 841 0
-415 833 0
-416 833 834 0
-417 833 834 835 0
-418 833 834 835 836 0
-419 833 834 835 836 837 0
-420 833 834 835 836 837 838 0
-421 833 834 835 836 837 838 839 0
-422 833 834 835 836 837 838 839 840 0
-423 833 834 835 836 837 838 839 840 841 0
-424 833 834 835 836 837 838 839 840 841 0
-425 834 835 836 837 838 839 840 841 0
-426 835 836 837 838 839 840 841 0
-427 836 837 838 839 840 841 0
-428 837 838 839 840 841 0
-429 838 839 840 841 0
-430 839 840 841 0
-431 840 841 0
-432 841 0
-469 833 0
-470 833 834 0
-471 833 834 835 0
-472 833 834 835 836 0
-473 833 834 835 836 837 0
-474 833 834 835 836 837 838 0
-475 833 834 835 836 837 838 839 0
-476 833 834 835 836 837 838 839 840 0
-477 833 834 835 836 837 838 839 840 841 0
-478 833 834 835 836 837 838 839 840 841 0
-479 834 835 836 837 838 839 840 841 0
-480 835 836 837 838 839 840 841 0
-481 836 837 838 839 840 841 0
-482 837 838 839 840 841 0
-483 838 839 840 841 0
-484 839 840 841 0
-485 840 841 0
-486 841 0
-523 833 0
-524 833 834 0
-525 833 834 835 0
-526 833 834 835 836 0
-527 833 834 835 836 837 0
-528 833 834 835 836 837 838 0
-529 833 834 835 836 837 838 839 0
-530 833 834 835 836 837 838 839 840 0
-531 833 834 835 836 837 838 839 840 841 0
-532 833 834 835 836 837 838 839 840 841 0
-533 834 835 836 837 838 839 840 841 0
-534 835 836 837 838 839 840 841 0
-535 836 837 838 839 840 841 0
-536 837 838 839 840 841 0
-537 838 839 840 841 0
-538 839 840 841 0
-539 840 841 0
-540 841 0
-577 833 0
-578 833 834 0
-579 833 834 835 0
-580 833 834 835 836 0
-581 833 834 835 836 837 0
-582 833 834 835 836 837 838 0
-583 833 834 835 836 837 838 839 0
-584 833 834 835 836 837 838 839 840 0
-585 833 834 835 836 837 838 839 840 841 0
-586 833 834 835 836 837 838 839 840 841 0
-587 834 835 836 837 838 839 840 841 0
-588 835 836 837 838 839 840 841 0
-589 836 837 838 839 840 841 0
-590 837 838 839 840 841 0
-591 838 839 840 841 0
-592 839 840 841 0
-593 840 841 0
-594 841 0
-631 833 0
-632 833 834 0
-633 833 834 835 0
-634 833 834 835 836 0
-635 833 834 835 836 837 0
-636 833 834 835 836 837 838 0
-637 833 834 835 836 837 838 839 0
-638 833 834 835 836 837 838 839 840 0
-639 833 834 835 836 837 838 839 840 841 0
-640 833 834 835 836 837 838 839 840 841 0
-641 834 835 836 837 838 839 840 841 0
-642 835 836 837 838 839 840 841 0
-643 836 837 838 839 840 841 0
-644 837 838 839 840 841 0
-645 838 839 840 841 0
-646 839 840 841 0
-647 840 841 0
-648 841 0
-685 833 0
-686 833 834 0
-687 833 834 835 0
-688 833 834 835 836 0
-689 833 834 835 836 837 0
-690 833 834 835 836 837 838 0
-691 833 834 835 836 837 838 839 0
-692 833 834 835 836 837 838 839 840 0
-693 833 834 835 836 837 838 839 840 841 0
-694 833 834 835 836 837 838 839 840 841 0
-695 834 835 836 837 838 839 840 841 0
-696 835 836 837 838 839 840 841 0
-697 836 837 838 839 840 841 0
-698 837 838 839 840 841 0
-699 838 839 840 841 0
-700 839 840 841 0
-701 840 841 0
-702 841 0
-739 833 0
-740 833 834 0
-741 833 834 835 0
-742 833 834 835 836 0
-743 833 834 835 836 837 0
-744 833 834 835 836 837 838 0
-745 833 834 835 836 837 838 839 0
-746 833 834 835 836 837 838 839 840 0
-747 833 834 835 836 837 838 839 840 841 0
-748 833 834 835 836 837 838 839 840 841 0
-749 834 835 836 837 838 839 840 841 0
-750 835 836 837 838 839 840 841 0
-751 836 837 838 839 840 841 0
-752 837 838 839 840 841 0
-753 838 839 840 841 0
-754 839 840 841 0
-755 840 841 0
-756 841 0
-793 833 0
-794 833 834 0
-795 833 834 835 0
-796 833 834 835 836 0
-797 833 834 835 836 837 0
-798 833 834 835 836 837 838 0
-799 833 834 835 836 837 838 839 0
-800 833 834 835 836 837 838 839 840 0
-801 833 834 835 836 837 838 839 840 841 0
-802 833 834 835 836 837 838 839 840 841 0
-803 834 835 836 837 838 839 840 841 0
-804 835 836 837 838 839 840 841 0
-805 836 837 838 839 840 841 0
-806 837 838 839 840 841 0
-807 838 839 840 841 0
-808 839 840 841 0
-809 840 841 0
-810 841 0
-833 -317 0
-833 -318 0
-833 -319 0
-833 -320 0
-833 -321 0
-833 -322 0
-833 -323 0
-833 -324 0
-833 -371 0
-833 -372 0
-833 -373 0
-833 -374 0
-833 -375 0
-833 -376 0
-833 -377 0
-833 -378 0
-833 -425 0
-833 -426 0
-833 -427 0
-833 -428 0
-833 -429 0
-833 -430 0
-833 -431 0
-833 -432 0
-833 -479 0
-833 -480 0
-833 -481 0
-833 -482 0
-833 -483 0
-833 -484 0
-833 -485 0
-833 -486 0
-833 -533 0
-833 -534 0
-833 -535 0
-833 -536 0
-833 -537 0
-833 -538 0
-833 -539 0
-833 -540 0
-833 -587 0
-833 -588 0
-833 -589 0
-833 -590 0
-833 -591 0
-833 -592 0
-833 -593 0
-833 -594 0
-833 -641 0
-833 -642 0
-833 -643 0
-833 -644 0
-833 -645 0
-833 -646 0
-833 -647 0
-833 -648 0
-833 -695 0
-833 -696 0
-833 -697 0
-833 -698 0
-833 -699 0
-833 -700 0
-833 -701 0
-833 -702 0
-833 -749 0
-833 -750 0
-833 -751 0
-833 -752 0
-833 -753 0
-833 -754 0
-833 -755 0
-833 -756 0
-833 -803 0
-833 -804 0
-833 -805 0
-833 -806 0
-833 -807 0
-833 -808 0
-833 -809 0
-833 -810 0
-834 -307 0
-834 -318 0
-834 -319 0
-834 -320 0
-834 -321 0
-834 -322 0
-834 -323 0
-834 -324 0
-834 -361 0
-834 -372 0
-834 -373 0
-834 -374 0
-834 -375 0
-834 -376 0
-834 -377 0
-834 -378 0
-834 -415 0
-834 -426 0
-834 -427 0
-834 -428 0
-834 -429 0
-834 -430 0
-834 -431 0
-834 -432 0
-834 -469 0
-834 -480 0
-834 -481 0
-834 -482 0
-834 -483 0
-834 -484 0
-834 -485 0
-834 -486 0
-834 -523 0
-834 -534 0
-834 -535 0
-834 -536 0
-834 -537 0
-834 -538 0
-834 -539 0
-834 -540 0
-834 -577 0
-834 -588 0
-834 -589 0
-834 -590 0
-834 -591 0
-834 -592 0
-834 -593 0
-834 -594 0
-834 -631 0
-834 -642 0
-834 -643 0
-834 -644 0
-834 -645 0
-834 -646 0
-834 -647 0
-834 -648 0
-834 -685 0
-834 -696 0
-834 -697 0
-834 -698 0
-834 -699 0
-834 -700 0
-834 -701 0
-834 -702 0
-834 -739 0
-834 -750 0
-834 -751 0
-834 -752 0
-834 -753 0
-834 -754 0
-834 -755 0
-834 -756 0
-834 -793 0
-834 -804 0
-834 -805 0
-834 -806 0
-834 -807 0
-834 -808 0
-834 -809 0
-834 -810 0
-835 -307 0
-835 -308 0
-835 -319 0
-835 -320 0
-835 -321 0
-835 -322 0
-835 -323 0
-835 -324 0
-835 -361 0
-835 -362 0
-835 -373 0
-835 -374 0
-835 -375 0
-835 -376 0
-835 -377 0
-835 -378 0
-835 -415 0
-835 -416 0
-835 -427 0
-835 -428 0
-835 -429 0
-835 -430 0
-835 -431 0
-835 -432 0
-835 -469 0
-835 -470 0
-835 -481 0
-835 -482 0
-835 -483 0
-835 -484 0
-835 -485 0
-835 -486 0
-835 -523 0
-835 -524 0
-835 -535 0
-835 -536 0
-835 -537 0
-835 -538 0
-835 -539 0
-835 -540 0
-835 -577 0
-835 -578 0
-835 -589 0
-835 -590 0
-835 -591 0
-835 -592 0
-835 -593 0
-835 -594 0
-835 -631 0
-835 -632 0
-835 -643 0
-835 -644 0
-835 -645 0
-835 -646 0
-835 -647 0
-835 -648 0
-835 -685 0
-835 -686 0
-835 -697 0
-835 -698 0
-835 -699 0
-835 -700 0
-835 -701 0
-835 -702 0
-835 -739 0
-835 -740 0
-835 -751 0
-835 -752 0
-835 -753 0
-835 -754 0
-835 -755 0
-835 -756 0
-835 -793 0
-835 -794 0
-835 -805 0
-835 -806 0
-835 -807 0
-835 -808 0
-835 -809 0
-835 -810 0
-836 -307 0
-836 -308 0
-836 -309 0
-836 -320 0
-836 -321 0
-836 -322 0
-836 -323 0
-836 -324 0
-836 -361 0
-836 -362 0
-836 -363 0
-836 -374 0
-836 -375 0
-836 -376 0
-836 -377 0
-836 -378 0
-836 -415 0
-836 -416 0
-836 -417 0
-836 -428 0
-836 -429 0
-836 -430 0
-836 -431 0
-836 -432 0
-836 -469 0
-836 -470 0
-836 -471 0
-836 -482 0
-836 -483 0
-836 -484 0
-836 -485 0
-836 -486 0
-836 -523 0
-836 -524 0
-836 -525 0
-836 -536 0
-836 -537 0
-836 -538 0
-836 -539 0
-836 -540 0
-836 -577 0
-836 -578 0
-836 -579 0
-836 -590 0
-836 -591 0
-836 -592 0
-836 -593 0
-836 -594 0
-836 -631 0
-836 -632 0
-836 -633 0
-836 -644 0
-836 -645 0
-836 -646 0
-836 -647 0
-836 -648 0
-836 -685 0
-836 -686 0
-836 -687 0
-836 -698 0
-836 -699 0
-836 -700 0
-836 -701 0
-836 -702 0
-836 -739 0
-836 -740 0
-836 -741 0
-836 -752 0
-836 -753 0
-836 -754 0
-836 -755 0
-836 -756 0
-836 -793 0
-836 -794 0
-836 -795 0
-836 -806 0
-836 -807 0
-836 -808 0
-836 -809 0
-836 -810 0
-837 -307 0
-837 -308 0
-837 -309 0
-837 -310 0
-837 -321 0
-837 -322 0
-837 -323 0
-837 -324 0
-837 -361 0
-837 -362 0
-837 -363 0
-837 -364 0
-837 -375 0
-837 -376 0
-837 -377 0
-837 -378 0
-837 -415 0
-837 -416 0
-837 -417 0
-837 -418 0
-837 -429 0
-837 -430 0
-837 -431 0
-837 -432 0
-837 -469 0
-837 -470 0
-837 -471 0
-837 -472 0
-837 -483 0
-837 -484 0
-837 -485 0
-837 -486 0
-837 -523 0
-837 -524 0
-837 -525 0
-837 -526 0
-837 -537 0
-837 -538 0
-837 -539 0
-837 -540 0
-837 -577 0
-837 -578 0
-837 -579 0
-837 -580 0
-837 -591 0
-837 -592 0
-837 -593 0
-837 -594 0
-837 -631 0
-837 -632 0
-837 -633 0
-837 -634 0
-837 -645 0
-837 -646 0
-837 -647 0
-837 -648 0
-837 -685 0
-837 -686 0
-837 -687 0
-837 -688 0
-837 -699 0
-837 -700 0
-837 -701 0
-837 -702 0
-837 -739 0
-837 -740 0
-837 -741 0
-837 -742 0
-837 -753 0
-837 -754 0
-837 -755 0
-837 -756 0
-837 -793 0
-837 -794 0
-837 -795 0
-837 -796 0
-837 -807 0
-837 -808 0
-837 -809 0
-837 -810 0
-838 -307 0
-838 -308 0
-838 -309 0
-838 -310 0
-838 -311 0
-838 -322 0
-838 -323 0
-838 -324 0
-838 -361 0
-838 -362 0
-838 -363 0
-838 -364 0
-838 -365 0
-838 -376 0
-838 -377 0
-838 -378 0
-838 -415 0
-838 -416 0
-838 -417 0
-838 -418 0
-838 -419 0
-838 -430 0
-838 -431 0
-838 -432 0
-838 -469 0
-838 -470 0
-838 -471 0
-838 -472 0
-838 -473 0
-838 -484 0
-838 -485 0
-838 -486 0
-838 -523 0
-838 -524 0
-838 -525 0
-838 -526 0
-838 -527 0
-838 -538 0
-838 -539 0
-838 -540 0
-838 -577 0
-838 -578 0
-838 -579 0
-838 -580 0
-838 -581 0
-838 -592 0
-838 -593 0
-838 -594 0
-838 -631 0
-838 -632 0
-838 -633 0
-838 -634 0
-838 -635 0
-838 -646 0
-838 -647 0
-838 -648 0
-838 -685 0
-838 -686 0
-838 -687 0
-838 -688 0
-838 -689 0
-838 -700 0
-838 -701 0
-838 -702 0
-838 -739 0
-838 -740 0
-838 -741 0
-838 -742 0
-838 -743 0
-838 -754 0
-838 -755 0
-838 -756 0
-838 -793 0
-838 -794 0
-838 -795 0
-838 -796 0
-838 -797 0
-838 -808 0
-838 -809 0
-838 -810 0
-839 -307 0
-839 -308 0
-839 -309 0
-839 -310 0
-839 -311 0
-839 -312 0
-839 -323 0
-839 -324 0
-839 -361 0
-839 -362 0
-839 -363 0
-839 -364 0
-839 -365 0
-839 -366 0
-839 -377 0
-839 -378 0
-839 -415 0
-839 -416 0
-839 -417 0
-839 -418 0
-839 -419 0
-839 -420 0
-839 -431 0
-839 -432 0
-839 -469 0
-839 -470 0
-839 -471 0
-839 -472 0
-839 -473 0
-839 -474 0
-839 -485 0
-839 -486 0
-839 -523 0
-839 -524 0
-839 -525 0
-839 -526 0
-839 -527 0
-839 -528 0
-839 -539 0
-839 -540 0
-839 -577 0
-839 -578 0
-839 -579 0
-839 -580 0
-839 -581 0
-839 -582 0
-839 -593 0
-839 -594 0
-839 -631 0
-839 -632 0
-839 -633 0
-839 -634 0
-839 -635 0
-839 -636 0
-839 -647 0
-839 -648 0
-839 -685 0
-839 -686 0
-839 -687 0
-839 -688 0
-839 -689 0
-839 -690 0
-839 -701 0
-839 -702 0
-839 -739 0
-839 -740 0
-839 -741 0
-839 -742 0
-839 -743 0
-839 -744 0
-839 -755 0
-839 -756 0
-839 -793 0
-839 -794 0
-839 -795 0
-839 -796 0
-839 -797 0
-839 -798 0
-839 -809 0
-839 -810 0
-840 -307 0
-840 -308 0
-840 -309 0
-840 -310 0
-840 -311 0
-840 -312 0
-840 -313 0
-840 -324 0
-840 -361 0
-840 -362 0
-840 -363 0
-840 -364 0
-840 -365 0
-840 -366 0
-840 -367 0
-840 -378 0
-840 -415 0
-840 -416 0
-840 -417 0
-840 -418 0
-840 -419 0
-840 -420 0
-840 -421 0
-840 -432 0
-840 -469 0
-840 -470 0
-840 -471 0
-840 -472 0
-840 -473 0
-840 -474 0
-840 -475 0
-840 -486 0
-840 -523 0
-840 -524 0
-840 -525 0
-840 -526 0
-840 -527 0
-840 -528 0
-840 -529 0
-840 -540 0
-840 -577 0
-840 -578 0
-840 -579 0
-840 -580 0
-840 -581 0
-840 -582 0
-840 -583 0
-840 -594 0
-840 -631 0
-840 -632 0
-840 -633 0
-840 -634 0
-840 -635 0
-840 -636 0
-840 -637 0
-840 -648 0
-840 -685 0
-840 -686 0
-840 -687 0
-840 -688 0
-840 -689 0
-840 -690 0
-840 -691 0
-840 -702 0
-840 -739 0
-840 -740 0
-840 -741 0
-840 -742 0
-840 -743 0
-840 -744 0
-840 -745 0
-840 -756 0
-840 -793 0
-840 -794 0
-840 -795 0
-840 -796 0
-840 -797 0
-840 -798 0
-840 -799 0
-840 -810 0
-841 -307 0
-841 -308 0
-841 -309 0
-841 -310 0
-841 -311 0
-841 -312 0
-841 -313 0
-841 -314 0
-841 -361 0
-841 -362 0
-841 -363 0
-841 -364 0
-841 -365 0
-841 -366 0
-841 -367 0
-841 -368 0
-841 -415 0
-841 -416 0
-841 -417 0
-841 -418 0
-841 -419 0
-841 -420 0
-841 -421 0
-841 -422 0
-841 -469 0
-841 -470 0
-841 -471 0
-841 -472 0
-841 -473 0
-841 -474 0
-841 -475 0
-841 -476 0
-841 -523 0
-841 -524 0
-841 -525 0
-841 -526 0
-841 -527 0
-841 -528 0
-841 -529 0
-841 -530 0
-841 -577 0
-841 -578 0
-841 -579 0
-841 -580 0
-841 -581 0
-841 -582 0
-841 -583 0
-841 -584 0
-841 -631 0
-841 -632 0
-841 -633 0
-841 -634 0
-841 -635 0
-841 -636 0
-841 -637 0
-841 -638 0
-841 -685 0
-841 -686 0
-841 -687 0
-841 -688 0
-841 -689 0
-841 -690 0
-841 -691 0
-841 -692 0
-841 -739 0
-841 -740 0
-841 -741 0
-841 -742 0
-841 -743 0
-841 -744 0
-841 -745 0
-841 -746 0
-841 -793 0
-841 -794 0
-841 -795 0
-841 -796 0
-841 -797 0
-841 -798 0
-841 -799 0
-841 -800 0
-1 -19 0
-1 -37 0
-19 -37 0
-2 -20 0
-2 -38 0
-20 -38 0
-3 -21 0
-3 -39 0
-21 -39 0
-4 -22 0
-4 -40 0
-22 -40 0
-5 -23 0
-5 -41 0
-23 -41 0
-6 -24 0
-6 -42 0
-24 -42 0
-7 -25 0
-7 -43 0
-25 -43 0
-8 -26 0
-8 -44 0
-26 -44 0
-9 -27 0
-9 -45 0
-27 -45 0
-10 -28 0
-10 -46 0
-28 -46 0
-11 -29 0
-11 -47 0
-29 -47 0
-12 -30 0
-12 -48 0
-30 -48 0
-13 -31 0
-13 -49 0
-31 -49 0
-14 -32 0
-14 -50 0
-32 -50 0
-15 -33 0
-15 -51 0
-33 -51 0
-16 -34 0
-16 -52 0
-34 -52 0
-17 -35 0
-17 -53 0
-35 -53 0
-18 -36 0
-18 -54 0
-36 -54 0
842 843 844 845 846 847 848 849 850 851 852 853 854 855 856 857 0
-842 -843 0
-842 -844 0
-842 -845 0
-842 -846 0
-842 -847 0
-842 -848 0
-842 -849 0
-842 -850 0
-842 -851 0
-842 -852 0
-842 -853 0
-842 -854 0
-842 -855 0
-842 -856 0
-842 -857 0
-843 -844 0
-843 -845 0
-843 -846 0
-843 -847 0
-843 -848 0
-843 -849 0
-843 -850 0
-843 -851 0
-843 -852 0
-843 -853 0
-843 -854 0
-843 -855 0
-843 -856 0
-843 -857 0
-844 -845 0
-844 -846 0
-844 -847 0
-844 -848 0
-844 -849 0
-844 -850 0
-844 -851 0
-844 -852 0
-844 -853 0
-844 -854 0
-844 -855 0
-844 -856 0
-844 -857 0
-845 -846 0
-845 -847 0
-845 -848 0
-845 -849 0
-845 -850 0
-845 -851 0
-845 -852 0
-845 -853 0
-845 -854 0
-845 -855 0
-845 -856 0
-845 -857 0
-846 -847 0
-846 -848 0
-846 -849 0
-846 -850 0
-846 -851 0
-846 -852 0
-846 -853 0
-846 -854 0
-846 -855 0
-846 -856 0
-846 -857 0
-847 -848 0
-847 -849 0
-847 -850 0
-847 -851 0
-847 -852 0
-847 -853 0
-847 -854 0
-847 -855 0
-847 -856 0
-847 -857 0
-848 -849 0
-848 -850 0
-848 -851 0
-848 -852 0
-848 -853 0
-848 -854 0
-848 -855 0
-848 -856 0
-848 -857 0
-849 -850 0
-849 -851 0
-849 -852 0
-849 -853 0
-849 -854 0
-849 -855 0
-849 -856 0
-849 -857 0
-850 -851 0
-850 -852 0
-850 -853 0
-850 -854 0
-850 -855 0
-850 -856 0
-850 -857 0
-851 -852 0
-851 -853 0
-851 -854 0
-851 -855 0
-851 -856 0
-851 -857 0
-852 -853 0
-852 -854 0
-852 -855 0
-852 -856 0
-852 -857 0
-853 -854 0
-853 -855 0
-853 -856 0
-853 -857 0
-854 -855 0
-854 -856 0
-854 -857 0
-855 -856 0
-855 -857 0
-856 -857 0
-1 842 0
-2 842 843 0
-3 842 843 844 0
-4 843 844 845 0
-5 844 845 846 0
-6 845 846 847 0
-7 846 847 848 0
-8 847 848 849 0
-9 848 849 850 0
-10 849 850 851 0
-11 850 851 852 0
-12 851 852 853 0
-13 852 853 854 0
-14 853 854 855 0
-15 854 855 856 0
-16 855 856 857 0
-17 856 857 0
-18 857 0
-19 842 0
-20 842 843 0
-21 842 843 844 0
-22 843 844 845 0
-23 844 845 846 0
-24 845 846 847 0
-25 846 847 848 0
-26 847 848 849 0
-27 848 849 850 0
-28 849 850 851 0
-29 850 851 852 0
-30 851 852 853 0
-31 852 853 854 0
-32 853 854 855 0
-33 854 855 856 0
-34 855 856 857 0
-35 856 857 0
-36 857 0
-37 842 0
-38 842 843 0
-39 842 843 844 0
-40 843 844 845 0
-41 844 845 846 0
-42 845 846 847 0
-43 846 847 848 0
-44 847 848 849 0
-45 848 849 850 0
-46 849 850 851 0
-47 850 851 852 0
-48 851 852 853 0
-49 852 853 854 0
-50 853 854 855 0
-51 854 855 856 0
-52 855 856 857 0
-53 856 857 0
-54 857 0
-842 -4 0
-842 -5 0
-842 -6 0
-842 -7 0
-842 -8 0
-842 -9 0
-842 -10 0
-842 -11 0
-842 -12 0
-842 -13 0
-842 -14 0
-842 -15 0
-842 -16 0
-842 -17 0
-842 -18 0
-842 -22 0
-842 -23 0
-842 -24 0
-842 -25 0
-842 -26 0
-842 -27 0
-842 -28 0
-842 -29 0
-842 -30 0
-842 -31 0
-842 -32 0
-842 -33 0
-842 -34 0
-842 -35 0
-842 -36 0
-842 -40 0
-842 -41 0
-842 -42 0
-842 -43 0
-842 -44 0
-842 -45 0
-842 -46 0
-842 -47 0
-842 -48 0
-842 -49 0
-842 -50 0
-842 -51 0
-842 -52 0
-842 -53 0
-842 -54 0
-843 -1 0
-843 -5 0
-843 -6 0
-843 -7 0
-843 -8 0
-843 -9 0
-843 -10 0
-843 -11 0
-843 -12 0
-843 -13 0
-843 -14 0
-843 -15 0
-843 -16 0
-843 -17 0
-843 -18 0
-843 -19 0
-843 -23 0
-843 -24 0
-843 -25 0
-843 -26 0
-843 -27 0
-843 -28 0
-843 -29 0
-843 -30 0
-843 -31 0
-843 -32 0
-843 -33 0
-843 -34 0
-843 -35 0
-843 -36 0
-843 -37 0
-843 -41 0
-843 -42 0
-843 -43 0
-843 -44 0
-843 -45 0
-843 -46 0
-843 -47 0
-843 -48 0
-843 -49 0
-843 -50 0
-843 -51 0
-843 -52 0
-843 -53 0
-843 -54 0
-844 -1 0
-844 -2 0
-844 -6 0
-844 -7 0
-844 -8 0
-844 -9 0
-844 -10 0
-844 -11 0
-844 -12 0
-844 -13 0
-844 -14 0
-844 -15 0
-844 -16 0
-844 -17 0
-844 -18 0
-844 -19 0
-844 -20 0
-844 -24 0
-844 -25 0
-844 -26 0
-844 -27 0
-844 -28 0
-844 -29 0
-844 -30 0
-844 -31 0
-844 -32 0
-844 -33 0
-844 -34 0
-844 -35 0
-844 -36 0
-844 -37 0
-844 -38 0
-844 -42 0
-844 -43 0
-844 -44 0
-844 -45 0
-844 -46 0
-844 -47 0
-844 -48 0
-844 -49 0
-844 -50 0
-844 -51 0
-844 -52 0
-844 -53 0
-844 -54 0
-845 -1 0
-845 -2 0
-845 -3 0
-845 -7 0
-845 -8 0
-845 -9 0
-845 -10 0
-845 -11 0
-845 -12 0
-845 -13 0
-845 -14 0
-845 -15 0
-845 -16 0
-845 -17 0
-845 -18 0
-845 -19 0
-845 -20 0
-845 -21 0
-845 -25 0
-845 -26 0
-845 -27 0
-845 -28 0
-845 -29 0
-845 -30 0
-845 -31 0
-845 -32 0
-845 -33 0
-845 -34 0
-845 -35 0
-845 -36 0
-845 -37 0
-845 -38 0
-845 -39 0
-845 -43 0
-845 -44 0
-845 -45 0
-845 -46 0
-845 -47 0
-845 -48 0
-845 -49 0
-845 -50 0
-845 -51 0
-845 -52 0
-845 -53 0
-845 -54 0
-846 -1 0
-846 -2 0
-846 -3 0
-846 -4 0
-846 -8 0
-846 -9 0
-846 -10 0
-846 -11 0
-846 -12 0
-846 -13 0
-846 -14 0
-846 -15 0
-846 -16 0
-846 -17 0
-846 -18 0
-846 -19 0
-846 -20 0
-846 -21 0
-846 -22 0
-846 -26 0
-846 -27 0
-846 -28 0
-846 -29 0
-846 -30 0
-846 -31 0
-846 -32 0
-846 -33 0
-846 -34 0
-846 -35 0
-846 -36 0
-846 -37 0
-846 -38 0
-846 -39 0
-846 -40 0
-846 -44 0
-846 -45 0
-846 -46 0
-846 -47 0
-846 -48 0
-846 -49 0
-846 -50 0
-846 -51 0
-846 -52 0
-846 -53 0
-846 -54 0
-847 -1 0
-847 -2 0
-847 -3 0
-847 -4 0
-847 -5 0
-847 -9 0
-847 -10 0
-847 -11 0
-847 -12 0
-847 -13 0
-847 -14 0
-847 -15 0
-847 -16 0
-847 -17 0
-847 -18 0
-847 -19 0
-847 -20 0
-847 -21 0
-847 -22 0
-847 -23 0
-847 -27 0
-847 -28 0
-847 -29 0
-847 -30 0
-847 -31 0
-847 -32 0
-847 -33 0
-847 -34 0
-847 -35 0
-847 -36 0
-847 -37 0
-847 -38 0
-847 -39 0
-847 -40 0
-847 -41 0
-847 -45 0
-847 -46 0
-847 -47 0
-847 -48 0
-847 -49 0
-847 -50 0
-847 -51 0
-847 -52 0
-847 -53 0
-847 -54 0
-848 -1 0
-848 -2 0
-848 -3 0
-848 -4 0
-848 -5 0
-848 -6 0
-848 -10 0
-848 -11 0
-848 -12 0
-848 -13 0
-848 -14 0
-848 -15 0
-848 -16 0
-848 -17 0
-848 -18 0
-848 -19 0
-848 -20 0
-848 -21 0
-848 -22 0
-848 -23 0
-848 -24 0
-848 -28 0
-848 -29 0
-848 -30 0
-848 -31 0
-848 -32 0
-848 -33 0
-848 -34 0
-848 -35 0
-848 -36 0
-848 -37 0
-848 -38 0
-848 -39 0
-848 -40 0
-848 -41 0
-848 -42 0
-848 -46 0
-848 -47 0
-848 -48 0
-848 -49 0
-848 -50 0
-848 -51 0
-848 -52 0
-848 -53 0
-848 -54 0
-849 -1 0
-849 -2 0
-849 -3 0
-849 -4 0
-849 -5 0
-849 -6 0
-849 -7 0
-849 -11 0
-849 -12 0
-849 -13 0
-849 -14 0
-849 -15 0
-849 -16 0
-849 -17 0
-849 -18 0
-849 -19 0
-849 -20 0
-849 -21 0
-849 -22 0
-849 -23 0
-849 -24 0
-849 -25 0
-849 -29 0
-849 -30 0
-849 -31 0
-849 -32 0
-849 -33 0
-849 -34 0
-849 -35 0
-849 -36 0
-849 -37 0
-849 -38 0
-849 -39 0
-849 -40 0
-849 -41 0
-849 -42 0
-849 -43 0
-849 -47 0
-849 -48 0
-849 -49 0
-849 -50 0
-849 -51 0
-849 -52 0
-849 -53 0
-849 -54 0
-850 -1 0
-850 -2 0
-850 -3 0
-850 -4 0
-850 -5 0
-850 -6 0
-850 -7 0
-850 -8 0
-850 -12 0
-850 -13 0
-850 -14 0
-850 -15 0
-850 -16 0
-850 -17 0
-850 -18 0
-850 -19 0
-850 -20 0
-850 -21 0
-850 -22 0
-850 -23 0
-850 -24 0
-850 -25 0
-850 -26 0
-850 -30 0
-850 -31 0
-850 -32 0
-850 -33 0
-850 -34 0
-850 -35 0
-850 -36 0
-850 -37 0
-850 -38 0
-850 -39 0
-850 -40 0
-850 -41 0
-850 -42 0
-850 -43 0
-850 -44 0
-850 -48 0
-850 -49 0
-850 -50 0
-850 -51 0
-850 -52 0
-850 -53 0
-850 -54 0
-851 -1 0
-851 -2 0
-851 -3 0
-851 -4 0
-851 -5 0
-851 -6 0
-851 -7 0
-851 -8 0
-851 -9 0
-851 -13 0
-851 -14 0
-851 -15 0
-851 -16 0
-851 -17 0
-851 -18 0
-851 -19 0
-851 -20 0
-851 -21 0
-851 -22 0
-851 -23 0
-851 -24 0
-851 -25 0
-851 -26 0
-851 -27 0
-851 -31 0
-851 -32 0
-851 -33 0
-851 -34 0
-851 -35 0
-851 -36 0
-851 -37 0
-851 -38 0
-851 -39 0
-851 -40 0
-851 -41 0
-851 -42 0
-851 -43 0
-851 -44 0
-851 -45 0
-851 -49 0
-851 -50 0
-851 -51 0
-851 -52 0
-851 -53 0
-851 -54 0
-852 -1 0
-852 -2 0
-852 -3 0
-852 -4 0
-852 -5 0
-852 -6 0
-852 -7 0
-852 -8 0
-852 -9 0
-852 -10 0
-852 -14 0
-852 -15 0
-852 -16 0
-852 -17 0
-852 -18 0
-852 -19 0
-852 -20 0
-852 -21 0
-852 -22 0
-852 -23 0
-852 -24 0
-852 -25 0
-852 -26 0
-852 -27 0
-852 -28 0
-852 -32 0
-852 -33 0
-852 -34 0
-852 -35 0
-852 -36 0
-852 -37 0
-852 -38 0
-852 -39 0
-852 -40 0
-852 -41 0
-852 -42 0
-852 -43 0
-852 -44 0
-852 -45 0
-852 -46 0
-852 -50 0
-852 -51 0
-852 -52 0
-852 -53 0
-852 -54 0
-853 -1 0
-853 -2 0
-853 -3 0
-853 -4 0
-853 -5 0
-853 -6 0
-853 -7 0
-853 -8 0
-853 -9 0
-853 -10 0
-853 -11 0
-853 -15 0
-853 -16 0
-853 -17 0
-853 -18 0
-853 -19 0
-853 -20 0
-853 -21 0
-853 -22 0
-853 -23 0
-853 -24 0
-853 -25 0
-853 -26 0
-853 -27 0
-853 -28 0
-853 -29 0
-853 -33 0
-853 -34 0
-853 -35 0
-853 -36 0
-853 -37 0
-853 -38 0
-853 -39 0
-853 -40 0
-853 -41 0
-853 -42 0
-853 -43 0
-853 -44 0
-853 -45 0
-853 -46 0
-853 -47 0
-853 -51 0
-853 -52 0
-853 -53 0
-853 -54 0
-854 -1 0
-854 -2 0
-854 -3 0
-854 -4 0
-854 -5 0
-854 -6 0
-854 -7 0
-854 -8 0
-854 -9 0
-854 -10 0
-854 -11 0
-854 -12 0
-854 -16 0
-854 -17 0
-854 -18 0
-854 -19 0
-854 -20 0
-854 -21 0
-854 -22 0
-854 -23 0
-854 -24 0
-854 -25 0
-854 -26 0
-854 -27 0
-854 -28 0
-854 -29 0
-854 -30 0
-854 -34 0
-854 -35 0
-854 -36 0
-854 -37 0
-854 -38 0
-854 -39 0
-854 -40 0
-854 -41 0
-854 -42 0
-854 -43 0
-854 -44 0
-854 -45 0
-854 -46 0
-854 -47 0
-854 -48 0
-854 -52 0
-854 -53 0
-854 -54 0
-855 -1 0
-855 -2 0
-855 -3 0
-855 -4 0
-855 -5 0
-855 -6 0
-855 -7 0
-855 -8 0
-855 -9 0
-855 -10 0
-855 -11 0
-855 -12 0
-855 -13 0
-855 -17 0
-855 -18 0
-855 -19 0
-855 -20 0
-855 -21 0
-855 -22 0
-855 -23 0
-855 -24 0
-855 -25 0
-855 -26 0
-855 -27 0
-855 -28 0
-855 -29 0
-855 -30 0
-855 -31 0
-855 -35 0
-855 -36 0
-855 -37 0
-855 -38 0
-855 -39 0
-855 -40 0
-855 -41 0
-855 -42 0
-855 -43 0
-855 -44 0
-855 -45 0
-855 -46 0
-855 -47 0
-855 -48 0
-855 -49 0
-855 -53 0
-855 -54 0
-856 -1 0
-856 -2 0
-856 -3 0
-856 -4 0
-856 -5 0
-856 -6 0
-856 -7 0
-856 -8 0
-856 -9 0
-856 -10 0
-856 -11 0
-856 -12 0
-856 -13 0
-856 -14 0
-856 -18 0
-856 -19 0
-856 -20 0
-856 -21 0
-856 -22 0
-856 -23 0
-856 -24 0
-856 -25 0
-856 -26 0
-856 -27 0
-856 -28 0
-856 -29 0
-856 -30 0
-856 -31 0
-856 -32 0
-856 -36 0
-856 -37 0
-856 -38 0
-856 -39 0
-856 -40 0
-856 -41 0
-856 -42 0
-856 -43 0
-856 -44 0
-856 -45 0
-856 -46 0
-856 -47 0
-856 -48 0
-856 -49 0
-856 -50 0
-856 -54 0
-857 -1 0
-857 -2 0
-857 -3 0
-857 -4 0
-857 -5 0
-857 -6 0
-857 -7 0
-857 -8 0
-857 -9 0
-857 -10 0
-857 -11 0
-857 -12 0
-857 -13 0
-857 -14 0
-857 -15 0
-857 -19 0
-857 -20 0
-857 -21 0
-857 -22 0
-857 -23 0
-857 -24 0
-857 -25 0
-857 -26 0
-857 -27 0
-857 -28 0
-857 -29 0
-857 -30 0
-857 -31 0
-857 -32 0
-857 -33 0
-857 -37 0
-857 -38 0
-857 -39 0
-857 -40 0
-857 -41 0
-857 -42 0
-857 -43 0
-857 -44 0
-857 -45 0
-857 -46 0
-857 -47 0
-857 -48 0
-857 -49 0
-857 -50 0
-857 -51 0
-55 -73 0
-55 -91 0
-73 -91 0
-56 -74 0
-56 -92 0
-74 -92 0
-57 -75 0
-57 -93 0
-75 -93 0
-58 -76 0
-58 -94 0
-76 -94 0
-59 -77 0
-59 -95 0
-77 -95 0
-60 -78 0
-60 -96 0
-78 -96 0
-61 -79 0
-61 -97 0
-79 -97 0
-62 -80 0
-62 -98 0
-80 -98 0
-63 -81 0
-63 -99 0
-81 -99 0
-64 -82 0
-64 -100 0
-82 -100 0
-65 -83 0
-65 -101 0
-83 -101 0
-66 -84 0
-66 -102 0
-84 -102 0
-67 -85 0
-67 -103 0
-85 -103 0
-68 -86 0
-68 -104 0
-86 -104 0
-69 -87 0
-69 -105 0
-87 -105 0
-70 -88 0
-70 -106 0
-88 -106 0
-71 -89 0
-71 -107 0
-89 -107 0
-72 -90 0
-72 -108 0
-90 -108 0
858 859 860 861 862 863 864 865 866 867 868 869 870 871 872 873 0
-858 -859 0
-858 -860 0
-858 -861 0
-858 -862 0
-858 -863 0
-858 -864 0
-858 -865 0
-858 -866 0
-858 -867 0
-858 -868 0
-858 -869 0
-858 -870 0
-858 -871 0
-858 -872 0
-858 -873 0
-859 -860 0
-859 -861 0
-859 -862 0
-859 -863 0
-859 -864 0
-859 -865 0
-859 -866 0
-859 -867 0
-859 -868 0
-859 -869 0
-859 -870 0
-859 -871 0
-859 -872 0
-859 -873 0
-860 -861 0
-860 -862 0
-860 -863 0
-860 -864 0
-860 -865 0
-860 -866 0
-860 -867 0
-860 -868 0
-860 -869 0
-860 -870 0
-860 -871 0
-860 -872 0
-860 -873 0
-861 -862 0
-861 -863 0
-861 -864 0
-861 -865 0
-861 -866 0
-861 -867 0
-861 -868 0
-861 -869 0
-861 -870 0
-861 -871 0
-861 -872 0
-861 -873 0
-862 -863 0
-862 -864 0
-862 -865 0
-862 -866 0
-862 -867 0
-862 -868 0
-862 -869 0
-862 -870 0
-862 -871 0
-862 -872 0
-862 -873 0
-863 -864 0
-863 -865 0
-863 -866 0
-863 -867 0
-863 -868 0
-863 -869 0
-863 -870 0
-863 -871 0
-863 -872 0
-863 -873 0
-864 -865 0
-864 -866 0
-864 -867 0
-864 -868 0
-864 -869 0
-864 -870 0
-864 -871 0
-864 -872 0
-864 -873 0
-865 -866 0
-865 -867 0
-865 -868 0
-865 -869 0
-865 -870 0
-865 -871 0
-865 -872 0
-865 -873 0
-866 -867 0
-866 -868 0
-866 -869 0
-866 -870 0
-866 -871 0
-866 -872 0
-866 -873 0
-867 -868 0
-867 -869 0
-867 -870 0
-867 -871 0
-867 -872 0
-867 -873 0
-868 -869 0
-868 -870 0
-868 -871 0
-868 -872 0
-868 -873 0
-869 -870 0
-869 -871 0
-869 -872 0
-869 -873 0
-870 -871 0
-870 -872 0
-870 -873 0
-871 -872 0
-871 -873 0
-872 -873 0
-55 858 0
-56 858 859 0
-57 858 859 860 0
-58 859 860 861 0
-59 860 861 862 0
-60 861 862 863 0
-61 862 863 864 0
-62 863 864 865 0
-63 864 865 866 0
-64 865 866 867 0
-65 866 867 868 0
-66 867 868 869 0
-67 868 869 870 0
-68 869 870 871 0
-69 870 871 872 0
-70 871 872 873 0
-71 872 873 0
-72 873 0
-73 858 0
-74 858 859 0
-75 858 859 860 0
-76 859 860 861 0
-77 860 861 862 0
-78 861 862 863 0
-79 862 863 864 0
-80 863 864 865 0
-81 864 865 866 0
-82 865 866 867 0
-83 866 867 868 0
-84 867 868 869 0
-85 868 869 870 0
-86 869 870 871 0
-87 870 871 872 0
-88 871 872 873 0
-89 872 873 0
-90 873 0
-91 858 0
-92 858 859 0
-93 858 859 860 0
-94 859 860 861 0
-95 860 861 862 0
-96 861 862 863 0
-97 862 863 864 0
-98 863 864 865 0
-99 864 865 866 0
-100 865 866 867 0
-101 866 867 868 0
-102 867 868 869 0
-103 868 869 870 0
-104 869 870 871 0
-105 870 871 872 0
-106 871 872 873 0
-107 872 873 0
-108 873 0
-858 -58 0
-858 -59 0
-858 -60 0
-858 -61 0
-858 -62 0
-858 -63 0
-858 -64 0
-858 -65 0
-858 -66 0
-858 -67 0
-858 -68 0
-858 -69 0
-858 -70 0
-858 -71 0
-858 -72 0
-858 -76 0
-858 -77 0
-858 -78 0
-858 -79 0
-858 -80 0
-858 -81 0
-858 -82 0
-858 -83 0
-858 -84 0
-858 -85 0
-858 -86 0
-858 -87 0
-858 -88 0
-858 -89 0
-858 -90 0
-858 -94 0
-858 -95 0
-858 -96 0
-858 -97 0
-858 -98 0
-858 -99 0
-858 -100 0
-858 -101 0
-858 -102 0
-858 -103 0
-858 -104 0
-858 -105 0
-858 -106 0
-858 -107 0
-858 -108 0
-859 -55 0
-859 -59 0
-859 -60 0
-859 -61 0
-859 -62 0
-859 -63 0
-859 -64 0
-859 -65 0
-859 -66 0
-859 -67 0
-859 -68 0
-859 -69 0
-859 -70 0
-859 -71 0
-859 -72 0
-859 -73 0
-859 -77 0
-859 -78 0
-859 -79 0
-859 -80 0
-859 -81 0
-859 -82 0
-859 -83 0
-859 -84 0
-859 -85 0
-859 -86 0
-859 -87 0
-859 -88 0
-859 -89 0
-859 -90 0
-859 -91 0
-859 -95 0
-859 -96 0
-859 -97 0
-859 -98 0
-859 -99 0
-859 -100 0
-859 -101 0
-859 -102 0
-859 -103 0
-859 -104 0
-859 -105 0
-859 -106 0
-859 -107 0
-859 -108 0
-860 -55 0
-860 -56 0
-860 -60 0
-860 -61 0
-860 -62 0
-860 -63 0
-860 -64 0
-860 -65 0
-860 -66 0
-860 -67 0
-860 -68 0
-860 -69 0
-860 -70 0
-860 -71 0
-860 -72 0
-860 -73 0
-860 -74 0
-860 -78 0
-860 -79 0
-860 -80 0
-860 -81 0
-860 -82 0
-860 -83 0
-860 -84 0
-860 -85 0
-860 -86 0
-860 -87 0
-860 -88 0
-860 -89 0
-860 -90 0
-860 -91 0
-860 -92 0
-860 -96 0
-860 -97 0
-860 -98 0
-860 -99 0
-860 -100 0
-860 -101 0
-860 -102 0
-860 -103 0
-860 -104 0
-860 -105 0
-860 -106 0
-860 -107 0
-860 -108 0
-861 -55 0
-861 -56 0
-861 -57 0
-861 -61 0
-861 -62 0
-861 -63 0
-861 -64 0
-861 -65 0
-861 -66 0
-861 -67 0
-861 -68 0
-861 -69 0
-861 -70 0
-861 -71 0
-861 -72 0
-861 -73 0
-861 -74 0
-861 -75 0
-861 -79 0
-861 -80 0
-861 -81 0
-861 -82 0
-861 -83 0
-861 -84 0
-861 -85 0
-861 -86 0
-861 -87 0
-861 -88 0
-861 -89 0
-861 -90 0
-861 -91 0
-861 -92 0
-861 -93 0
-861 -97 0
-861 -98 0
-861 -99 0
-861 -100 0
-861 -101 0
-861 -102 0
-861 -103 0
-861 -104 0
-861 -105 0
-861 -106 0
-861 -107 0
-861 -108 0
-862 -55 0
-862 -56 0
-862 -57 0
-862 -58 0
-862 -62 0
-862 -63 0
-862 -64 0
-862 -65 0
-862 -66 0
-862 -67 0
-862 -68 0
-862 -69 0
-862 -70 0
-862 -71 0
-862 -72 0
-862 -73 0
-862 -74 0
-862 -75 0
-862 -76 0
-862 -80 0
-862 -81 0
-862 -82 0
-862 -83 0
-862 -84 0
-862 -85 0
-862 -86 0
-862 -87 0
-862 -88 0
-862 -89 0
-862 -90 0
-862 -91 0
-862 -92 0
-862 -93 0
-862 -94 0
-862 -98 0
-862 -99 0
-862 -100 0
-862 -101 0
-862 -102 0
-862 -103 0
-862 -104 0
-862 -105 0
-862 -106 0
-862 -107 0
-862 -108 0
-863 -55 0
-863 -56 0
-863 -57 0
-863 -58 0
-863 -59 0
-863 -63 0
-863 -64 0
-863 -65 0
-863 -66 0
-863 -67 0
-863 -68 0
-863 -69 0
-863 -70 0
-863 -71 0
-863 -72 0
-863 -73 0
-863 -74 0
-863 -75 0
-863 -76 0
-863 -77 0
-863 -81 0
-863 -82 0
-863 -83 0
-863 -84 0
-863 -85 0
-863 -86 0
-863 -87 0
-863 -88 0
-863 -89 0
-863 -90 0
-863 -91 0
-863 -92 0
-863 -93 0
-863 -94 0
-863 -95 0
-863 -99 0
-863 -100 0
-863 -101 0
-863 -102 0
-863 -103 0
-863 -104 0
-863 -105 0
-863 -106 0
-863 -107 0
-863 -108 0
-864 -55 0
-864 -56 0
-864 -57 0
-864 -58 0
-864 -59 0
-864 -60 0
-864 -64 0
-864 -65 0
-864 -66 0
-864 -67 0
-864 -68 0
-864 -69 0
-864 -70 0
-864 -71 0
-864 -72 0
-864 -73 0
-864 -74 0
-864 -75 0
-864 -76 0
-864 -77 0
-864 -78 0
-864 -82 0
-864 -83 0
-864 -84 0
-864 -85 0
-864 -86 0
-864 -87 0
-864 -88 0
-864 -89 0
-864 -90 0
-864 -91 0
-864 -92 0
-864 -93 0
-864 -94 0
-864 -95 0
-864 -96 0
-864 -100 0
-864 -101 0
-864 -102 0
-864 -103 0
-864 -104 0
-864 -105 0
-864 -106 0
-864 -107 0
-864 -108 0
-865 -55 0
-865 -56 0
-865 -57 0
-865 -58 0
-865 -59 0
-865 -60 0
-865 -61 0
-865 -65 0
-865 -66 0
-865 -67 0
-865 -68 0
-865 -69 0
-865 -70 0
-865 -71 0
-865 -72 0
-865 -73 0
-865 -74 0
-865 -75 0
-865 -76 0
-865 -77 0
-865 -78 0
-865 -79 0
-865 -83 0
-865 -84 0
-865 -85 0
-865 -86 0
-865 -87 0
-865 -88 0
-865 -89 0
-865 -90 0
-865 -91 0
-865 -92 0
-865 -93 0
-865 -94 0
-865 -95 0
-865 -96 0
-865 -97 0
-865 -101 0
-865 -102 0
-865 -103 0
-865 -104 0
-865 -105 0
-865 -106 0
-865 -107 0
-865 -108 0
-866 -55 0
-866 -56 0
-866 -57 0
-866 -58 0
-866 -59 0
-866 -60 0
-866 -61 0
-866 -62 0
-866 -66 0
-866 -67 0
-866 -68 0
-866 -69 0
-866 -70 0
-866 -71 0
-866 -72 0
-866 -73 0
-866 -74 0
-866 -75 0
-866 -76 0
-866 -77 0
-866 -78 0
-866 -79 0
-866 -80 0
-866 -84 0
-866 -85 0
-866 -86 0
-866 -87 0
-866 -88 0
-866 -89 0
-866 -90 0
-866 -91 0
-866 -92 0
-866 -93 0
-866 -94 0
-866 -95 0
-866 -96 0
-866 -97 0
-866 -98 0
-866 -102 0
-866 -103 0
-866 -104 0
-866 -105 0
-866 -106 0
-866 -107 0
-866 -108 0
-867 -55 0
-867 -56 0
-867 -57 0
-867 -58 0
-867 -59 0
-867 -60 0
-867 -61 0
-867 -62 0
-867 -63 0
-867 -67 0
-867 -68 0
-867 -69 0
-867 -70 0
-867 -71 0
-867 -72 0
-867 -73 0
-867 -74 0
-867 -75 0
-867 -76 0
-867 -77 0
-867 -78 0
-867 -79 0
-867 -80 0
-867 -81 0
-867 -85 0
-867 -86 0
-867 -87 0
-867 -88 0
-867 -89 0
-867 -90 0
-867 -91 0
-867 -92 0
-867 -93 0
-867 -94 0
-867 -95 0
-867 -96 0
-867 -97 0
-867 -98 0
-867 -99 0
-867 -103 0
-867 -104 0
-867 -105 0
-867 -106 0
-867 -107 0
-867 -108 0
-868 -55 0
-868 -56 0
-868 -57 0
-868 -58 0
-868 -59 0
-868 -60 0
-868 -61 0
-868 -62 0
-868 -63 0
-868 -64 0
-868 -68 0
-868 -69 0
-868 -70 0
-868 -71 0
-868 -72 0
-868 -73 0
-868 -74 0
-868 -75 0
-868 -76 0
-868 -77 0
-868 -78 0
-868 -79 0
-868 -80 0
-868 -81 0
-868 -82 0
-868 -86 0
-868 -87 0
-868 -88 0
-868 -89 0
-868 -90 0
-868 -91 0
-868 -92 0
-868 -93 0
-868 -94 0
-868 -95 0
-868 -96 0
-868 -97 0
-868 -98 0
-868 -99 0
-868 -100 0
-868 -104 0
-868 -105 0
-868 -106 0
-868 -107 0
-868 -108 0
-869 -55 0
-869 -56 0
-869 -57 0
-869 -58 0
-869 -59 0
-869 -60 0
-869 -61 0
-869 -62 0
-869 -63 0
-869 -64 0
-869 -65 0
-869 -69 0
-869 -70 0
-869 -71 0
-869 -72 0
-869 -73 0
-869 -74 0
-869 -75 0
-869 -76 0
-869 -77 0
-869 -78 0
-869 -79 0
-869 -80 0
-869 -81 0
-869 -82 0
-869 -83 0
-869 -87 0
-869 -88 0
-869 -89 0
-869 -90 0
-869 -91 0
-869 -92 0
-869 -93 0
-869 -94 0
-869 -95 0
-869 -96 0
-869 -97 0
-869 -98 0
-869 -99 0
-869 -100 0
-869 -101 0
-869 -105 0
-869 -106 0
-869 -107 0
-869 -108 0
-870 -55 0
-870 -56 0
-870 -57 0
-870 -58 0
-870 -59 0
-870 -60 0
-870 -61 0
-870 -62 0
-870 -63 0
-870 -64 0
-870 -65 0
-870 -66 0
-870 -70 0
-870 -71 0
-870 -72 0
-870 -73 0
-870 -74 0
-870 -75 0
-870 -76 0
-870 -77 0
-870 -78 0
-870 -79 0
-870 -80 0
-870 -81 0
-870 -82 0
-870 -83 0
-870 -84 0
-870 -88 0
-870 -89 0
-870 -90 0
-870 -91 0
-870 -92 0
-870 -93 0
-870 -94 0
-870 -95 0
-870 -96 0
-870 -97 0
-870 -98 0
-870 -99 0
-870 -100 0
-870 -101 0
-870 -102 0
-870 -106 0
-870 -107 0
-870 -108 0
-871 -55 0
-871 -56 0
-871 -57 0
-871 -58 0
-871 -59 0
-871 -60 0
-871 -61 0
-871 -62 0
-871 -63 0
-871 -64 0
-871 -65 0
-871 -66 0
-871 -67 0
-871 -71 0
-871 -72 0
-871 -73 0
-871 -74 0
-871 -75 0
-871 -76 0
-871 -77 0
-871 -78 0
-871 -79 0
-871 -80 0
-871 -81 0
-871 -82 0
-871 -83 0
-871 -84 0
-871 -85 0
-871 -89 0
-871 -90 0
-871 -91 0
-871 -92 0
-871 -93 0
-871 -94 0
-871 -95 0
-871 -96 0
-871 -97 0
-871 -98 0
-871 -99 0
-871 -100 0
-871 -101 0
-871 -102 0
-871 -103 0
-871 -107 0
-871 -108 0
-872 -55 0
-872 -56 0
-872 -57 0
-872 -58 0
-872 -59 0
-872 -60 0
-872 -61 0
-872 -62 0
-872 -63 0
-872 -64 0
-872 -65 0
-872 -66 0
-872 -67 0
-872 -68 0
-872 -72 0
-872 -73 0
-872 -74 0
-872 -75 0
-872 -76 0
-872 -77 0
-872 -78 0
-872 -79 0
-872 -80 0
-872 -81 0
-872 -82 0
-872 -83 0
-872 -84 0
-872 -85 0
-872 -86 0
-872 -90 0
-872 -91 0
-872 -92 0
-872 -93 0
-872 -94 0
-872 -95 0
-872 -96 0
-872 -97 0
-872 -98 0
-872 -99 0
-872 -100 0
-872 -101 0
-872 -102 0
-872 -103 0
-872 -104 0
-872 -108 0
-873 -55 0
-873 -56 0
-873 -57 0
-873 -58 0
-873 -59 0
-873 -60 0
-873 -61 0
-873 -62 0
-873 -63 0
-873 -64 0
-873 -65 0
-873 -66 0
-873 -67 0
-873 -68 0
-873 -69 0
-873 -73 0
-873 -74 0
-873 -75 0
-873 -76 0
-873 -77 0
-873 -78 0
-873 -79 0
-873 -80 0
-873 -81 0
-873 -82 0
-873 -83 0
-873 -84 0
-873 -85 0
-873 -86 0
-873 -87 0
-873 -91 0
-873 -92 0
-873 -93 0
-873 -94 0
-873 -95 0
-873 -96 0
-873 -97 0
-873 -98 0
-873 -99 0
-873 -100 0
-873 -101 0
-873 -102 0
-873 -103 0
-873 -104 0
-873 -105 0
-109 -127 0
-109 -145 0
-127 -145 0
-110 -128 0
-110 -146 0
-128 -146 0
-111 -129 0
-111 -147 0
-129 -147 0
-112 -130 0
-112 -148 0
-130 -148 0
-113 -131 0
-113 -149 0
-131 -149 0
-114 -132 0
-114 -150 0
-132 -150 0
-115 -133 0
-115 -151 0
-133 -151 0
-116 -134 0
-116 -152 0
-134 -152 0
-117 -135 0
-117 -153 0
-135 -153 0
-118 -136 0
-118 -154 0
-136 -154 0
-119 -137 0
-119 -155 0
-137 -155 0
-120 -138 0
-120 -156 0
-138 -156 0
-121 -139 0
-121 -157 0
-139 -157 0
-122 -140 0
-122 -158 0
-140 -158 0
-123 -141 0
-123 -159 0
-141 -159 0
-124 -142 0
-124 -160 0
-142 -160 0
-125 -143 0
-125 -161 0
-143 -161 0
-126 -144 0
-126 -162 0
-144 -162 0
874 875 876 877 878 879 880 881 882 883 884 885 886 887 888 889 0
-874 -875 0
-874 -876 0
-874 -877 0
-874 -878 0
-874 -879 0
-874 -880 0
-874 -881 0
-874 -882 0
-874 -883 0
-874 -884 0
-874 -885 0
-874 -886 0
-874 -887 0
-874 -888 0
-874 -889 0
-875 -876 0
-875 -877 0
-875 -878 0
-875 -879 0
-875 -880 0
-875 -881 0
-875 -882 0
-875 -883 0
-875 -884 0
-875 -885 0
-875 -886 0
-875 -887 0
-875 -888 0
-875 -889 0
-876 -877 0
-876 -878 0
-876 -879 0
-876 -880 0
-876 -881 0
-876 -882 0
-876 -883 0
-876 -884 0
-876 -885 0
-876 -886 0
-876 -887 0
-876 -888 0
-876 -889 0
-877 -878 0
-877 -879 0
-877 -880 0
-877 -881 0
-877 -882 0
-877 -883 0
-877 -884 0
-877 -885 0
-877 -886 0
-877 -887 0
-877 -888 0
-877 -889 0
-878 -879 0
-878 -880 0
-878 -881 0
-878 -882 0
-878 -883 0
-878 -884 0
-878 -885 0
-878 -886 0
-878 -887 0
-878 -888 0
-878 -889 0
-879 -880 0
-879 -881 0
-879 -882 0
-879 -883 0
-879 -884 0
-879 -885 0
-879 -886 0
-879 -887 0
-879 -888 0
-879 -889 0
-880 -881 0
-880 -882 0
-880 -883 0
-880 -884 0
-880 -885 0
-880 -886 0
-880 -887 0
-880 -888 0
-880 -889 0
-881 -882 0
-881 -883 0
-881 -884 0
-881 -885 0
-881 -886 0
-881 -887 0
-881 -888 0
-881 -889 0
-882 -883 0
-882 -884 0
-882 -885 0
-882 -886 0
-882 -887 0
-882 -888 0
-882 -889 0
-883 -884 0
-883 -885 0
-883 -886 0
-883 -887 0
-883 -888 0
-883 -889 0
-884 -885 0
-884 -886 0
-884 -887 0
-884 -888 0
-884 -889 0
-885 -886 0
-885 -887 0
-885 -888 0
-885 -889 0
-886 -887 0
-886 -888 0
-886 -889 0
-887 -888 0
-887 -889 0
-888 -889 0
-109 874 0
-110 874 875 0
-111 874 875 876 0
-112 875 876 877 0
-113 876 877 878 0
-114 877 878 879 0
-115 878 879 880 0
-116 879 880 881 0
-117 880 881 882 0
-118 881 882 883 0
-119 882 883 884 0
-120 883 884 885 0
-121 884 885 886 0
-122 885 886 887 0
-123 886 887 888 0
-124 887 888 889 0
-125 888 889 0
-126 889 0
-127 874 0
-128 874 875 0
-129 874 875 876 0
-130 875 876 877 0
-131 876 877 878 0
-132 877 878 879 0
-133 878 879 880 0
-134 879 880 881 0
-135 880 881 882 0
-136 881 882 883 0
-137 882 883 884 0
-138 883 884 885 0
-139 884 885 886 0
-140 885 886 887 0
-141 886 887 888 0
-142 887 888 889 0
-143 888 889 0
-144 889 0
-145 874 0
-146 874 875 0
-147 874 875 876 0
-148 875 876 877 0
-149 876 877 878 0
-150 877 878 879 0
-151 878 879 880 0
-152 879 880 881 0
-153 880 881 882 0
-154 881 882 883 0
-155 882 883 884 0
-156 883 884 885 0
-157 884 885 886 0
-158 885 886 887 0
-159 886 887 888 0
-160 887 888 889 0
-161 888 889 0
-162 889 0
-874 -112 0
-874 -113 0
-874 -114 0
-874 -115 0
-874 -116 0
-874 -117 0
-874 -118 0
-874 -119 0
-874 -120 0
-874 -121 0
-874 -122 0
-874 -123 0
-874 -124 0
-874 -125 0
-874 -126 0
-874 -130 0
-874 -131 0
-874 -132 0
-874 -133 0
-874 -134 0
-874 -135 0
-874 -136 0
-874 -137 0
-874 -138 0
-874 -139 0
-874 -140 0
-874 -141 0
-874 -142 0
-874 -143 0
-874 -144 0
-874 -148 0
-874 -149 0
-874 -150 0
-874 -151 0
-874 -152 0
-874 -153 0
-874 -154 0
-874 -155 0
-874 -156 0
-874 -157 0
-874 -158 0
-874 -159 0
-874 -160 0
-874 -161 0
-874 -162 0
-875 -109 0
-875 -113 0
-875 -114 0
-875 -115 0
-875 -116 0
-875 -117 0
-875 -118 0
-875 -119 0
-875 -120 0
-875 -121 0
-875 -122 0
-875 -123 0
-875 -124 0
-875 -125 0
-875 -126 0
-875 -127 0
-875 -131 0
-875 -132 0
-875 -133 0
-875 -134 0
-875 -135 0
-875 -136 0
-875 -137 0
-875 -138 0
-875 -139 0
-875 -140 0
-875 -141 0
-875 -142 0
-875 -143 0
-875 -144 0
-875 -145 0
-875 -149 0
-875 -150 0
-875 -151 0
-875 -152 0
-875 -153 0
-875 -154 0
-875 -155 0
-875 -156 0
-875 -157 0
-875 -158 0
-875 -159 0
-875 -160 0
-875 -161 0
-875 -162 0
-876 -109 0
-876 -110 0
-876 -114 0
-876 -115 0
-876 -116 0
-876 -117 0
-876 -118 0
-876 -119 0
-876 -120 0
-876 -121 0
-876 -122 0
-876 -123 0
-876 -124 0
-876 -125 0
-876 -126 0
-876 -127 0
-876 -128 0
-876 -132 0
-876 -133 0
-876 -134 0
-876 -135 0
-876 -136 0
-876 -137 0
-876 -138 0
-876 -139 0
-876 -140 0
-876 -141 0
-876 -142 0
-876 -143 0
-876 -144 0
-876 -145 0
-876 -146 0
-876 -150 0
-876 -151 0
-876 -152 0
-876 -153 0
-876 -154 0
-876 -155 0
-876 -156 0
-876 -157 0
-876 -158 0
-876 -159 0
-876 -160 0
-876 -161 0
-876 -162 0
-877 -109 0
-877 -110 0
-877 -111 0
-877 -115 0
-877 -116 0
-877 -117 0
-877 -118 0
-877 -119 0
-877 -120 0
-877 -121 0
-877 -122 0
-877 -123 0
-877 -124 0
-877 -125 0
-877 -126 0
-877 -127 0
-877 -128 0
-877 -129 0
-877 -133 0
-877 -134 0
-877 -135 0
-877 -136 0
-877 -137 0
-877 -138 0
-877 -139 0
-877 -140 0
-877 -141 0
-877 -142 0
-877 -143 0
-877 -144 0
-877 -145 0
-877 -146 0
-877 -147 0
-877 -151 0
-877 -152 0
-877 -153 0
-877 -154 0
-877 -155 0
-877 -156 0
-877 -157 0
-877 -158 0
-877 -159 0
-877 -160 0
-877 -161 0
-877 -162 0
-878 -109 0
-878 -110 0
-878 -111 0
-878 -112 0
-878 -116 0
-878 -117 0
-878 -118 0
-878 -119 0
-878 -120 0
-878 -121 0
-878 -122 0
-878 -123 0
-878 -124 0
-878 -125 0
-878 -126 0
-878 -127 0
-878 -128 0
-878 -129 0
-878 -130 0
-878 -134 0
-878 -135 0
-878 -136 0
-878 -137 0
-878 -138 0
-878 -139 0
-878 -140 0
-878 -141 0
-878 -142 0
-878 -143 0
-878 -144 0
-878 -145 0
-878 -146 0
-878 -147 0
-878 -148 0
-878 -152 0
-878 -153 0
-878 -154 0
-878 -155 0
-878 -156 0
-878 -157 0
-878 -158 0
-878 -159 0
-878 -160 0
-878 -161 0
-878 -162 0
-879 -109 0
-879 -110 0
-879 -111 0
-879 -112 0
-879 -113 0
-879 -117 0
-879 -118 0
-879 -119 0
-879 -120 0
-879 -121 0
-879 -122 0
-879 -123 0
-879 -124 0
-879 -125 0
-879 -126 0
-879 -127 0
-879 -128 0
-879 -129 0
-879 -130 0
-879 -131 0
-879 -135 0
-879 -136 0
-879 -137 0
-879 -138 0
-879 -139 0
-879 -140 0
-879 -141 0
-879 -142 0
-879 -143 0
-879 -144 0
-879 -145 0
-879 -146 0
-879 -147 0
-879 -148 0
-879 -149 0
-879 -153 0
-879 -154 0
-879 -155 0
-879 -156 0
-879 -157 0
-879 -158 0
-879 -159 0
-879 -160 0
-879 -161 0
-879 -162 0
-880 -109 0
-880 -110 0
-880 -111 0
-880 -112 0
-880 -113 0
-880 -114 0
-880 -118 0
-880 -119 0
-880 -120 0
-880 -121 0
-880 -122 0
-880 -123 0
-880 -124 0
-880 -125 0
-880 -126 0
-880 -127 0
-880 -128 0
-880 -129 0
-880 -130 0
-880 -131 0
-880 -132 0
-880 -136 0
-880 -137 0
-880 -138 0
-880 -139 0
-880 -140 0
-880 -141 0
-880 -142 0
-880 -143 0
-880 -144 0
-880 -145 0
-880 -146 0
-880 -147 0
-880 -148 0
-880 -149 0
-880 -150 0
-880 -154 0
-880 -155 0
-880 -156 0
-880 -157 0
-880 -158 0
-880 -159 0
-880 -160 0
-880 -161 0
-880 -162 0
-881 -109 0
-881 -110 0
-881 -111 0
-881 -112 0
-881 -113 0
-881 -114 0
-881 -115 0
-881 -119 0
-881 -120 0
-881 -121 0
-881 -122 0
-881 -123 0
-881 -124 0
-881 -125 0
-881 -126 0
-881 -127 0
-881 -128 0
-881 -129 0
-881 -130 0
-881 -131 0
-881 -132 0
-881 -133 0
-881 -137 0
-881 -138 0
-881 -139 0
-881 -140 0
-881 -141 0
-881 -142 0
-881 -143 0
-881 -144 0
-881 -145 0
-881 -146 0
-881 -147 0
-881 -148 0
-881 -149 0
-881 -150 0
-881 -151 0
-881 -155 0
-881 -156 0
-881 -157 0
-881 -158 0
-881 -159 0
-881 -160 0
-881 -161 0
-881 -162 0
-882 -109 0
-882 -110 0
-882 -111 0
-882 -112 0
-882 -113 0
-882 -114 0
-882 -115 0
-882 -116 0
-882 -120 0
-882 -121 0
-882 -122 0
-882 -123 0
-882 -124 0
-882 -125 0
-882 -126 0
-882 -127 0
-882 -128 0
-882 -129 0
-882 -130 0
-882 -131 0
-882 -132 0
-882 -133 0
-882 -134 0
-882 -138 0
-882 -139 0
-882 -140 0
-882 -141 0
-882 -142 0
-882 -143 0
-882 -144 0
-882 -145 0
-882 -146 0
-882 -147 0
-882 -148 0
-882 -149 0
-882 -150 0
-882 -151 0
-882 -152 0
-882 -156 0
-882 -157 0
-882 -158 0
-882 -159 0
-882 -160 0
-882 -161 0
-882 -162 0
-883 -109 0
-883 -110 0
-883 -111 0
-883 -112 0
-883 -113 0
-883 -114 0
-883 -115 0
-883 -116 0
-883 -117 0
-883 -121 0
-883 -122 0
-883 -123 0
-883 -124 0
-883 -125 0
-883 -126 0
-883 -127 0
-883 -128 0
-883 -129 0
-883 -130 0
-883 -131 0
-883 -132 0
-883 -133 0
-883 -134 0
-883 -135 0
-883 -139 0
-883 -140 0
-883 -141 0
-883 -142 0
-883 -143 0
-883 -144 0
-883 -145 0
-883 -146 0
-883 -147 0
-883 -148 0
-883 -149 0
-883 -150 0
-883 -151 0
-883 -152 0
-883 -153 0
-883 -157 0
-883 -158 0
-883 -159 0
-883 -160 0
-883 -161 0
-883 -162 0
-884 -109 0
-884 -110 0
-884 -111 0
-884 -112 0
-884 -113 0
-884 -114 0
-884 -115 0
-884 -116 0
-884 -117 0
-884 -118 0
-884 -122 0
-884 -123 0
-884 -124 0
-884 -125 0
-884 -126 0
-884 -127 0
-884 -128 0
-884 -129 0
-884 -130 0
-884 -131 0
-884 -132 0
-884 -133 0
-884 -134 0
-884 -135 0
-884 -136 0
-884 -140 0
-884 -141 0
-884 -142 0
-884 -143 0
-884 -144 0
-884 -145 0
-884 -146 0
-884 -147 0
-884 -148 0
-884 -149 0
-884 -150 0
-884 -151 0
-884 -152 0
-884 -153 0
-884 -154 0
-884 -158 0
-884 -159 0
-884 -160 0
-884 -161 0
-884 -162 0
-885 -109 0
-885 -110 0
-885 -111 0
-885 -112 0
-885 -113 0
-885 -114 0
-885 -115 0
-885 -116 0
-885 -117 0
-885 -118 0
-885 -119 0
-885 -123 0
-885 -124 0
-885 -125 0
-885 -126 0
-885 -127 0
-885 -128 0
-885 -129 0
-885 -130 0
-885 -131 0
-885 -132 0
-885 -133 0
-885 -134 0
-885 -135 0
-885 -136 0
-885 -137 0
-885 -141 0
-885 -142 0
-885 -143 0
-885 -144 0
-885 -145 0
-885 -146 0
-885 -147 0
-885 -148 0
-885 -149 0
-885 -150 0
-885 -151 0
-885 -152 0
-885 -153 0
-885 -154 0
-885 -155 0
-885 -159 0
-885 -160 0
-885 -161 0
-885 -162 0
-886 -109 0
-886 -110 0
-886 -111 0
-886 -112 0
-886 -113 0
-886 -114 0
-886 -115 0
-886 -116 0
-886 -117 0
-886 -118 0
-886 -119 0
-886 -120 0
-886 -124 0
-886 -125 0
-886 -126 0
-886 -127 0
-886 -128 0
-886 -129 0
-886 -130 0
-886 -131 0
-886 -132 0
-886 -133 0
-886 -134 0
-886 -135 0
-886 -136 0
-886 -137 0
-886 -138 0
-886 -142 0
-886 -143 0
-886 -144 0
-886 -145 0
-886 -146 0
-886 -147 0
-886 -148 0
-886 -149 0
-886 -150 0
-886 -151 0
-886 -152 0
-886 -153 0
-886 -154 0
-886 -155 0
-886 -156 0
-886 -160 0
-886 -161 0
-886 -162 0
-887 -109 0
-887 -110 0
-887 -111 0
-887 -112 0
-887 -113 0
-887 -114 0
-887 -115 0
-887 -116 0
-887 -117 0
-887 -118 0
-887 -119 0
-887 -120 0
-887 -121 0
-887 -125 0
-887 -126 0
-887 -127 0
-887 -128 0
-887 -129 0
-887 -130 0
-887 -131 0
-887 -132 0
-887 -133 0
-887 -134 0
-887 -135 0
-887 -136 0
-887 -137 0
-887 -138 0
-887 -139 0
-887 -143 0
-887 -144 0
-887 -145 0
-887 -146 0
-887 -147 0
-887 -148 0
-887 -149 0
-887 -150 0
-887 -151 0
-887 -152 0
-887 -153 0
-887 -154 0
-887 -155 0
-887 -156 0
-887 -157 0
-887 -161 0
-887 -162 0
-888 -109 0
-888 -110 0
-888 -111 0
-888 -112 0
-888 -113 0
-888 -114 0
-888 -115 0
-888 -116 0
-888 -117 0
-888 -118 0
-888 -119 0
-888 -120 0
-888 -121 0
-888 -122 0
-888 -126 0
-888 -127 0
-888 -128 0
-888 -129 0
-888 -130 0
-888 -131 0
-888 -132 0
-888 -133 0
-888 -134 0
-888 -135 0
-888 -136 0
-888 -137 0
-888 -138 0
-888 -139 0
-888 -140 0
-888 -144 0
-888 -145 0
-888 -146 0
-888 -147 0
-888 -148 0
-888 -149 0
-888 -150 0
-888 -151 0
-888 -152 0
-888 -153 0
-888 -154 0
-888 -155 0
-888 -156 0
-888 -157 0
-888 -158 0
-888 -162 0
-889 -109 0
-889 -110 0
-889 -111 0
-889 -112 0
-889 -113 0
-889 -114 0
-889 -115 0
-889 -116 0
-889 -117 0
-889 -118 0
-889 -119 0
-889 -120 0
-889 -121 0
-889 -122 0
-889 -123 0
-889 -127 0
-889 -128 0
-889 -129 0
-889 -130 0
-889 -131 0
-889 -132 0
-889 -133 0
-889 -134 0
-889 -135 0
-889 -136 0
-889 -137 0
-889 -138 0
-889 -139 0
-889 -140 0
-889 -141 0
-889 -145 0
-889 -146 0
-889 -147 0
-889 -148 0
-889 -149 0
-889 -150 0
-889 -151 0
-889 -152 0
-889 -153 0
-889 -154 0
-889 -155 0
-889 -156 0
-889 -157 0
-889 -158 0
-889 -159 0
-163 -181 0
-163 -199 0
-181 -199 0
-164 -182 0
-164 -200 0
-182 -200 0
-165 -183 0
-165 -201 0
-183 -201 0
-166 -184 0
-166 -202 0
-184 -202 0
-167 -185 0
-167 -203 0
-185 -203 0
-168 -186 0
-168 -204 0
-186 -204 0
-169 -187 0
-169 -205 0
-187 -205 0
-170 -188 0
-170 -206 0
-188 -206 0
-171 -189 0
-171 -207 0
-189 -207 0
-172 -190 0
-172 -208 0
-190 -208 0
-173 -191 0
-173 -209 0
-191 -209 0
-174 -192 0
-174 -210 0
-192 -210 0
-175 -193 0
-175 -211 0
-193 -211 0
-176 -194 0
-176 -212 0
-194 -212 0
-177 -195 0
-177 -213 0
-195 -213 0
-178 -196 0
-178 -214 0
-196 -214 0
-179 -197 0
-179 -215 0
-197 -215 0
-180 -198 0
-180 -216 0
-198 -216 0
890 891 892 893 894 895 896 897 898 899 900 901 902 903 904 905 0
-890 -891 0
-890 -892 0
-890 -893 0
-890 -894 0
-890 -895 0
-890 -896 0
-890 -897 0
-890 -898 0
-890 -899 0
-890 -900 0
-890 -901 0
-890 -902 0
-890 -903 0
-890 -904 0
-890 -905 0
-891 -892 0
-891 -893 0
-891 -894 0
-891 -895 0
-891 -896 0
-891 -897 0
-891 -898 0
-891 -899 0
-891 -900 0
-891 -901 0
-891 -902 0
-891 -903 0
-891 -904 0
-891 -905 0
-892 -893 0
-892 -894 0
-892 -895 0
-892 -896 0
-892 -897 0
-892 -898 0
-892 -899 0
-892 -900 0
-892 -901 0
-892 -902 0
-892 -903 0
-892 -904 0
-892 -905 0
-893 -894 0
-893 -895 0
-893 -896 0
-893 -897 0
-893 -898 0
-893 -899 0
-893 -900 0
-893 -901 0
-893 -902 0
-893 -903 0
-893 -904 0
-893 -905 0
-894 -895 0
-894 -896 0
-894 -897 0
-894 -898 0
-894 -899 0
-894 -900 0
-894 -901 0
-894 -902 0
-894 -903 0
-894 -904 0
-894 -905 0
-895 -896 0
-895 -897 0
-895 -898 0
-895 -899 0
-895 -900 0
-895 -901 0
-895 -902 0
-895 -903 0
-895 -904 0
-895 -905 0
-896 -897 0
-896 -898 0
-896 -899 0
-896 -900 0
-896 -901 0
-896 -902 0
-896 -903 0
-896 -904 0
-896 -905 0
-897 -898 0
-897 -899 0
-897 -900 0
-897 -901 0
-897 -902 0
-897 -903 0
-897 -904 0
-897 -905 0
-898 -899 0
-898 -900 0
-898 -901 0
-898 -902 0
-898 -903 0
-898 -904 0
-898 -905 0
-899 -900 0
-899 -901 0
-899 -902 0
-899 -903 0
-899 -904 0
-899 -905 0
-900 -901 0
-900 -902 0
-900 -903 0
-900 -904 0
-900 -905 0
-901 -902 0
-901 -903 0
-901 -904 0
-901 -905 0
-902 -903 0
-902 -904 0
-902 -905 0
-903 -904 0
-903 -905 0
-904 -905 0
-163 890 0
-164 890 891 0
-165 890 891 892 0
-166 891 892 893 0
-167 892 893 894 0
-168 893 894 895 0
-169 894 895 896 0
-170 895 896 897 0
-171 896 897 898 0
-172 897 898 899 0
-173 898 899 900 0
-174 899 900 901 0
-175 900 901 902 0
-176 901 902 903 0
-177 902 903 904 0
-178 903 904 905 0
-179 904 905 0
-180 905 0
-181 890 0
-182 890 891 0
-183 890 891 892 0
-184 891 892 893 0
-185 892 893 894 0
-186 893 894 895 0
-187 894 895 896 0
-188 895 896 897 0
-189 896 897 898 0
-190 897 898 899 0
-191 898 899 900 0
-192 899 900 901 0
-193 900 901 902 0
-194 901 902 903 0
-195 902 903 904 0
-196 903 904 905 0
-197 904 905 0
-198 905 0
-199 890 0
-200 890 891 0
-201 890 891 892 0
-202 891 892 893 0
-203 892 893 894 0
-204 893 894 895 0
-205 894 895 896 0
-206 895 896 897 0
-207 896 897 898 0
-208 897 898 899 0
-209 898 899 900 0
-210 899 900 901 0
-211 900 901 902 0
-212 901 902 903 0
-213 902 903 904 0
-214 903 904 905 0
-215 904 905 0
-216 905 0
-890 -166 0
-890 -167 0
-890 -168 0
-890 -169 0
-890 -170 0
-890 -171 0
-890 -172 0
-890 -173 0
-890 -174 0
-890 -175 0
-890 -176 0
-890 -177 0
-890 -178 0
-890 -179 0
-890 -180 0
-890 -184 0
-890 -185 0
-890 -186 0
-890 -187 0
-890 -188 0
-890 -189 0
-890 -190 0
-890 -191 0
-890 -192 0
-890 -193 0
-890 -194 0
-890 -195 0
-890 -196 0
-890 -197 0
-890 -198 0
-890 -202 0
-890 -203 0
-890 -204 0
-890 -205 0
-890 -206 0
-890 -207 0
-890 -208 0
-890 -209 0
-890 -210 0
-890 -211 0
-890 -212 0
-890 -213 0
-890 -214 0
-890 -215 0
-890 -216 0
-891 -163 0
-891 -167 0
-891 -168 0
-891 -169 0
-891 -170 0
-891 -171 0
-891 -172 0
-891 -173 0
-891 -174 0
-891 -175 0
-891 -176 0
-891 -177 0
-891 -178 0
-891 -179 0
-891 -180 0
-891 -181 0
-891 -185 0
-891 -186 0
-891 -187 0
-891 -188 0
-891 -189 0
-891 -190 0
-891 -191 0
-891 -192 0
-891 -193 0
-891 -194 0
-891 -195 0
-891 -196 0
-891 -197 0
-891 -198 0
-891 -199 0
-891 -203 0
-891 -204 0
-891 -205 0
-891 -206 0
-891 -207 0
-891 -208 0
-891 -209 0
-891 -210 0
-891 -211 0
-891 -212 0
-891 -213 0
-891 -214 0
-891 -215 0
-891 -216 0
-892 -163 0
-892 -164 0
-892 -168 0
-892 -169 0
-892 -170 0
-892 -171 0
-892 -172 0
-892 -173 0
-892 -174 0
-892 -175 0
-892 -176 0
-892 -177 0
-892 -178 0
-892 -179 0
-892 -180 0
-892 -181 0
-892 -182 0
-892 -186 0
-892 -187 0
-892 -188 0
-892 -189 0
-892 -190 0
-892 -191 0
-892 -192 0
-892 -193 0
-892 -194 0
-892 -195 0
-892 -196 0
-892 -197 0
-892 -198 0
-892 -199 0
-892 -200 0
-892 -204 0
-892 -205 0
-892 -206 0
-892 -207 0
-892 -208 0
-892 -209 0
-892 -210 0
-892 -211 0
-892 -212 0
-892 -213 0
-892 -214 0
-892 -215 0
-892 -216 0
-893 -163 0
-893 -164 0
-893 -165 0
-893 -169 0
-893 -170 0
-893 -171 0
-893 -172 0
-893 -173 0
-893 -174 0
-893 -175 0
-893 -176 0
-893 -177 0
-893 -178 0
-893 -179 0
-893 -180 0
-893 -181 0
-893 -182 0
-893 -183 0
-893 -187 0
-893 -188 0
-893 -189 0
-893 -190 0
-893 -191 0
-893 -192 0
-893 -193 0
-893 -194 0
-893 -195 0
-893 -196 0
-893 -197 0
-893 -198 0
-893 -199 0
-893 -200 0
-893 -201 0
-893 -205 0
-893 -206 0
-893 -207 0
-893 -208 0
-893 -209 0
-893 -210 0
-893 -211 0
-893 -212 0
-893 -213 0
-893 -214 0
-893 -215 0
-893 -216 0
-894 -163 0
-894 -164 0
-894 -165 0
-894 -166 0
-894 -170 0
-894 -171 0
-894 -172 0
-894 -173 0
-894 -174 0
-894 -175 0
-894 -176 0
-894 -177 0
-894 -178 0
-894 -179 0
-894 -180 0
-894 -181 0
-894 -182 0
-894 -183 0
-894 -184 0
-894 -188 0
-894 -189 0
-894 -190 0
-894 -191 0
-894 -192 0
-894 -193 0
-894 -194 0
-894 -195 0
-894 -196 0
-894 -197 0
-894 -198 0
-894 -199 0
-894 -200 0
-894 -201 0
-894 -202 0
-894 -206 0
-894 -207 0
-894 -208 0
-894 -209 0
-894 -210 0
-894 -211 0
-894 -212 0
-894 -213 0
-894 -214 0
-894 -215 0
-894 -216 0
-895 -163 0
-895 -164 0
-895 -165 0
-895 -166 0
-895 -167 0
-895 -171 0
-895 -172 0
-895 -173 0
-895 -174 0
-895 -175 0
-895 -176 0
-895 -177 0
-895 -178 0
-895 -179 0
-895 -180 0
-895 -181 0
-895 -182 0
-895 -183 0
-895 -184 0
-895 -185 0
-895 -189 0
-895 -190 0
-895 -191 0
-895 -192 0
-895 -193 0
-895 -194 0
-895 -195 0
-895 -196 0
-895 -197 0
-895 -198 0
-895 -199 0
-895 -200 0
-895 -201 0
-895 -202 0
-895 -203 0
-895 -207 0
-895 -208 0
-895 -209 0
-895 -210 0
-895 -211 0
-895 -212 0
-895 -213 0
-895 -214 0
-895 -215 0
-895 -216 0
-896 -163 0
-896 -164 0
-896 -165 0
-896 -166 0
-896 -167 0
-896 -168 0
-896 -172 0
-896 -173 0
-896 -174 0
-896 -175 0
-896 -176 0
-896 -177 0
-896 -178 0
-896 -179 0
-896 -180 0
-896 -181 0
-896 -182 0
-896 -183 0
-896 -184 0
-896 -185 0
-896 -186 0
-896 -190 0
-896 -191 0
-896 -192 0
-896 -193 0
-896 -194 0
-896 -195 0
-896 -196 0
-896 -197 0
-896 -198 0
-896 -199 0
-896 -200 0
-896 -201 0
-896 -202 0
-896 -203 0
-896 -204 0
-896 -208 0
-896 -209 0
-896 -210 0
-896 -211 0
-896 -212 0
-896 -213 0
-896 -214 0
-896 -215 0
-896 -216 0
-897 -163 0
-897 -164 0
-897 -165 0
-897 -166 0
-897 -167 0
-897 -168 0
-897 -169 0
-897 -173 0
-897 -174 0
-897 -175 0
-897 -176 0
-897 -177 0
-897 -178 0
-897 -179 0
-897 -180 0
-897 -181 0
-897 -182 0
-897 -183 0
-897 -184 0
-897 -185 0
-897 -186 0
-897 -187 0
-897 -191 0
-897 -192 0
-897 -193 0
-897 -194 0
-897 -195 0
-897 -196 0
-897 -197 0
-897 -198 0
-897 -199 0
-897 -200 0
-897 -201 0
-897 -202 0
-897 -203 0
-897 -204 0
-897 -205 0
-897 -209 0
-897 -210 0
-897 -211 0
-897 -212 0
-897 -213 0
-897 -214 0
-897 -215 0
-897 -216 0
-898 -163 0
-898 -164 0
-898 -165 0
-898 -166 0
-898 -167 0
-898 -168 0
-898 -169 0
-898 -170 0
-898 -174 0
-898 -175 0
-898 -176 0
-898 -177 0
-898 -178 0
-898 -179 0
-898 -180 0
-898 -181 0
-898 -182 0
-898 -183 0
-898 -184 0
-898 -185 0
-898 -186 0
-898 -187 0
-898 -188 0
-898 -192 0
-898 -193 0
-898 -194 0
-898 -195 0
-898 -196 0
-898 -197 0
-898 -198 0
-898 -199 0
-898 -200 0
-898 -201 0
-898 -202 0
-898 -203 0
-898 -204 0
-898 -205 0
-898 -206 0
-898 -210 0
-898 -211 0
-898 -212 0
-898 -213 0
-898 -214 0
-898 -215 0
-898 -216 0
-899 -163 0
-899 -164 0
-899 -165 0
-899 -166 0
-899 -167 0
-899 -168 0
-899 -169 0
-899 -170 0
-899 -171 0
-899 -175 0
-899 -176 0
-899 -177 0
-899 -178 0
-899 -179 0
-899 -180 0
-899 -181 0
-899 -182 0
-899 -183 0
-899 -184 0
-899 -185 0
-899 -186 0
-899 -187 0
-899 -188 0
-899 -189 0
-899 -193 0
-899 -194 0
-899 -195 0
-899 -196 0
-899 -197 0
-899 -198 0
-899 -199 0
-899 -200 0
-899 -201 0
-899 -202 0
-899 -203 0
-899 -204 0
-899 -205 0
-899 -206 0
-899 -207 0
-899 -211 0
-899 -212 0
-899 -213 0
-899 -214 0
-899 -215 0
-899 -216 0
-900 -163 0
-900 -164 0
-900 -165 0
-900 -166 0
-900 -167 0
-900 -168 0
-900 -169 0
-900 -170 0
-900 -171 0
-900 -172 0
-900 -176 0
-900 -177 0
-900 -178 0
-900 -179 0
-900 -180 0
-900 -181 0
-900 -182 0
-900 -183 0
-900 -184 0
-900 -185 0
-900 -186 0
-900 -187 0
-900 -188 0
-900 -189 0
-900 -190 0
-900 -194 0
-900 -195 0
-900 -196 0
-900 -197 0
-900 -198 0
-900 -199 0
-900 -200 0
-900 -201 0
-900 -202 0
-900 -203 0
-900 -204 0
-900 -205 0
-900 -206 0
-900 -207 0
-900 -208 0
-900 -212 0
-900 -213 0
-900 -214 0
-900 -215 0
-900 -216 0
-901 -163 0
-901 -164 0
-901 -165 0
-901 -166 0
-901 -167 0
-901 -168 0
-901 -169 0
-901 -170 0
-901 -171 0
-901 -172 0
-901 -173 0
-901 -177 0
-901 -178 0
-901 -179 0
-901 -180 0
-901 -181 0
-901 -182 0
-901 -183 0
-901 -184 0
-901 -185 0
-901 -186 0
-901 -187 0
-901 -188 0
-901 -189 0
-901 -190 0
-901 -191 0
-901 -195 0
-901 -196 0
-901 -197 0
-901 -198 0
-901 -199 0
-901 -200 0
-901 -201 0
-901 -202 0
-901 -203 0
-901 -204 0
-901 -205 0
-901 -206 0
-901 -207 0
-901 -208 0
-901 -209 0
-901 -213 0
-901 -214 0
-901 -215 0
-901 -216 0
-902 -163 0
-902 -164 0
-902 -165 0
-902 -166 0
-902 -167 0
-902 -168 0
-902 -169 0
-902 -170 0
-902 -171 0
-902 -172 0
-902 -173 0
-902 -174 0
-902 -178 0
-902 -179 0
-902 -180 0
-902 -181 0
-902 -182 0
-902 -183 0
-902 -184 0
-902 -185 0
-902 -186 0
-902 -187 0
-902 -188 0
-902 -189 0
-902 -190 0
-902 -191 0
-902 -192 0
-902 -196 0
-902 -197 0
-902 -198 0
-902 -199 0
-902 -200 0
-902 -201 0
-902 -202 0
-902 -203 0
-902 -204 0
-902 -205 0
-902 -206 0
-902 -207 0
-902 -208 0
-902 -209 0
-902 -210 0
-902 -214 0
-902 -215 0
-902 -216 0
-903 -163 0
-903 -164 0
-903 -165 0
-903 -166 0
-903 -167 0
-903 -168 0
-903 -169 0
-903 -170 0
-903 -171 0
-903 -172 0
-903 -173 0
-903 -174 0
-903 -175 0
-903 -179 0
-903 -180 0
-903 -181 0
-903 -182 0
-903 -183 0
-903 -184 0
-903 -185 0
-903 -186 0
-903 -187 0
-903 -188 0
-903 -189 0
-903 -190 0
-903 -191 0
-903 -192 0
-903 -193 0
-903 -197 0
-903 -198 0
-903 -199 0
-903 -200 0
-903 -201 0
-903 -202 0
-903 -203 0
-903 -204 0
-903 -205 0
-903 -206 0
-903 -207 0
-903 -208 0
-903 -209 0
-903 -210 0
-903 -211 0
-903 -215 0
-903 -216 0
-904 -163 0
-904 -164 0
-904 -165 0
-904 -166 0
-904 -167 0
-904 -168 0
-904 -169 0
-904 -170 0
-904 -171 0
-904 -172 0
-904 -173 0
-904 -174 0
-904 -175 0
-904 -176 0
-904 -180 0
-904 -181 0
-904 -182 0
-904 -183 0
-904 -184 0
-904 -185 0
-904 -186 0
-904 -187 0
-904 -188 0
-904 -189 0
-904 -190 0
-904 -191 0
-904 -192 0
-904 -193 0
-904 -194 0
-904 -198 0
-904 -199 0
-904 -200 0
-904 -201 0
-904 -202 0
-904 -203 0
-904 -204 0
-904 -205 0
-904 -206 0
-904 -207 0
-904 -208 0
-904 -209 0
-904 -210 0
-904 -211 0
-904 -212 0
-904 -216 0
-905 -163 0
-905 -164 0
-905 -165 0
-905 -166 0
-905 -167 0
-905 -168 0
-905 -169 0
-905 -170 0
-905 -171 0
-905 -172 0
-905 -173 0
-905 -174 0
-905 -175 0
-905 -176 0
-905 -177 0
-905 -181 0
-905 -182 0
-905 -183 0
-905 -184 0
-905 -185 0
-905 -186 0
-905 -187 0
-905 -188 0
-905 -189 0
-905 -190 0
-905 -191 0
-905 -192 0
-905 -193 0
-905 -194 0
-905 -195 0
-905 -199 0
-905 -200 0
-905 -201 0
-905 -202 0
-905 -203 0
-905 -204 0
-905 -205 0
-905 -206 0
-905 -207 0
-905 -208 0
-905 -209 0
-905 -210 0
-905 -211 0
-905 -212 0
-905 -213 0
-217 -235 0
-217 -253 0
-235 -253 0
-218 -236 0
-218 -254 0
-236 -254 0
-219 -237 0
-219 -255 0
-237 -255 0
-220 -238 0
-220 -256 0
-238 -256 0
-221 -239 0
-221 -257 0
-239 -257 0
-222 -240 0
-222 -258 0
-240 -258 0
-223 -241 0
-223 -259 0
-241 -259 0
-224 -242 0
-224 -260 0
-242 -260 0
-225 -243 0
-225 -261 0
-243 -261 0
-226 -244 0
-226 -262 0
-244 -262 0
-227 -245 0
-227 -263 0
-245 -263 0
-228 -246 0
-228 -264 0
-246 -264 0
-229 -247 0
-229 -265 0
-247 -265 0
-230 -248 0
-230 -266 0
-248 -266 0
-231 -249 0
-231 -267 0
-249 -267 0
-232 -250 0
-232 -268 0
-250 -268 0
-233 -251 0
-233 -269 0
-251 -269 0
-234 -252 0
-234 -270 0
-252 -270 0
906 907 908 909 910 911 912 913 914 915 916 917 918 919 920 921 0
-906 -907 0
-906 -908 0
-906 -909 0
-906 -910 0
-906 -911 0
-906 -912 0
-906 -913 0
-906 -914 0
-906 -915 0
-906 -916 0
-906 -917 0
-906 -918 0
-906 -919 0
-906 -920 0
-906 -921 0
-907 -908 0
-907 -909 0
-907 -910 0
-907 -911 0
-907 -912 0
-907 -913 0
-907 -914 0
-907 -915 0
-907 -916 0
-907 -917 0
-907 -918 0
-907 -919 0
-907 -920 0
-907 -921 0
-908 -909 0
-908 -910 0
-908 -911 0
-908 -912 0
-908 -913 0
-908 -914 0
-908 -915 0
-908 -916 0
-908 -917 0
-908 -918 0
-908 -919 0
-908 -920 0
-908 -921 0
-909 -910 0
-909 -911 0
-909 -912 0
-909 -913 0
-909 -914 0
-909 -915 0
-909 -916 0
-909 -917 0
-909 -918 0
-909 -919 0
-909 -920 0
-909 -921 0
-910 -911 0
-910 -912 0
-910 -913 0
-910 -914 0
-910 -915 0
-910 -916 0
-910 -917 0
-910 -918 0
-910 -919 0
-910 -920 0
-910 -921 0
-911 -912 0
-911 -913 0
-911 -914 0
-911 -915 0
-911 -916 0
-911 -917 0
-911 -918 0
-911 -919 0
-911 -920 0
-911 -921 0
-912 -913 0
-912 -914 0
-912 -915 0
-912 -916 0
-912 -917 0
-912 -918 0
-912 -919 0
-912 -920 0
-912 -921 0
-913 -914 0
-913 -915 0
-913 -916 0
-913 -917 0
-913 -918 0
-913 -919 0
-913 -920 0
-913 -921 0
-914 -915 0
-914 -916 0
-914 -917 0
-914 -918 0
-914 -919 0
-914 -920 0
-914 -921 0
-915 -916 0
-915 -917 0
-915 -918 0
-915 -919 0
-915 -920 0
-915 -921 0
-916 -917 0
-916 -918 0
-916 -919 0
-916 -920 0
-916 -921 0
-917 -918 0
-917 -919 0
-917 -920 0
-917 -921 0
-918 -919 0
-918 -920 0
-918 -921 0
-919 -920 0
-919 -921 0
-920 -921 0
-217 906 0
-218 906 907 0
-219 906 907 908 0
-220 907 908 909 0
-221 908 909 910 0
-222 909 910 911 0
-223 910 911 912 0
-224 911 912 913 0
-225 912 913 914 0
-226 913 914 915 0
-227 914 915 916 0
-228 915 916 917 0
-229 916 917 918 0
-230 917 918 919 0
-231 918 919 920 0
-232 919 920 921 0
-233 920 921 0
-234 921 0
-235 906 0
-236 906 907 0
-237 906 907 908 0
-238 907 908 909 0
-239 908 909 910 0
-240 909 910 911 0
-241 910 911 912 0
-242 911 912 913 0
-243 912 913 914 0
-244 913 914 915 0
-245 914 915 916 0
-246 915 916 917 0
-247 916 917 918 0
-248 917 918 919 0
-249 918 919 920 0
-250 919 920 921 0
-251 920 921 0
-252 921 0
-253 906 0
-254 906 907 0
-255 906 907 908 0
-256 907 908 909 0
-257 908 909 910 0
-258 909 910 911 0
-259 910 911 912 0
-260 911 912 913 0
-261 912 913 914 0
-262 913 914 915 0
-263 914 915 916 0
-264 915 916 917 0
-265 916 917 918 0
-266 917 918 919 0
-267 918 919 920 0
-268 919 920 921 0
-269 920 921 0
-270 921 0
-906 -220 0
-906 -221 0
-906 -222 0
-906 -223 0
-906 -224 0
-906 -225 0
-906 -226 0
-906 -227 0
-906 -228 0
-906 -229 0
-906 -230 0
-906 -231 0
-906 -232 0
-906 -233 0
-906 -234 0
-906 -238 0
-906 -239 0
-906 -240 0
-906 -241 0
-906 -242 0
-906 -243 0
-906 -244 0
-906 -245 0
-906 -246 0
-906 -247 0
-906 -248 0
-906 -249 0
-906 -250 0
-906 -251 0
-906 -252 0
-906 -256 0
-906 -257 0
-906 -258 0
-906 -259 0
-906 -260 0
-906 -261 0
-906 -262 0
-906 -263 0
-906 -264 0
-906 -265 0
-906 -266 0
-906 -267 0
-906 -268 0
-906 -269 0
-906 -270 0
-907 -217 0
-907 -221 0
-907 -222 0
-907 -223 0
-907 -224 0
-907 -225 0
-907 -226 0
-907 -227 0
-907 -228 0
-907 -229 0
-907 -230 0
-907 -231 0
-907 -232 0
-907 -233 0
-907 -234 0
-907 -235 0
-907 -239 0
-907 -240 0
-907 -241 0
-907 -242 0
-907 -243 0
-907 -244 0
-907 -245 0
-907 -246 0
-907 -247 0
-907 -248 0
-907 -249 0
-907 -250 0
-907 -251 0
-907 -252 0
-907 -253 0
-907 -257 0
-907 -258 0
-907 -259 0
-907 -260 0
-907 -261 0
-907 -262 0
-907 -263 0
-907 -264 0
-907 -265 0
-907 -266 0
-907 -267 0
-907 -268 0
-907 -269 0
-907 -270 0
-908 -217 0
-908 -218 0
-908 -222 0
-908 -223 0
-908 -224 0
-908 -225 0
-908 -226 0
-908 -227 0
-908 -228 0
-908 -229 0
-908 -230 0
-908 -231 0
-908 -232 0
-908 -233 0
-908 -234 0
-908 -235 0
-908 -236 0
-908 -240 0
-908 -241 0
-908 -242 0
-908 -243 0
-908 -244 0
-908 -245 0
-908 -246 0
-908 -247 0
-908 -248 0
-908 -249 0
-908 -250 0
-908 -251 0
-908 -252 0
-908 -253 0
-908 -254 0
-908 -258 0
-908 -259 0
-908 -260 0
-908 -261 0
-908 -262 0
-908 -263 0
-908 -264 0
-908 -265 0
-908 -266 0
-908 -267 0
-908 -268 0
-908 -269 0
-908 -270 0
-909 -217 0
-909 -218 0
-909 -219 0
-909 -223 0
-909 -224 0
-909 -225 0
-909 -226 0
-909 -227 0
-909 -228 0
-909 -229 0
-909 -230 0
-909 -231 0
-909 -232 0
-909 -233 0
-909 -234 0
-909 -235 0
-909 -236 0
-909 -237 0
-909 -241 0
-909 -242 0
-909 -243 0
-909 -244 0
-909 -245 0
-909 -246 0
-909 -247 0
-909 -248 0
-909 -249 0
-909 -250 0
-909 -251 0
-909 -252 0
-909 -253 0
-909 -254 0
-909 -255 0
-909 -259 0
-909 -260 0
-909 -261 0
-909 -262 0
-909 -263 0
-909 -264 0
-909 -265 0
-909 -266 0
-909 -267 0
-909 -268 0
-909 -269 0
-909 -270 0
-910 -217 0
-910 -218 0
-910 -219 0
-910 -220 0
-910 -224 0
-910 -225 0
-910 -226 0
-910 -227 0
-910 -228 0
-910 -229 0
-910 -230 0
-910 -231 0
-910 -232 0
-910 -233 0
-910 -234 0
-910 -235 0
-910 -236 0
-910 -237 0
-910 -238 0
-910 -242 0
-910 -243 0
-910 -244 0
-910 -245 0
-910 -246 0
-910 -247 0
-910 -248 0
-910 -249 0
-910 -250 0
-910 -251 0
-910 -252 0
-910 -253 0
-910 -254 0
-910 -255 0
-910 -256 0
-910 -260 0
-910 -261 0
-910 -262 0
-910 -263 0
-910 -264 0
-910 -265 0
-910 -266 0
-910 -267 0
-910 -268 0
-910 -269 0
-910 -270 0
-911 -217 0
-911 -218 0
-911 -219 0
-911 -220 0
-911 -221 0
-911 -225 0
-911 -226 0
-911 -227 0
-911 -228 0
-911 -229 0
-911 -230 0
-911 -231 0
-911 -232 0
-911 -233 0
-911 -234 0
-911 -235 0
-911 -236 0
-911 -237 0
-911 -238 0
-911 -239 0
-911 -243 0
-911 -244 0
-911 -245 0
-911 -246 0
-911 -247 0
-911 -248 0
-911 -249 0
-911 -250 0
-911 -251 0
-911 -252 0
-911 -253 0
-911 -254 0
-911 -255 0
-911 -256 0
-911 -257 0
-911 -261 0
-911 -262 0
-911 -263 0
-911 -264 0
-911 -265 0
-911 -266 0
-911 -267 0
-911 -268 0
-911 -269 0
-911 -270 0
-912 -217 0
-912 -218 0
-912 -219 0
-912 -220 0
-912 -221 0
-912 -222 0
-912 -226 0
-912 -227 0
-912 -228 0
-912 -229 0
-912 -230 0
-912 -231 0
-912 -232 0
-912 -233 0
-912 -234 0
-912 -235 0
-912 -236 0
-912 -237 0
-912 -238 0
-912 -239 0
-912 -240 0
-912 -244 0
-912 -245 0
-912 -246 0
-912 -247 0
-912 -248 0
-912 -249 0
-912 -250 0
-912 -251 0
-912 -252 0
-912 -253 0
-912 -254 0
-912 -255 0
-912 -256 0
-912 -257 0
-912 -258 0
-912 -262 0
-912 -263 0
-912 -264 0
-912 -265 0
-912 -266 0
-912 -267 0
-912 -268 0
-912 -269 0
-912 -270 0
-913 -217 0
-913 -218 0
-913 -219 0
-913 -220 0
-913 -221 0
-913 -222 0
-913 -223 0
-913 -227 0
-913 -228 0
-913 -229 0
-913 -230 0
-913 -231 0
-913 -232 0
-913 -233 0
-913 -234 0
-913 -235 0
-913 -236 0
-913 -237 0
-913 -238 0
-913 -239 0
-913 -240 0
-913 -241 0
-913 -245 0
-913 -246 0
-913 -247 0
-913 -248 0
-913 -249 0
-913 -250 0
-913 -251 0
-913 -252 0
-913 -253 0
-913 -254 0
-913 -255 0
-913 -256 0
-913 -257 0
-913 -258 0
-913 -259 0
-913 -263 0
-913 -264 0
-913 -265 0
-913 -266 0
-913 -267 0
-913 -268 0
-913 -269 0
-913 -270 0
-914 -217 0
-914 -218 0
-914 -219 0
-914 -220 0
-914 -221 0
-914 -222 0
-914 -223 0
-914 -224 0
-914 -228 0
-914 -229 0
-914 -230 0
-914 -231 0
-914 -232 0
-914 -233 0
-914 -234 0
-914 -235 0
-914 -236 0
-914 -237 0
-914 -238 0
-914 -239 0
-914 -240 0
-914 -241 0
-914 -242 0
-914 -246 0
-914 -247 0
-914 -248 0
-914 -249 0
-914 -250 0
-914 -251 0
-914 -252 0
-914 -253 0
-914 -254 0
-914 -255 0
-914 -256 0
-914 -257 0
-914 -258 0
-914 -259 0
-914 -260 0
-914 -264 0
-914 -265 0
-914 -266 0
-914 -267 0
-914 -268 0
-914 -269 0
-914 -270 0
-915 -217 0
-915 -218 0
-915 -219 0
-915 -220 0
-915 -221 0
-915 -222 0
-915 -223 0
-915 -224 0
-915 -225 0
-915 -229 0
-915 -230 0
-915 -231 0
-915 -232 0
-915 -233 0
-915 -234 0
-915 -235 0
-915 -236 0
-915 -237 0
-915 -238 0
-915 -239 0
-915 -240 0
-915 -241 0
-915 -242 0
-915 -243 0
-915 -247 0
-915 -248 0
-915 -249 0
-915 -250 0
-915 -251 0
-915 -252 0
-915 -253 0
-915 -254 0
-915 -255 0
-915 -256 0
-915 -257 0
-915 -258 0
-915 -259 0
-915 -260 0
-915 -261 0
-915 -265 0
-915 -266 0
-915 -267 0
-915 -268 0
-915 -269 0
-915 -270 0
-916 -217 0
-916 -218 0
-916 -219 0
-916 -220 0
-916 -221 0
-916 -222 0
-916 -223 0
-916 -224 0
-916 -225 0
-916 -226 0
-916 -230 0
-916 -231 0
-916 -232 0
-916 -233 0
-916 -234 0
-916 -235 0
-916 -236 0
-916 -237 0
-916 -238 0
-916 -239 0
-916 -240 0
-916 -241 0
-916 -242 0
-916 -243 0
-916 -244 0
-916 -248 0
-916 -249 0
-916 -250 0
-916 -251 0
-916 -252 0
-916 -253 0
-916 -254 0
-916 -255 0
-916 -256 0
-916 -257 0
-916 -258 0
-916 -259 0
-916 -260 0
-916 -261 0
-916 -262 0
-916 -266 0
-916 -267 0
-916 -268 0
-916 -269 0
-916 -270 0
-917 -217 0
-917 -218 0
-917 -219 0
-917 -220 0
-917 -221 0
-917 -222 0
-917 -223 0
-917 -224 0
-917 -225 0
-917 -226 0
-917 -227 0
-917 -231 0
-917 -232 0
-917 -233 0
-917 -234 0
-917 -235 0
-917 -236 0
-917 -237 0
-917 -238 0
-917 -239 0
-917 -240 0
-917 -241 0
-917 -242 0
-917 -243 0
-917 -244 0
-917 -245 0
-917 -249 0
-917 -250 0
-917 -251 0
-917 -252 0
-917 -253 0
-917 -254 0
-917 -255 0
-917 -256 0
-917 -257 0
-917 -258 0
-917 -259 0
-917 -260 0
-917 -261 0
-917 -262 0
-917 -263 0
-917 -267 0
-917 -268 0
-917 -269 0
-917 -270 0
-918 -217 0
-918 -218 0
-918 -219 0
-918 -220 0
-918 -221 0
-918 -222 0
-918 -223 0
-918 -224 0
-918 -225 0
-918 -226 0
-918 -227 0
-918 -228 0
-918 -232 0
-918 -233 0
-918 -234 0
-918 -235 0
-918 -236 0
-918 -237 0
-918 -238 0
-918 -239 0
-918 -240 0
-918 -241 0
-918 -242 0
-918 -243 0
-918 -244 0
-918 -245 0
-918 -246 0
-918 -250 0
-918 -251 0
-918 -252 0
-918 -253 0
-918 -254 0
-918 -255 0
-918 -256 0
-918 -257 0
-918 -258 0
-918 -259 0
-918 -260 0
-918 -261 0
-918 -262 0
-918 -263 0
-918 -264 0
-918 -268 0
-918 -269 0
-918 -270 0
-919 -217 0
-919 -218 0
-919 -219 0
-919 -220 0
-919 -221 0
-919 -222 0
-919 -223 0
-919 -224 0
-919 -225 0
-919 -226 0
-919 -227 0
-919 -228 0
-919 -229 0
-919 -233 0
-919 -234 0
-919 -235 0
-919 -236 0
-919 -237 0
-919 -238 0
-919 -239 0
-919 -240 0
-919 -241 0
-919 -242 0
-919 -243 0
-919 -244 0
-919 -245 0
-919 -246 0
-919 -247 0
-919 -251 0
-919 -252 0
-919 -253 0
-919 -254 0
-919 -255 0
-919 -256 0
-919 -257 0
-919 -258 0
-919 -259 0
-919 -260 0
-919 -261 0
-919 -262 0
-919 -263 0
-919 -264 0
-919 -265 0
-919 -269 0
-919 -270 0
-920 -217 0
-920 -218 0
-920 -219 0
-920 -220 0
-920 -221 0
-920 -222 0
-920 -223 0
-920 -224 0
-920 -225 0
-920 -226 0
-920 -227 0
-920 -228 0
-920 -229 0
-920 -230 0
-920 -234 0
-920 -235 0
-920 -236 0
-920 -237 0
-920 -238 0
-920 -239 0
-920 -240 0
-920 -241 0
-920 -242 0
-920 -243 0
-920 -244 0
-920 -245 0
-920 -246 0
-920 -247 0
-920 -248 0
-920 -252 0
-920 -253 0
-920 -254 0
-920 -255 0
-920 -256 0
-920 -257 0
-920 -258 0
-920 -259 0
-920 -260 0
-920 -261 0
-920 -262 0
-920 -263 0
-920 -264 0
-920 -265 0
-920 -266 0
-920 -270 0
-921 -217 0
-921 -218 0
-921 -219 0
-921 -220 0
-921 -221 0
-921 -222 0
-921 -223 0
-921 -224 0
-921 -225 0
-921 -226 0
-921 -227 0
-921 -228 0
-921 -229 0
-921 -230 0
-921 -231 0
-921 -235 0
-921 -236 0
-921 -237 0
-921 -238 0
-921 -239 0
-921 -240 0
-921 -241 0
-921 -242 0
-921 -243 0
-921 -244 0
-921 -245 0
-921 -246 0
-921 -247 0
-921 -248 0
-921 -249 0
-921 -253 0
-921 -254 0
-921 -255 0
-921 -256 0
-921 -257 0
-921 -258 0
-921 -259 0
-921 -260 0
-921 -261 0
-921 -262 0
-921 -263 0
-921 -264 0
-921 -265 0
-921 -266 0
-921 -267 0
-271 -289 0
-271 -307 0
-289 -307 0
-272 -290 0
-272 -308 0
-290 -308 0
-273 -291 0
-273 -309 0
-291 -309 0
-274 -292 0
-274 -310 0
-292 -310 0
-275 -293 0
-275 -311 0
-293 -311 0
-276 -294 0
-276 -312 0
-294 -312 0
-277 -295 0
-277 -313 0
-295 -313 0
-278 -296 0
-278 -314 0
-296 -314 0
-279 -297 0
-279 -315 0
-297 -315 0
-280 -298 0
-280 -316 0
-298 -316 0
-281 -299 0
-281 -317 0
-299 -317 0
-282 -300 0
-282 -318 0
-300 -318 0
-283 -301 0
-283 -319 0
-301 -319 0
-284 -302 0
-284 -320 0
-302 -320 0
-285 -303 0
-285 -321 0
-303 -321 0
-286 -304 0
-286 -322 0
-304 -322 0
-287 -305 0
-287 -323 0
-305 -323 0
-288 -306 0
-288 -324 0
-306 -324 0
922 923 924 925 926 927 928 929 930 931 932 933 934 935 936 937 0
-922 -923 0
-922 -924 0
-922 -925 0
-922 -926 0
-922 -927 0
-922 -928 0
-922 -929 0
-922 -930 0
-922 -931 0
-922 -932 0
-922 -933 0
-922 -934 0
-922 -935 0
-922 -936 0
-922 -937 0
-923 -924 0
-923 -925 0
-923 -926 0
-923 -927 0
-923 -928 0
-923 -929 0
-923 -930 0
-923 -931 0
-923 -932 0
-923 -933 0
-923 -934 0
-923 -935 0
-923 -936 0
-923 -937 0
-924 -925 0
-924 -926 0
-924 -927 0
-924 -928 0
-924 -929 0
-924 -930 0
-924 -931 0
-924 -932 0
-924 -933 0
-924 -934 0
-924 -935 0
-924 -936 0
-924 -937 0
-925 -926 0
-925 -927 0
-925 -928 0
-925 -929 0
-925 -930 0
-925 -931 0
-925 -932 0
-925 -933 0
-925 -934 0
-925 -935 0
-925 -936 0
-925 -937 0
-926 -927 0
-926 -928 0
-926 -929 0
-926 -930 0
-926 -931 0
-926 -932 0
-926 -933 0
-926 -934 0
-926 -935 0
-926 -936 0
-926 -937 0
-927 -928 0
-927 -929 0
-927 -930 0
-927 -931 0
-927 -932 0
-927 -933 0
-927 -934 0
-927 -935 0
-927 -936 0
-927 -937 0
-928 -929 0
-928 -930 0
-928 -931 0
-928 -932 0
-928 -933 0
-928 -934 0
-928 -935 0
-928 -936 0
-928 -937 0
-929 -930 0
-929 -931 0
-929 -932 0
-929 -933 0
-929 -934 0
-929 -935 0
-929 -936 0
-929 -937 0
-930 -931 0
-930 -932 0
-930 -933 0
-930 -934 0
-930 -935 0
-930 -936 0
-930 -937 0
-931 -932 0
-931 -933 0
-931 -934 0
-931 -935 0
-931 -936 0
-931 -937 0
-932 -933 0
-932 -934 0
-932 -935 0
-932 -936 0
-932 -937 0
-933 -934 0
-933 -935 0
-933 -936 0
-933 -937 0
-934 -935 0
-934 -936 0
-934 -937 0
-935 -936 0
-935 -937 0
-936 -937 0
-271 922 0
-272 922 923 0
-273 922 923 924 0
-274 923 924 925 0
-275 924 925 926 0
-276 925 926 927 0
-277 926 927 928 0
-278 927 928 929 0
-279 928 929 930 0
-280 929 930 931 0
-281 930 931 932 0
-282 931 932 933 0
-283 932 933 934 0
-284 933 934 935 0
-285 934 935 936 0
-286 935 936 937 0
-287 936 937 0
-288 937 0
-289 922 0
-290 922 923 0
-291 922 923 924 0
-292 923 924 925 0
-293 924 925 926 0
-294 925 926 927 0
-295 926 927 928 0
-296 927 928 929 0
-297 928 929 930 0
-298 929 930 931 0
-299 930 931 932 0
-300 931 932 933 0
-301 932 933 934 0
-302 933 934 935 0
-303 934 935 936 0
-304 935 936 937 0
-305 936 937 0
-306 937 0
-307 922 0
-308 922 923 0
-309 922 923 924 0
-310 923 924 925 0
-311 924 925 926 0
-312 925 926 927 0
-313 926 927 928 0
-314 927 928 929 0
-315 928 929 930 0
-316 929 930 931 0
-317 930 931 932 0
-318 931 932 933 0
-319 932 933 934 0
-320 933 934 935 0
-321 934 935 936 0
-322 935 936 937 0
-323 936 937 0
-324 937 0
-922 -274 0
-922 -275 0
-922 -276 0
-922 -277 0
-922 -278 0
-922 -279 0
-922 -280 0
-922 -281 0
-922 -282 0
-922 -283 0
-922 -284 0
-922 -285 0
-922 -286 0
-922 -287 0
-922 -288 0
-922 -292 0
-922 -293 0
-922 -294 0
-922 -295 0
-922 -296 0
-922 -297 0
-922 -298 0
-922 -299 0
-922 -300 0
-922 -301 0
-922 -302 0
-922 -303 0
-922 -304 0
-922 -305 0
-922 -306 0
-922 -310 0
-922 -311 0
-922 -312 0
-922 -313 0
-922 -314 0
-922 -315 0
-922 -316 0
-922 -317 0
-922 -318 0
-922 -319 0
-922 -320 0
-922 -321 0
-922 -322 0
-922 -323 0
-922 -324 0
-923 -271 0
-923 -275 0
-923 -276 0
-923 -277 0
-923 -278 0
-923 -279 0
-923 -280 0
-923 -281 0
-923 -282 0
-923 -283 0
-923 -284 0
-923 -285 0
-923 -286 0
-923 -287 0
-923 -288 0
-923 -289 0
-923 -293 0
-923 -294 0
-923 -295 0
-923 -296 0
-923 -297 0
-923 -298 0
-923 -299 0
-923 -300 0
-923 -301 0
-923 -302 0
-923 -303 0
-923 -304 0
-923 -305 0
-923 -306 0
-923 -307 0
-923 -311 0
-923 -312 0
-923 -313 0
-923 -314 0
-923 -315 0
-923 -316 0
-923 -317 0
-923 -318 0
-923 -319 0
-923 -320 0
-923 -321 0
-923 -322 0
-923 -323 0
-923 -324 0
-924 -271 0
-924 -272 0
-924 -276 0
-924 -277 0
-924 -278 0
-924 -279 0
-924 -280 0
-924 -281 0
-924 -282 0
-924 -283 0
-924 -284 0
-924 -285 0
-924 -286 0
-924 -287 0
-924 -288 0
-924 -289 0
-924 -290 0
-924 -294 0
-924 -295 0
-924 -296 0
-924 -297 0
-924 -298 0
-924 -299 0
-924 -300 0
-924 -301 0
-924 -302 0
-924 -303 0
-924 -304 0
-924 -305 0
-924 -306 0
-924 -307 0
-924 -308 0
-924 -312 0
-924 -313 0
-924 -314 0
-924 -315 0
-924 -316 0
-924 -317 0
-924 -318 0
-924 -319 0
-924 -320 0
-924 -321 0
-924 -322 0
-924 -323 0
-924 -324 0
-925 -271 0
-925 -272 0
-925 -273 0
-925 -277 0
-925 -278 0
-925 -279 0
-925 -280 0
-925 -281 0
-925 -282 0
-925 -283 0
-925 -284 0
-925 -285 0
-925 -286 0
-925 -287 0
-925 -288 0
-925 -289 0
-925 -290 0
-925 -291 0
-925 -295 0
-925 -296 0
-925 -297 0
-925 -298 0
-925 -299 0
-925 -300 0
-925 -301 0
-925 -302 0
-925 -303 0
-925 -304 0
-925 -305 0
-925 -306 0
-925 -307 0
-925 -308 0
-925 -309 0
-925 -313 0
-925 -314 0
-925 -315 0
-925 -316 0
-925 -317 0
-925 -318 0
-925 -319 0
-925 -320 0
-925 -321 0
-925 -322 0
-925 -323 0
-925 -324 0
-926 -271 0
-926 -272 0
-926 -273 0
-926 -274 0
-926 -278 0
-926 -279 0
-926 -280 0
-926 -281 0
-926 -282 0
-926 -283 0
-926 -284 0
-926 -285 0
-926 -286 0
-926 -287 0
-926 -288 0
-926 -289 0
-926 -290 0
-926 -291 0
-926 -292 0
-926 -296 0
-926 -297 0
-926 -298 0
-926 -299 0
-926 -300 0
-926 -301 0
-926 -302 0
-926 -303 0
-926 -304 0
-926 -305 0
-926 -306 0
-926 -307 0
-926 -308 0
-926 -309 0
-926 -310 0
-926 -314 0
-926 -315 0
-926 -316 0
-926 -317 0
-926 -318 0
-926 -319 0
-926 -320 0
-926 -321 0
-926 -322 0
-926 -323 0
-926 -324 0
-927 -271 0
-927 -272 0
-927 -273 0
-927 -274 0
-927 -275 0
-927 -279 0
-927 -280 0
-927 -281 0
-927 -282 0
-927 -283 0
-927 -284 0
-927 -285 0
-927 -286 0
-927 -287 0
-927 -288 0
-927 -289 0
-927 -290 0
-927 -291 0
-927 -292 0
-927 -293 0
-927 -297 0
-927 -298 0
-927 -299 0
-927 -300 0
-927 -301 0
-927 -302 0
-927 -303 0
-927 -304 0
-927 -305 0
-927 -306 0
-927 -307 0
-927 -308 0
-927 -309 0
-927 -310 0
-927 -311 0
-927 -315 0
-927 -316 0
-927 -317 0
-927 -318 0
-927 -319 0
-927 -320 0
-927 -321 0
-927 -322 0
-927 -323 0
-927 -324 0
-928 -271 0
-928 -272 0
-928 -273 0
-928 -274 0
-928 -275 0
-928 -276 0
-928 -280 0
-928 -281 0
-928 -282 0
-928 -283 0
-928 -284 0
-928 -285 0
-928 -286 0
-928 -287 0
-928 -288 0
-928 -289 0
-928 -290 0
-928 -291 0
-928 -292 0
-928 -293 0
-928 -294 0
-928 -298 0
-928 -299 0
-928 -300 0
-928 -301 0
-928 -302 0
-928 -303 0
-928 -304 0
-928 -305 0
-928 -306 0
-928 -307 0
-928 -308 0
-928 -309 0
-928 -310 0
-928 -311 0
-928 -312 0
-928 -316 0
-928 -317 0
-928 -318 0
-928 -319 0
-928 -320 0
-928 -321 0
-928 -322 0
-928 -323 0
-928 -324 0
-929 -271 0
-929 -272 0
-929 -273 0
-929 -274 0
-929 -275 0
-929 -276 0
-929 -277 0
-929 -281 0
-929 -282 0
-929 -283 0
-929 -284 0
-929 -285 0
-929 -286 0
-929 -287 0
-929 -288 0
-929 -289 0
-929 -290 0
-929 -291 0
-929 -292 0
-929 -293 0
-929 -294 0
-929 -295 0
-929 -299 0
-929 -300 0
-929 -301 0
-929 -302 0
-929 -303 0
-929 -304 0
-929 -305 0
-929 -306 0
-929 -307 0
-929 -308 0
-929 -309 0
-929 -310 0
-929 -311 0
-929 -312 0
-929 -313 0
-929 -317 0
-929 -318 0
-929 -319 0
-929 -320 0
-929 -321 0
-929 -322 0
-929 -323 0
-929 -324 0
-930 -271 0
-930 -272 0
-930 -273 0
-930 -274 0
-930 -275 0
-930 -276 0
-930 -277 0
-930 -278 0
-930 -282 0
-930 -283 0
-930 -284 0
-930 -285 0
-930 -286 0
-930 -287 0
-930 -288 0
-930 -289 0
-930 -290 0
-930 -291 0
-930 -292 0
-930 -293 0
-930 -294 0
-930 -295 0
-930 -296 0
-930 -300 0
-930 -301 0
-930 -302 0
-930 -303 0
-930 -304 0
-930 -305 0
-930 -306 0
-930 -307 0
-930 -308 0
-930 -309 0
-930 -310 0
-930 -311 0
-930 -312 0
-930 -313 0
-930 -314 0
-930 -318 0
-930 -319 0
-930 -320 0
-930 -321 0
-930 -322 0
-930 -323 0
-930 -324 0
-931 -271 0
-931 -272 0
-931 -273 0
-931 -274 0
-931 -275 0
-931 -276 0
-931 -277 0
-931 -278 0
-931 -279 0
-931 -283 0
-931 -284 0
-931 -285 0
-931 -286 0
-931 -287 0
-931 -288 0
-931 -289 0
-931 -290 0
-931 -291 0
-931 -292 0
-931 -293 0
-931 -294 0
-931 -295 0
-931 -296 0
-931 -297 0
-931 -301 0
-931 -302 0
-931 -303 0
-931 -304 0
-931 -305 0
-931 -306 0
-931 -307 0
-931 -308 0
-931 -309 0
-931 -310 0
-931 -311 0
-931 -312 0
-931 -313 0
-931 -314 0
-931 -315 0
-931 -319 0
-931 -320 0
-931 -321 0
-931 -322 0
-931 -323 0
-931 -324 0
-932 -271 0
-932 -272 0
-932 -273 0
-932 -274 0
-932 -275 0
-932 -276 0
-932 -277 0
-932 -278 0
-932 -279 0
-932 -280 0
-932 -284 0
-932 -285 0
-932 -286 0
-932 -287 0
-932 -288 0
-932 -289 0
-932 -290 0
-932 -291 0
-932 -292 0
-932 -293 0
-932 -294 0
-932 -295 0
-932 -296 0
-932 -297 0
-932 -298 0
-932 -302 0
-932 -303 0
-932 -304 0
-932 -305 0
-932 -306 0
-932 -307 0
-932 -308 0
-932 -309 0
-932 -310 0
-932 -311 0
-932 -312 0
-932 -313 0
-932 -314 0
-932 -315 0
-932 -316 0
-932 -320 0
-932 -321 0
-932 -322 0
-932 -323 0
-932 -324 0
-933 -271 0
-933 -272 0
-933 -273 0
-933 -274 0
-933 -275 0
-933 -276 0
-933 -277 0
-933 -278 0
-933 -279 0
-933 -280 0
-933 -281 0
-933 -285 0
-933 -286 0
-933 -287 0
-933 -288 0
-933 -289 0
-933 -290 0
-933 -291 0
-933 -292 0
-933 -293 0
-933 -294 0
-933 -295 0
-933 -296 0
-933 -297 0
-933 -298 0
-933 -299 0
-933 -303 0
-933 -304 0
-933 -305 0
-933 -306 0
-933 -307 0
-933 -308 0
-933 -309 0
-933 -310 0
-933 -311 0
-933 -312 0
-933 -313 0
-933 -314 0
-933 -315 0
-933 -316 0
-933 -317 0
-933 -321 0
-933 -322 0
-933 -323 0
-933 -324 0
-934 -271 0
-934 -272 0
-934 -273 0
-934 -274 0
-934 -275 0
-934 -276 0
-934 -277 0
-934 -278 0
-934 -279 0
-934 -280 0
-934 -281 0
-934 -282 0
-934 -286 0
-934 -287 0
-934 -288 0
-934 -289 0
-934 -290 0
-934 -291 0
-934 -292 0
-934 -293 0
-934 -294 0
-934 -295 0
-934 -296 0
-934 -297 0
-934 -298 0
-934 -299 0
-934 -300 0
-934 -304 0
-934 -305 0
-934 -306 0
-934 -307 0
-934 -308 0
-934 -309 0
-934 -310 0
-934 -311 0
-934 -312 0
-934 -313 0
-934 -314 0
-934 -315 0
-934 -316 0
-934 -317 0
-934 -318 0
-934 -322 0
-934 -323 0
-934 -324 0
-935 -271 0
-935 -272 0
-935 -273 0
-935 -274 0
-935 -275 0
-935 -276 0
-935 -277 0
-935 -278 0
-935 -279 0
-935 -280 0
-935 -281 0
-935 -282 0
-935 -283 0
-935 -287 0
-935 -288 0
-935 -289 0
-935 -290 0
-935 -291 0
-935 -292 0
-935 -293 0
-935 -294 0
-935 -295 0
-935 -296 0
-935 -297 0
-935 -298 0
-935 -299 0
-935 -300 0
-935 -301 0
-935 -305 0
-935 -306 0
-935 -307 0
-935 -308 0
-935 -309 0
-935 -310 0
-935 -311 0
-935 -312 0
-935 -313 0
-935 -314 0
-935 -315 0
-935 -316 0
-935 -317 0
-935 -318 0
-935 -319 0
-935 -323 0
-935 -324 0
-936 -271 0
-936 -272 0
-936 -273 0
-936 -274 0
-936 -275 0
-936 -276 0
-936 -277 0
-936 -278 0
-936 -279 0
-936 -280 0
-936 -281 0
-936 -282 0
-936 -283 0
-936 -284 0
-936 -288 0
-936 -289 0
-936 -290 0
-936 -291 0
-936 -292 0
-936 -293 0
-936 -294 0
-936 -295 0
-936 -296 0
-936 -297 0
-936 -298 0
-936 -299 0
-936 -300 0
-936 -301 0
-936 -302 0
-936 -306 0
-936 -307 0
-936 -308 0
-936 -309 0
-936 -310 0
-936 -311 0
-936 -312 0
-936 -313 0
-936 -314 0
-936 -315 0
-936 -316 0
-936 -317 0
-936 -318 0
-936 -319 0
-936 -320 0
-936 -324 0
-937 -271 0
-937 -272 0
-937 -273 0
-937 -274 0
-937 -275 0
-937 -276 0
-937 -277 0
-937 -278 0
-937 -279 0
-937 -280 0
-937 -281 0
-937 -282 0
-937 -283 0
-937 -284 0
-937 -285 0
-937 -289 0
-937 -290 0
-937 -291 0
-937 -292 0
-937 -293 0
-937 -294 0
-937 -295 0
-937 -296 0
-937 -297 0
-937 -298 0
-937 -299 0
-937 -300 0
-937 -301 0
-937 -302 0
-937 -303 0
-937 -307 0
-937 -308 0
-937 -309 0
-937 -310 0
-937 -311 0
-937 -312 0
-937 -313 0
-937 -314 0
-937 -315 0
-937 -316 0
-937 -317 0
-937 -318 0
-937 -319 0
-937 -320 0
-937 -321 0
-325 -343 0
-325 -361 0
-343 -361 0
-326 -344 0
-326 -362 0
-344 -362 0
-327 -345 0
-327 -363 0
-345 -363 0
-328 -346 0
-328 -364 0
-346 -364 0
-329 -347 0
-329 -365 0
-347 -365 0
-330 -348 0
-330 -366 0
-348 -366 0
-331 -349 0
-331 -367 0
-349 -367 0
-332 -350 0
-332 -368 0
-350 -368 0
-333 -351 0
-333 -369 0
-351 -369 0
-334 -352 0
-334 -370 0
-352 -370 0
-335 -353 0
-335 -371 0
-353 -371 0
-336 -354 0
-336 -372 0
-354 -372 0
-337 -355 0
-337 -373 0
-355 -373 0
-338 -356 0
-338 -374 0
-356 -374 0
-339 -357 0
-339 -375 0
-357 -375 0
-340 -358 0
-340 -376 0
-358 -376 0
-341 -359 0
-341 -377 0
-359 -377 0
-342 -360 0
-342 -378 0
-360 -378 0
938 939 940 941 942 943 944 945 946 947 948 949 950 951 952 953 0
-938 -939 0
-938 -940 0
-938 -941 0
-938 -942 0
-938 -943 0
-938 -944 0
-938 -945 0
-938 -946 0
-938 -947 0
-938 -948 0
-938 -949 0
-938 -950 0
-938 -951 0
-938 -952 0
-938 -953 0
-939 -940 0
-939 -941 0
-939 -942 0
-939 -943 0
-939 -944 0
-939 -945 0
-939 -946 0
-939 -947 0
-939 -948 0
-939 -949 0
-939 -950 0
-939 -951 0
-939 -952 0
-939 -953 0
-940 -941 0
-940 -942 0
-940 -943 0
-940 -944 0
-940 -945 0
-940 -946 0
-940 -947 0
-940 -948 0
-940 -949 0
-940 -950 0
-940 -951 0
-940 -952 0
-940 -953 0
-941 -942 0
-941 -943 0
-941 -944 0
-941 -945 0
-941 -946 0
-941 -947 0
-941 -948 0
-941 -949 0
-941 -950 0
-941 -951 0
-941 -952 0
-941 -953 0
-942 -943 0
-942 -944 0
-942 -945 0
-942 -946 0
-942 -947 0
-942 -948 0
-942 -949 0
-942 -950 0
-942 -951 0
-942 -952 0
-942 -953 0
-943 -944 0
-943 -945 0
-943 -946 0
-943 -947 0
-943 -948 0
-943 -949 0
-943 -950 0
-943 -951 0
-943 -952 0
-943 -953 0
-944 -945 0
-944 -946 0
-944 -947 0
-944 -948 0
-944 -949 0
-944 -950 0
-944 -951 0
-944 -952 0
-944 -953 0
-945 -946 0
-945 -947 0
-945 -948 0
-945 -949 0
-945 -950 0
-945 -951 0
-945 -952 0
-945 -953 0
-946 -947 0
-946 -948 0
-946 -949 0
-946 -950 0
-946 -951 0
-946 -952 0
-946 -953 0
-947 -948 0
-947 -949 0
-947 -950 0
-947 -951 0
-947 -952 0
-947 -953 0
-948 -949 0
-948 -950 0
-948 -951 0
-948 -952 0
-948 -953 0
-949 -950 0
-949 -951 0
-949 -952 0
-949 -953 0
-950 -951 0
-950 -952 0
-950 -953 0
-951 -952 0
-951 -953 0
-952 -953 0
-325 938 0
-326 938 939 0
-327 938 939 940 0
-328 939 940 941 0
-329 940 941 942 0
-330 941 942 943 0
-331 942 943 944 0
-332 943 944 945 0
-333 944 945 946 0
-334 945 946 947 0
-335 946 947 948 0
-336 947 948 949 0
-337 948 949 950 0
-338 949 950 951 0
-339 950 951 952 0
-340 951 952 953 0
-341 952 953 0
-342 953 0
-343 938 0
-344 938 939 0
-345 938 939 940 0
-346 939 940 941 0
-347 940 941 942 0
-348 941 942 943 0
-349 942 943 944 0
-350 943 944 945 0
-351 944 945 946 0
-352 945 946 947 0
-353 946 947 948 0
-354 947 948 949 0
-355 948 949 950 0
-356 949 950 951 0
-357 950 951 952 0
-358 951 952 953 0
-359 952 953 0
-360 953 0
-361 938 0
-362 938 939 0
-363 938 939 940 0
-364 939 940 941 0
-365 940 941 942 0
-366 941 942 943 0
-367 942 943 944 0
-368 943 944 945 0
-369 944 945 946 0
-370 945 946 947 0
-371 946 947 948 0
-372 947 948 949 0
-373 948 949 950 0
-374 949 950 951 0
-375 950 951 952 0
-376 951 952 953 0
-377 952 953 0
-378 953 0
-938 -328 0
-938 -329 0
-938 -330 0
-938 -331 0
-938 -332 0
-938 -333 0
-938 -334 0
-938 -335 0
-938 -336 0
-938 -337 0
-938 -338 0
-938 -339 0
-938 -340 0
-938 -341 0
-938 -342 0
-938 -346 0
-938 -347 0
-938 -348 0
-938 -349 0
-938 -350 0
-938 -351 0
-938 -352 0
-938 -353 0
-938 -354 0
-938 -355 0
-938 -356 0
-938 -357 0
-938 -358 0
-938 -359 0
-938 -360 0
-938 -364 0
-938 -365 0
-938 -366 0
-938 -367 0
-938 -368 0
-938 -369 0
-938 -370 0
-938 -371 0
-938 -372 0
-938 -373 0
-938 -374 0
-938 -375 0
-938 -376 0
-938 -377 0
-938 -378 0
-939 -325 0
-939 -329 0
-939 -330 0
-939 -331 0
-939 -332 0
-939 -333 0
-939 -334 0
-939 -335 0
-939 -336 0
-939 -337 0
-939 -338 0
-939 -339 0
-939 -340 0
-939 -341 0
-939 -342 0
-939 -343 0
-939 -347 0
-939 -348 0
-939 -349 0
-939 -350 0
-939 -351 0
-939 -352 0
-939 -353 0
-939 -354 0
-939 -355 0
-939 -356 0
-939 -357 0
-939 -358 0
-939 -359 0
-939 -360 0
-939 -361 0
-939 -365 0
-939 -366 0
-939 -367 0
-939 -368 0
-939 -369 0
-939 -370 0
-939 -371 0
-939 -372 0
-939 -373 0
-939 -374 0
-939 -375 0
-939 -376 0
-939 -377 0
-939 -378 0
-940 -325 0
-940 -326 0
-940 -330 0
-940 -331 0
-940 -332 0
-940 -333 0
-940 -334 0
-940 -335 0
-940 -336 0
-940 -337 0
-940 -338 0
-940 -339 0
-940 -340 0
-940 -341 0
-940 -342 0
-940 -343 0
-940 -344 0
-940 -348 0
-940 -349 0
-940 -350 0
-940 -351 0
-940 -352 0
-940 -353 0
-940 -354 0
-940 -355 0
-940 -356 0
-940 -357 0
-940 -358 0
-940 -359 0
-940 -360 0
-940 -361 0
-940 -362 0
-940 -366 0
-940 -367 0
-940 -368 0
-940 -369 0
-940 -370 0
-940 -371 0
-940 -372 0
-940 -373 0
-940 -374 0
-940 -375 0
-940 -376 0
-940 -377 0
-940 -378 0
-941 -325 0
-941 -326 0
-941 -327 0
-941 -331 0
-941 -332 0
-941 -333 0
-941 -334 0
-941 -335 0
-941 -336 0
-941 -337 0
-941 -338 0
-941 -339 0
-941 -340 0
-941 -341 0
-941 -342 0
-941 -343 0
-941 -344 0
-941 -345 0
-941 -349 0
-941 -350 0
-941 -351 0
-941 -352 0
-941 -353 0
-941 -354 0
-941 -355 0
-941 -356 0
-941 -357 0
-941 -358 0
-941 -359 0
-941 -360 0
-941 -361 0
-941 -362 0
-941 -363 0
-941 -367 0
-941 -368 0
-941 -369 0
-941 -370 0
-941 -371 0
-941 -372 0
-941 -373 0
-941 -374 0
-941 -375 0
-941 -376 0
-941 -377 0
-941 -378 0
-942 -325 0
-942 -326 0
-942 -327 0
-942 -328 0
-942 -332 0
-942 -333 0
-942 -334 0
-942 -335 0
-942 -336 0
-942 -337 0
-942 -338 0
-942 -339 0
-942 -340 0
-942 -341 0
-942 -342 0
-942 -343 0
-942 -344 0
-942 -345 0
-942 -346 0
-942 -350 0
-942 -351 0
-942 -352 0
-942 -353 0
-942 -354 0
-942 -355 0
-942 -356 0
-942 -357 0
-942 -358 0
-942 -359 0
-942 -360 0
-942 -361 0
-942 -362 0
-942 -363 0
-942 -364 0
-942 -368 0
-942 -369 0
-942 -370 0
-942 -371 0
-942 -372 0
-942 -373 0
-942 -374 0
-942 -375 0
-942 -376 0
-942 -377 0
-942 -378 0
-943 -325 0
-943 -326 0
-943 -327 0
-943 -328 0
-943 -329 0
-943 -333 0
-943 -334 0
-943 -335 0
-943 -336 0
-943 -337 0
-943 -338 0
-943 -339 0
-943 -340 0
-943 -341 0
-943 -342 0
-943 -343 0
-943 -344 0
-943 -345 0
-943 -346 0
-943 -347 0
-943 -351 0
-943 -352 0
-943 -353 0
-943 -354 0
-943 -355 0
-943 -356 0
-943 -357 0
-943 -358 0
-943 -359 0
-943 -360 0
-943 -361 0
-943 -362 0
-943 -363 0
-943 -364 0
-943 -365 0
-943 -369 0
-943 -370 0
-943 -371 0
-943 -372 0
-943 -373 0
-943 -374 0
-943 -375 0
-943 -376 0
-943 -377 0
-943 -378 0
-944 -325 0
-944 -326 0
-944 -327 0
-944 -328 0
-944 -329 0
-944 -330 0
-944 -334 0
-944 -335 0
-944 -336 0
-944 -337 0
-944 -338 0
-944 -339 0
-944 -340 0
-944 -341 0
-944 -342 0
-944 -343 0
-944 -344 0
-944 -345 0
-944 -346 0
-944 -347 0
-944 -348 0
-944 -352 0
-944 -353 0
-944 -354 0
-944 -355 0
-944 -356 0
-944 -357 0
-944 -358 0
-944 -359 0
-944 -360 0
-944 -361 0
-944 -362 0
-944 -363 0
-944 -364 0
-944 -365 0
-944 -366 0
-944 -370 0
-944 -371 0
-944 -372 0
-944 -373 0
-944 -374 0
-944 -375 0
-944 -376 0
-944 -377 0
-944 -378 0
-945 -325 0
-945 -326 0
-945 -327 0
-945 -328 0
-945 -329 0
-945 -330 0
-945 -331 0
-945 -335 0
-945 -336 0
-945 -337 0
-945 -338 0
-945 -339 0
-945 -340 0
-945 -341 0
-945 -342 0
-945 -343 0
-945 -344 0
-945 -345 0
-945 -346 0
-945 -347 0
-945 -348 0
-945 -349 0
-945 -353 0
-945 -354 0
-945 -355 0
-945 -356 0
-945 -357 0
-945 -358 0
-945 -359 0
-945 -360 0
-945 -361 0
-945 -362 0
-945 -363 0
-945 -364 0
-945 -365 0
-945 -366 0
-945 -367 0
-945 -371 0
-945 -372 0
-945 -373 0
-945 -374 0
-945 -375 0
-945 -376 0
-945 -377 0
-945 -378 0
-946 -325 0
-946 -326 0
-946 -327 0
-946 -328 0
-946 -329 0
-946 -330 0
-946 -331 0
-946 -332 0
-946 -336 0
-946 -337 0
-946 -338 0
-946 -339 0
-946 -340 0
-946 -341 0
-946 -342 0
-946 -343 0
-946 -344 0
-946 -345 0
-946 -346 0
-946 -347 0
-946 -348 0
-946 -349 0
-946 -350 0
-946 -354 0
-946 -355 0
-946 -356 0
-946 -357 0
-946 -358 0
-946 -359 0
-946 -360 0
-946 -361 0
-946 -362 0
-946 -363 0
-946 -364 0
-946 -365 0
-946 -366 0
-946 -367 0
-946 -368 0
-946 -372 0
-946 -373 0
-946 -374 0
-946 -375 0
-946 -376 0
-946 -377 0
-946 -378 0
-947 -325 0
-947 -326 0
-947 -327 0
-947 -328 0
-947 -329 0
-947 -330 0
-947 -331 0
-947 -332 0
-947 -333 0
-947 -337 0
-947 -338 0
-947 -339 0
-947 -340 0
-947 -341 0
-947 -342 0
-947 -343 0
-947 -344 0
-947 -345 0
-947 -346 0
-947 -347 0
-947 -348 0
-947 -349 0
-947 -350 0
-947 -351 0
-947 -355 0
-947 -356 0
-947 -357 0
-947 -358 0
-947 -359 0
-947 -360 0
-947 -361 0
-947 -362 0
-947 -363 0
-947 -364 0
-947 -365 0
-947 -366 0
-947 -367 0
-947 -368 0
-947 -369 0
-947 -373 0
-947 -374 0
-947 -375 0
-947 -376 0
-947 -377 0
-947 -378 0
-948 -325 0
-948 -326 0
-948 -327 0
-948 -328 0
-948 -329 0
-948 -330 0
-948 -331 0
-948 -332 0
-948 -333 0
-948 -334 0
-948 -338 0
-948 -339 0
-948 -340 0
-948 -341 0
-948 -342 0
-948 -343 0
-948 -344 0
-948 -345 0
-948 -346 0
-948 -347 0
-948 -348 0
-948 -349 0
-948 -350 0
-948 -351 0
-948 -352 0
-948 -356 0
-948 -357 0
-948 -358 0
-948 -359 0
-948 -360 0
-948 -361 0
-948 -362 0
-948 -363 0
-948 -364 0
-948 -365 0
-948 -366 0
-948 -367 0
-948 -368 0
-948 -369 0
-948 -370 0
-948 -374 0
-948 -375 0
-948 -376 0
-948 -377 0
-948 -378 0
-949 -325 0
-949 -326 0
-949 -327 0
-949 -328 0
-949 -329 0
-949 -330 0
-949 -331 0
-949 -332 0
-949 -333 0
-949 -334 0
-949 -335 0
-949 -339 0
-949 -340 0
-949 -341 0
-949 -342 0
-949 -343 0
-949 -344 0
-949 -345 0
-949 -346 0
-949 -347 0
-949 -348 0
-949 -349 0
-949 -350 0
-949 -351 0
-949 -352 0
-949 -353 0
-949 -357 0
-949 -358 0
-949 -359 0
-949 -360 0
-949 -361 0
-949 -362 0
-949 -363 0
-949 -364 0
-949 -365 0
-949 -366 0
-949 -367 0
-949 -368 0
-949 -369 0
-949 -370 0
-949 -371 0
-949 -375 0
-949 -376 0
-949 -377 0
-949 -378 0
-950 -325 0
-950 -326 0
-950 -327 0
-950 -328 0
-950 -329 0
-950 -330 0
-950 -331 0
-950 -332 0
-950 -333 0
-950 -334 0
-950 -335 0
-950 -336 0
-950 -340 0
-950 -341 0
-950 -342 0
-950 -343 0
-950 -344 0
-950 -345 0
-950 -346 0
-950 -347 0
-950 -348 0
-950 -349 0
-950 -350 0
-950 -351 0
-950 -352 0
-950 -353 0
-950 -354 0
-950 -358 0
-950 -359 0
-950 -360 0
-950 -361 0
-950 -362 0
-950 -363 0
-950 -364 0
-950 -365 0
-950 -366 0
-950 -367 0
-950 -368 0
-950 -369 0
-950 -370 0
-950 -371 0
-950 -372 0
-950 -376 0
-950 -377 0
-950 -378 0
-951 -325 0
-951 -326 0
-951 -327 0
-951 -328 0
-951 -329 0
-951 -330 0
-951 -331 0
-951 -332 0
-951 -333 0
-951 -334 0
-951 -335 0
-951 -336 0
-951 -337 0
-951 -341 0
-951 -342 0
-951 -343 0
-951 -344 0
-951 -345 0
-951 -346 0
-951 -347 0
-951 -348 0
-951 -349 0
-951 -350 0
-951 -351 0
-951 -352 0
-951 -353 0
-951 -354 0
-951 -355 0
-951 -359 0
-951 -360 0
-951 -361 0
-951 -362 0
-951 -363 0
-951 -364 0
-951 -365 0
-951 -366 0
-951 -367 0
-951 -368 0
-951 -369 0
-951 -370 0
-951 -371 0
-951 -372 0
-951 -373 0
-951 -377 0
-951 -378 0
-952 -325 0
-952 -326 0
-952 -327 0
-952 -328 0
-952 -329 0
-952 -330 0
-952 -331 0
-952 -332 0
-952 -333 0
-952 -334 0
-952 -335 0
-952 -336 0
-952 -337 0
-952 -338 0
-952 -342 0
-952 -343 0
-952 -344 0
-952 -345 0
-952 -346 0
-952 -347 0
-952 -348 0
-952 -349 0
-952 -350 0
-952 -351 0
-952 -352 0
-952 -353 0
-952 -354 0
-952 -355 0
-952 -356 0
-952 -360 0
-952 -361 0
-952 -362 0
-952 -363 0
-952 -364 0
-952 -365 0
-952 -366 0
-952 -367 0
-952 -368 0
-952 -369 0
-952 -370 0
-952 -371 0
-952 -372 0
-952 -373 0
-952 -374 0
-952 -378 0
-953 -325 0
-953 -326 0
-953 -327 0
-953 -328 0
-953 -329 0
-953 -330 0
-953 -331 0
-953 -332 0
-953 -333 0
-953 -334 0
-953 -335 0
-953 -336 0
-953 -337 0
-953 -338 0
-953 -339 0
-953 -343 0
-953 -344 0
-953 -345 0
-953 -346 0
-953 -347 0
-953 -348 0
-953 -349 0
-953 -350 0
-953 -351 0
-953 -352 0
-953 -353 0
-953 -354 0
-953 -355 0
-953 -356 0
-953 -357 0
-953 -361 0
-953 -362 0
-953 -363 0
-953 -364 0
-953 -365 0
-953 -366 0
-953 -367 0
-953 -368 0
-953 -369 0
-953 -370 0
-953 -371 0
-953 -372 0
-953 -373 0
-953 -374 0
-953 -375 0
-379 -397 0
-379 -415 0
-397 -415 0
-380 -398 0
-380 -416 0
-398 -416 0
-381 -399 0
-381 -417 0
-399 -417 0
-382 -400 0
-382 -418 0
-400 -418 0
-383 -401 0
-383 -419 0
-401 -419 0
-384 -402 0
-384 -420 0
-402 -420 0
-385 -403 0
-385 -421 0
-403 -421 0
-386 -404 0
-386 -422 0
-404 -422 0
-387 -405 0
-387 -423 0
-405 -423 0
-388 -406 0
-388 -424 0
-406 -424 0
-389 -407 0
-389 -425 0
-407 -425 0
-390 -408 0
-390 -426 0
-408 -426 0
-391 -409 0
-391 -427 0
-409 -427 0
-392 -410 0
-392 -428 0
-410 -428 0
-393 -411 0
-393 -429 0
-411 -429 0
-394 -412 0
-394 -430 0
-412 -430 0
-395 -413 0
-395 -431 0
-413 -431 0
-396 -414 0
-396 -432 0
-414 -432 0
954 955 956 957 958 959 960 961 962 963 964 965 966 967 968 969 0
-954 -955 0
-954 -956 0
-954 -957 0
-954 -958 0
-954 -959 0
-954 -960 0
-954 -961 0
-954 -962 0
-954 -963 0
-954 -964 0
-954 -965 0
-954 -966 0
-954 -967 0
-954 -968 0
-954 -969 0
-955 -956 0
-955 -957 0
-955 -958 0
-955 -959 0
-955 -960 0
-955 -961 0
-955 -962 0
-955 -963 0
-955 -964 0
-955 -965 0
-955 -966 0
-955 -967 0
-955 -968 0
-955 -969 0
-956 -957 0
-956 -958 0
-956 -959 0
-956 -960 0
-956 -961 0
-956 -962 0
-956 -963 0
-956 -964 0
-956 -965 0
-956 -966 0
-956 -967 0
-956 -968 0
-956 -969 0
-957 -958 0
-957 -959 0
-957 -960 0
-957 -961 0
-957 -962 0
-957 -963 0
-957 -964 0
-957 -965 0
-957 -966 0
-957 -967 0
-957 -968 0
-957 -969 0
-958 -959 0
-958 -960 0
-958 -961 0
-958 -962 0
-958 -963 0
-958 -964 0
-958 -965 0
-958 -966 0
-958 -967 0
-958 -968 0
-958 -969 0
-959 -960 0
-959 -961 0
-959 -962 0
-959 -963 0
-959 -964 0
-959 -965 0
-959 -966 0
-959 -967 0
-959 -968 0
-959 -969 0
-960 -961 0
-960 -962 0
-960 -963 0
-960 -964 0
-960 -965 0
-960 -966 0
-960 -967 0
-960 -968 0
-960 -969 0
-961 -962 0
-961 -963 0
-961 -964 0
-961 -965 0
-961 -966 0
-961 -967 0
-961 -968 0
-961 -969 0
-962 -963 0
-962 -964 0
-962 -965 0
-962 -966 0
-962 -967 0
-962 -968 0
-962 -969 0
-963 -964 0
-963 -965 0
-963 -966 0
-963 -967 0
-963 -968 0
-963 -969 0
-964 -965 0
-964 -966 0
-964 -967 0
-964 -968 0
-964 -969 0
-965 -966 0
-965 -967 0
-965 -968 0
-965 -969 0
-966 -967 0
-966 -968 0
-966 -969 0
-967 -968 0
-967 -969 0
-968 -969 0
-379 954 0
-380 954 955 0
-381 954 955 956 0
-382 955 956 957 0
-383 956 957 958 0
-384 957 958 959 0
-385 958 959 960 0
-386 959 960 961 0
-387 960 961 962 0
-388 961 962 963 0
-389 962 963 964 0
-390 963 964 965 0
-391 964 965 966 0
-392 965 966 967 0
-393 966 967 968 0
-394 967 968 969 0
-395 968 969 0
-396 969 0
-397 954 0
-398 954 955 0
-399 954 955 956 0
-400 955 956 957 0
-401 956 957 958 0
-402 957 958 959 0
-403 958 959 960 0
-404 959 960 961 0
-405 960 961 962 0
-406 961 962 963 0
-407 962 963 964 0
-408 963 964 965 0
-409 964 965 966 0
-410 965 966 967 0
-411 966 967 968 0
-412 967 968 969 0
-413 968 969 0
-414 969 0
-415 954 0
-416 954 955 0
-417 954 955 956 0
-418 955 956 957 0
-419 956 957 958 0
-420 957 958 959 0
-421 958 959 960 0
-422 959 960 961 0
-423 960 961 962 0
-424 961 962 963 0
-425 962 963 964 0
-426 963 964 965 0
-427 964 965 966 0
-428 965 966 967 0
-429 966 967 968 0
-430 967 968 969 0
-431 968 969 0
-432 969 0
-954 -382 0
-954 -383 0
-954 -384 0
-954 -385 0
-954 -386 0
-954 -387 0
-954 -388 0
-954 -389 0
-954 -390 0
-954 -391 0
-954 -392 0
-954 -393 0
-954 -394 0
-954 -395 0
-954 -396 0
-954 -400 0
-954 -401 0
-954 -402 0
-954 -403 0
-954 -404 0
-954 -405 0
-954 -406 0
-954 -407 0
-954 -408 0
-954 -409 0
-954 -410 0
-954 -411 0
-954 -412 0
-954 -413 0
-954 -414 0
-954 -418 0
-954 -419 0
-954 -420 0
-954 -421 0
-954 -422 0
-954 -423 0
-954 -424 0
-954 -425 0
-954 -426 0
-954 -427 0
-954 -428 0
-954 -429 0
-954 -430 0
-954 -431 0
-954 -432 0
-955 -379 0
-955 -383 0
-955 -384 0
-955 -385 0
-955 -386 0
-955 -387 0
-955 -388 0
-955 -389 0
-955 -390 0
-955 -391 0
-955 -392 0
-955 -393 0
-955 -394 0
-955 -395 0
-955 -396 0
-955 -397 0
-955 -401 0
-955 -402 0
-955 -403 0
-955 -404 0
-955 -405 0
-955 -406 0
-955 -407 0
-955 -408 0
-955 -409 0
-955 -410 0
-955 -411 0
-955 -412 0
-955 -413 0
-955 -414 0
-955 -415 0
-955 -419 0
-955 -420 0
-955 -421 0
-955 -422 0
-955 -423 0
-955 -424 0
-955 -425 0
-955 -426 0
-955 -427 0
-955 -428 0
-955 -429 0
-955 -430 0
-955 -431 0
-955 -432 0
-956 -379 0
-956 -380 0
-956 -384 0
-956 -385 0
-956 -386 0
-956 -387 0
-956 -388 0
-956 -389 0
-956 -390 0
-956 -391 0
-956 -392 0
-956 -393 0
-956 -394 0
-956 -395 0
-956 -396 0
-956 -397 0
-956 -398 0
-956 -402 0
-956 -403 0
-956 -404 0
-956 -405 0
-956 -406 0
-956 -407 0
-956 -408 0
-956 -409 0
-956 -410 0
-956 -411 0
-956 -412 0
-956 -413 0
-956 -414 0
-956 -415 0
-956 -416 0
-956 -420 0
-956 -421 0
-956 -422 0
-956 -423 0
-956 -424 0
-956 -425 0
-956 -426 0
-956 -427 0
-956 -428 0
-956 -429 0
-956 -430 0
-956 -431 0
-956 -432 0
-957 -379 0
-957 -380 0
-957 -381 0
-957 -385 0
-957 -386 0
-957 -387 0
-957 -388 0
-957 -389 0
-957 -390 0
-957 -391 0
-957 -392 0
-957 -393 0
-957 -394 0
-957 -395 0
-957 -396 0
-957 -397 0
-957 -398 0
-957 -399 0
-957 -403 0
-957 -404 0
-957 -405 0
-957 -406 0
-957 -407 0
-957 -408 0
-957 -409 0
-957 -410 0
-957 -411 0
-957 -412 0
-957 -413 0
-957 -414 0
-957 -415 0
-957 -416 0
-957 -417 0
-957 -421 0
-957 -422 0
-957 -423 0
-957 -424 0
-957 -425 0
-957 -426 0
-957 -427 0
-957 -428 0
-957 -429 0
-957 -430 0
-957 -431 0
-957 -432 0
-958 -379 0
-958 -380 0
-958 -381 0
-958 -382 0
-958 -386 0
-958 -387 0
-958 -388 0
-958 -389 0
-958 -390 0
-958 -391 0
-958 -392 0
-958 -393 0
-958 -394 0
-958 -395 0
-958 -396 0
-958 -397 0
-958 -398 0
-958 -399 0
-958 -400 0
-958 -404 0
-958 -405 0
-958 -406 0
-958 -407 0
-958 -408 0
-958 -409 0
-958 -410 0
-958 -411 0
-958 -412 0
-958 -413 0
-958 -414 0
-958 -415 0
-958 -416 0
-958 -417 0
-958 -418 0
-958 -422 0
-958 -423 0
-958 -424 0
-958 -425 0
-958 -426 0
-958 -427 0
-958 -428 0
-958 -429 0
-958 -430 0
-958 -431 0
-958 -432 0
-959 -379 0
-959 -380 0
-959 -381 0
-959 -382 0
-959 -383 0
-959 -387 0
-959 -388 0
-959 -389 0
-959 -390 0
-959 -391 0
-959 -392 0
-959 -393 0
-959 -394 0
-959 -395 0
-959 -396 0
-959 -397 0
-959 -398 0
-959 -399 0
-959 -400 0
-959 -401 0
-959 -405 0
-959 -406 0
-959 -407 0
-959 -408 0
-959 -409 0
-959 -410 0
-959 -411 0
-959 -412 0
-959 -413 0
-959 -414 0
-959 -415 0
-959 -416 0
-959 -417 0
-959 -418 0
-959 -419 0
-959 -423 0
-959 -424 0
-959 -425 0
-959 -426 0
-959 -427 0
-959 -428 0
-959 -429 0
-959 -430 0
-959 -431 0
-959 -432 0
-960 -379 0
-960 -380 0
-960 -381 0
-960 -382 0
-960 -383 0
-960 -384 0
-960 -388 0
-960 -389 0
-960 -390 0
-960 -391 0
-960 -392 0
-960 -393 0
-960 -394 0
-960 -395 0
-960 -396 0
-960 -397 0
-960 -398 0
-960 -399 0
-960 -400 0
-960 -401 0
-960 -402 0
-960 -406 0
-960 -407 0
-960 -408 0
-960 -409 0
-960 -410 0
-960 -411 0
-960 -412 0
-960 -413 0
-960 -414 0
-960 -415 0
-960 -416 0
-960 -417 0
-960 -418 0
-960 -419 0
-960 -420 0
-960 -424 0
-960 -425 0
-960 -426 0
-960 -427 0
-960 -428 0
-960 -429 0
-960 -430 0
-960 -431 0
-960 -432 0
-961 -379 0
-961 -380 0
-961 -381 0
-961 -382 0
-961 -383 0
-961 -384 0
-961 -385 0
-961 -389 0
-961 -390 0
-961 -391 0
-961 -392 0
-961 -393 0
-961 -394 0
-961 -395 0
-961 -396 0
-961 -397 0
-961 -398 0
-961 -399 0
-961 -400 0
-961 -401 0
-961 -402 0
-961 -403 0
-961 -407 0
-961 -408 0
-961 -409 0
-961 -410 0
-961 -411 0
-961 -412 0
-961 -413 0
-961 -414 0
-961 -415 0
-961 -416 0
-961 -417 0
-961 -418 0
-961 -419 0
-961 -420 0
-961 -421 0
-961 -425 0
-961 -426 0
-961 -427 0
-961 -428 0
-961 -429 0
-961 -430 0
-961 -431 0
-961 -432 0
-962 -379 0
-962 -380 0
-962 -381 0
-962 -382 0
-962 -383 0
-962 -384 0
-962 -385 0
-962 -386 0
-962 -390 0
-962 -391 0
-962 -392 0
-962 -393 0
-962 -394 0
-962 -395 0
-962 -396 0
-962 -397 0
-962 -398 0
-962 -399 0
-962 -400 0
-962 -401 0
-962 -402 0
-962 -403 0
-962 -404 0
-962 -408 0
-962 -409 0
-962 -410 0
-962 -411 0
-962 -412 0
-962 -413 0
-962 -414 0
-962 -415 0
-962 -416 0
-962 -417 0
-962 -418 0
-962 -419 0
-962 -420 0
-962 -421 0
-962 -422 0
-962 -426 0
-962 -427 0
-962 -428 0
-962 -429 0
-962 -430 0
-962 -431 0
-962 -432 0
-963 -379 0
-963 -380 0
-963 -381 0
-963 -382 0
-963 -383 0
-963 -384 0
-963 -385 0
-963 -386 0
-963 -387 0
-963 -391 0
-963 -392 0
-963 -393 0
-963 -394 0
-963 -395 0
-963 -396 0
-963 -397 0
-963 -398 0
-963 -399 0
-963 -400 0
-963 -401 0
-963 -402 0
-963 -403 0
-963 -404 0
-963 -405 0
-963 -409 0
-963 -410 0
-963 -411 0
-963 -412 0
-963 -413 0
-963 -414 0
-963 -415 0
-963 -416 0
-963 -417 0
-963 -418 0
-963 -419 0
-963 -420 0
-963 -421 0
-963 -422 0
-963 -423 0
-963 -427 0
-963 -428 0
-963 -429 0
-963 -430 0
-963 -431 0
-963 -432 0
-964 -379 0
-964 -380 0
-964 -381 0
-964 -382 0
-964 -383 0
-964 -384 0
-964 -385 0
-964 -386 0
-964 -387 0
-964 -388 0
-964 -392 0
-964 -393 0
-964 -394 0
-964 -395 0
-964 -396 0
-964 -397 0
-964 -398 0
-964 -399 0
-964 -400 0
-964 -401 0
-964 -402 0
-964 -403 0
-964 -404 0
-964 -405 0
-964 -406 0
-964 -410 0
-964 -411 0
-964 -412 0
-964 -413 0
-964 -414 0
-964 -415 0
-964 -416 0
-964 -417 0
-964 -418 0
-964 -419 0
-964 -420 0
-964 -421 0
-964 -422 0
-964 -423 0
-964 -424 0
-964 -428 0
-964 -429 0
-964 -430 0
-964 -431 0
-964 -432 0
-965 -379 0
-965 -380 0
-965 -381 0
-965 -382 0
-965 -383 0
-965 -384 0
-965 -385 0
-965 -386 0
-965 -387 0
-965 -388 0
-965 -389 0
-965 -393 0
-965 -394 0
-965 -395 0
-965 -396 0
-965 -397 0
-965 -398 0
-965 -399 0
-965 -400 0
-965 -401 0
-965 -402 0
-965 -403 0
-965 -404 0
-965 -405 0
-965 -406 0
-965 -407 0
-965 -411 0
-965 -412 0
-965 -413 0
-965 -414 0
-965 -415 0
-965 -416 0
-965 -417 0
-965 -418 0
-965 -419 0
-965 -420 0
-965 -421 0
-965 -422 0
-965 -423 0
-965 -424 0
-965 -425 0
-965 -429 0
-965 -430 0
-965 -431 0
-965 -432 0
-966 -379 0
-966 -380 0
-966 -381 0
-966 -382 0
-966 -383 0
-966 -384 0
-966 -385 0
-966 -386 0
-966 -387 0
-966 -388 0
-966 -389 0
-966 -390 0
-966 -394 0
-966 -395 0
-966 -396 0
-966 -397 0
-966 -398 0
-966 -399 0
-966 -400 0
-966 -401 0
-966 -402 0
-966 -403 0
-966 -404 0
-966 -405 0
-966 -406 0
-966 -407 0
-966 -408 0
-966 -412 0
-966 -413 0
-966 -414 0
-966 -415 0
-966 -416 0
-966 -417 0
-966 -418 0
-966 -419 0
-966 -420 0
-966 -421 0
-966 -422 0
-966 -423 0
-966 -424 0
-966 -425 0
-966 -426 0
-966 -430 0
-966 -431 0
-966 -432 0
-967 -379 0
-967 -380 0
-967 -381 0
-967 -382 0
-967 -383 0
-967 -384 0
-967 -385 0
-967 -386 0
-967 -387 0
-967 -388 0
-967 -389 0
-967 -390 0
-967 -391 0
-967 -395 0
-967 -396 0
-967 -397 0
-967 -398 0
-967 -399 0
-967 -400 0
-967 -401 0
-967 -402 0
-967 -403 0
-967 -404 0
-967 -405 0
-967 -406 0
-967 -407 0
-967 -408 0
-967 -409 0
-967 -413 0
-967 -414 0
-967 -415 0
-967 -416 0
-967 -417 0
-967 -418 0
-967 -419 0
-967 -420 0
-967 -421 0
-967 -422 0
-967 -423 0
-967 -424 0
-967 -425 0
-967 -426 0
-967 -427 0
-967 -431 0
-967 -432 0
-968 -379 0
-968 -380 0
-968 -381 0
-968 -382 0
-968 -383 0
-968 -384 0
-968 -385 0
-968 -386 0
-968 -387 0
-968 -388 0
-968 -389 0
-968 -390 0
-968 -391 0
-968 -392 0
-968 -396 0
-968 -397 0
-968 -398 0
-968 -399 0
-968 -400 0
-968 -401 0
-968 -402 0
-968 -403 0
-968 -404 0
-968 -405 0
-968 -406 0
-968 -407 0
-968 -408 0
-968 -409 0
-968 -410 0
-968 -414 0
-968 -415 0
-968 -416 0
-968 -417 0
-968 -418 0
-968 -419 0
-968 -420 0
-968 -421 0
-968 -422 0
-968 -423 0
-968 -424 0
-968 -425 0
-968 -426 0
-968 -427 0
-968 -428 0
-968 -432 0
-969 -379 0
-969 -380 0
-969 -381 0
-969 -382 0
-969 -383 0
-969 -384 0
-969 -385 0
-969 -386 0
-969 -387 0
-969 -388 0
-969 -389 0
-969 -390 0
-969 -391 0
-969 -392 0
-969 -393 0
-969 -397 0
-969 -398 0
-969 -399 0
-969 -400 0
-969 -401 0
-969 -402 0
-969 -403 0
-969 -404 0
-969 -405 0
-969 -406 0
-969 -407 0
-969 -408 0
-969 -409 0
-969 -410 0
-969 -411 0
-969 -415 0
-969 -416 0
-969 -417 0
-969 -418 0
-969 -419 0
-969 -420 0
-969 -421 0
-969 -422 0
-969 -423 0
-969 -424 0
-969 -425 0
-969 -426 0
-969 -427 0
-969 -428 0
-969 -429 0
-433 -451 0
-433 -469 0
-451 -469 0
-434 -452 0
-434 -470 0
-452 -470 0
-435 -453 0
-435 -471 0
-453 -471 0
-436 -454 0
-436 -472 0
-454 -472 0
-437 -455 0
-437 -473 0
-455 -473 0
-438 -456 0
-438 -474 0
-456 -474 0
-439 -457 0
-439 -475 0
-457 -475 0
-440 -458 0
-440 -476 0
-458 -476 0
-441 -459 0
-441 -477 0
-459 -477 0
-442 -460 0
-442 -478 0
-460 -478 0
-443 -461 0
-443 -479 0
-461 -479 0
-444 -462 0
-444 -480 0
-462 -480 0
-445 -463 0
-445 -481 0
-463 -481 0
-446 -464 0
-446 -482 0
-464 -482 0
-447 -465 0
-447 -483 0
-465 -483 0
-448 -466 0
-448 -484 0
-466 -484 0
-449 -467 0
-449 -485 0
-467 -485 0
-450 -468 0
-450 -486 0
-468 -486 0
970 971 972 973 974 975 976 977 978 979 980 981 982 983 984 985 0
-970 -971 0
-970 -972 0
-970 -973 0
-970 -974 0
-970 -975 0
-970 -976 0
-970 -977 0
-970 -978 0
-970 -979 0
-970 -980 0
-970 -981 0
-970 -982 0
-970 -983 0
-970 -984 0
-970 -985 0
-971 -972 0
-971 -973 0
-971 -974 0
-971 -975 0
-971 -976 0
-971 -977 0
-971 -978 0
-971 -979 0
-971 -980 0
-971 -981 0
-971 -982 0
-971 -983 0
-971 -984 0
-971 -985 0
-972 -973 0
-972 -974 0
-972 -975 0
-972 -976 0
-972 -977 0
-972 -978 0
-972 -979 0
-972 -980 0
-972 -981 0
-972 -982 0
-972 -983 0
-972 -984 0
-972 -985 0
-973 -974 0
-973 -975 0
-973 -976 0
-973 -977 0
-973 -978 0
-973 -979 0
-973 -980 0
-973 -981 0
-973 -982 0
-973 -983 0
-973 -984 0
-973 -985 0
-974 -975 0
-974 -976 0
-974 -977 0
-974 -978 0
-974 -979 0
-974 -980 0
-974 -981 0
-974 -982 0
-974 -983 0
-974 -984 0
-974 -985 0
-975 -976 0
-975 -977 0
-975 -978 0
-975 -979 0
-975 -980 0
-975 -981 0
-975 -982 0
-975 -983 0
-975 -984 0
-975 -985 0
-976 -977 0
-976 -978 0
-976 -979 0
-976 -980 0
-976 -981 0
-976 -982 0
-976 -983 0
-976 -984 0
-976 -985 0
-977 -978 0
-977 -979 0
-977 -980 0
-977 -981 0
-977 -982 0
-977 -983 0
-977 -984 0
-977 -985 0
-978 -979 0
-978 -980 0
-978 -981 0
-978 -982 0
-978 -983 0
-978 -984 0
-978 -985 0
-979 -980 0
-979 -981 0
-979 -982 0
-979 -983 0
-979 -984 0
-979 -985 0
-980 -981 0
-980 -982 0
-980 -983 0
-980 -984 0
-980 -985 0
-981 -982 0
-981 -983 0
-981 -984 0
-981 -985 0
-982 -983 0
-982 -984 0
-982 -985 0
-983 -984 0
-983 -985 0
-984 -985 0
-433 970 0
-434 970 971 0
-435 970 971 972 0
-436 971 972 973 0
-437 972 973 974 0
-438 973 974 975 0
-439 974 975 976 0
-440 975 976 977 0
-441 976 977 978 0
-442 977 978 979 0
-443 978 979 980 0
-444 979 980 981 0
-445 980 981 982 0
-446 981 982 983 0
-447 982 983 984 0
-448 983 984 985 0
-449 984 985 0
-450 985 0
-451 970 0
-452 970 971 0
-453 970 971 972 0
-454 971 972 973 0
-455 972 973 974 0
-456 973 974 975 0
-457 974 975 976 0
-458 975 976 977 0
-459 976 977 978 0
-460 977 978 979 0
-461 978 979 980 0
-462 979 980 981 0
-463 980 981 982 0
-464 981 982 983 0
-465 982 983 984 0
-466 983 984 985 0
-467 984 985 0
-468 985 0
-469 970 0
-470 970 971 0
-471 970 971 972 0
-472 971 972 973 0
-473 972 973 974 0
-474 973 974 975 0
-475 974 975 976 0
-476 975 976 977 0
-477 976 977 978 0
-478 977 978 979 0
-479 978 979 980 0
-480 979 980 981 0
-481 980 981 982 0
-482 981 982 983 0
-483 982 983 984 0
-484 983 984 985 0
-485 984 985 0
-486 985 0
-970 -436 0
-970 -437 0
-970 -438 0
-970 -439 0
-970 -440 0
-970 -441 0
-970 -442 0
-970 -443 0
-970 -444 0
-970 -445 0
-970 -446 0
-970 -447 0
-970 -448 0
-970 -449 0
-970 -450 0
-970 -454 0
-970 -455 0
-970 -456 0
-970 -457 0
-970 -458 0
-970 -459 0
-970 -460 0
-970 -461 0
-970 -462 0
-970 -463 0
-970 -464 0
-970 -465 0
-970 -466 0
-970 -467 0
-970 -468 0
-970 -472 0
-970 -473 0
-970 -474 0
-970 -475 0
-970 -476 0
-970 -477 0
-970 -478 0
-970 -479 0
-970 -480 0
-970 -481 0
-970 -482 0
-970 -483 0
-970 -484 0
-970 -485 0
-970 -486 0
-971 -433 0
-971 -437 0
-971 -438 0
-971 -439 0
-971 -440 0
-971 -441 0
-971 -442 0
-971 -443 0
-971 -444 0
-971 -445 0
-971 -446 0
-971 -447 0
-971 -448 0
-971 -449 0
-971 -450 0
-971 -451 0
-971 -455 0
-971 -456 0
-971 -457 0
-971 -458 0
-971 -459 0
-971 -460 0
-971 -461 0
-971 -462 0
-971 -463 0
-971 -464 0
-971 -465 0
-971 -466 0
-971 -467 0
-971 -468 0
-971 -469 0
-971 -473 0
-971 -474 0
-971 -475 0
-971 -476 0
-971 -477 0
-971 -478 0
-971 -479 0
-971 -480 0
-971 -481 0
-971 -482 0
-971 -483 0
-971 -484 0
-971 -485 0
-971 -486 0
-972 -433 0
-972 -434 0
-972 -438 0
-972 -439 0
-972 -440 0
-972 -441 0
-972 -442 0
-972 -443 0
-972 -444 0
-972 -445 0
-972 -446 0
-972 -447 0
-972 -448 0
-972 -449 0
-972 -450 0
-972 -451 0
-972 -452 0
-972 -456 0
-972 -457 0
-972 -458 0
-972 -459 0
-972 -460 0
-972 -461 0
-972 -462 0
-972 -463 0
-972 -464 0
-972 -465 0
-972 -466 0
-972 -467 0
-972 -468 0
-972 -469 0
-972 -470 0
-972 -474 0
-972 -475 0
-972 -476 0
-972 -477 0
-972 -478 0
-972 -479 0
-972 -480 0
-972 -481 0
-972 -482 0
-972 -483 0
-972 -484 0
-972 -485 0
-972 -486 0
-973 -433 0
-973 -434 0
-973 -435 0
-973 -439 0
-973 -440 0
-973 -441 0
-973 -442 0
-973 -443 0
-973 -444 0
-973 -445 0
-973 -446 0
-973 -447 0
-973 -448 0
-973 -449 0
-973 -450 0
-973 -451 0
-973 -452 0
-973 -453 0
-973 -457 0
-973 -458 0
-973 -459 0
-973 -460 0
-973 -461 0
-973 -462 0
-973 -463 0
-973 -464 0
-973 -465 0
-973 -466 0
-973 -467 0
-973 -468 0
-973 -469 0
-973 -470 0
-973 -471 0
-973 -475 0
-973 -476 0
-973 -477 0
-973 -478 0
-973 -479 0
-973 -480 0
-973 -481 0
-973 -482 0
-973 -483 0
-973 -484 0
-973 -485 0
-973 -486 0
-974 -433 0
-974 -434 0
-974 -435 0
-974 -436 0
-974 -440 0
-974 -441 0
-974 -442 0
-974 -443 0
-974 -444 0
-974 -445 0
-974 -446 0
-974 -447 0
-974 -448 0
-974 -449 0
-974 -450 0
-974 -451 0
-974 -452 0
-974 -453 0
-974 -454 0
-974 -458 0
-974 -459 0
-974 -460 0
-974 -461 0
-974 -462 0
-974 -463 0
-974 -464 0
-974 -465 0
-974 -466 0
-974 -467 0
-974 -468 0
-974 -469 0
-974 -470 0
-974 -471 0
-974 -472 0
-974 -476 0
-974 -477 0
-974 -478 0
-974 -479 0
-974 -480 0
-974 -481 0
-974 -482 0
-974 -483 0
-974 -484 0
-974 -485 0
-974 -486 0
-975 -433 0
-975 -434 0
-975 -435 0
-975 -436 0
-975 -437 0
-975 -441 0
-975 -442 0
-975 -443 0
-975 -444 0
-975 -445 0
-975 -446 0
-975 -447 0
-975 -448 0
-975 -449 0
-975 -450 0
-975 -451 0
-975 -452 0
-975 -453 0
-975 -454 0
-975 -455 0
-975 -459 0
-975 -460 0
-975 -461 0
-975 -462 0
-975 -463 0
-975 -464 0
-975 -465 0
-975 -466 0
-975 -467 0
-975 -468 0
-975 -469 0
-975 -470 0
-975 -471 0
-975 -472 0
-975 -473 0
-975 -477 0
-975 -478 0
-975 -479 0
-975 -480 0
-975 -481 0
-975 -482 0
-975 -483 0
-975 -484 0
-975 -485 0
-975 -486 0
-976 -433 0
-976 -434 0
-976 -435 0
-976 -436 0
-976 -437 0
-976 -438 0
-976 -442 0
-976 -443 0
-976 -444 0
-976 -445 0
-976 -446 0
-976 -447 0
-976 -448 0
-976 -449 0
-976 -450 0
-976 -451 0
-976 -452 0
-976 -453 0
-976 -454 0
-976 -455 0
-976 -456 0
-976 -460 0
-976 -461 0
-976 -462 0
-976 -463 0
-976 -464 0
-976 -465 0
-976 -466 0
-976 -467 0
-976 -468 0
-976 -469 0
-976 -470 0
-976 -471 0
-976 -472 0
-976 -473 0
-976 -474 0
-976 -478 0
-976 -479 0
-976 -480 0
-976 -481 0
-976 -482 0
-976 -483 0
-976 -484 0
-976 -485 0
-976 -486 0
-977 -433 0
-977 -434 0
-977 -435 0
-977 -436 0
-977 -437 0
-977 -438 0
-977 -439 0
-977 -443 0
-977 -444 0
-977 -445 0
-977 -446 0
-977 -447 0
-977 -448 0
-977 -449 0
-977 -450 0
-977 -451 0
-977 -452 0
-977 -453 0
-977 -454 0
-977 -455 0
-977 -456 0
-977 -457 0
-977 -461 0
-977 -462 0
-977 -463 0
-977 -464 0
-977 -465 0
-977 -466 0
-977 -467 0
-977 -468 0
-977 -469 0
-977 -470 0
-977 -471 0
-977 -472 0
-977 -473 0
-977 -474 0
-977 -475 0
-977 -479 0
-977 -480 0
-977 -481 0
-977 -482 0
-977 -483 0
-977 -484 0
-977 -485 0
-977 -486 0
-978 -433 0
-978 -434 0
-978 -435 0
-978 -436 0
-978 -437 0
-978 -438 0
-978 -439 0
-978 -440 0
-978 -444 0
-978 -445 0
-978 -446 0
-978 -447 0
-978 -448 0
-978 -449 0
-978 -450 0
-978 -451 0
-978 -452 0
-978 -453 0
-978 -454 0
-978 -455 0
-978 -456 0
-978 -457 0
-978 -458 0
-978 -462 0
-978 -463 0
-978 -464 0
-978 -465 0
-978 -466 0
-978 -467 0
-978 -468 0
-978 -469 0
-978 -470 0
-978 -471 0
-978 -472 0
-978 -473 0
-978 -474 0
-978 -475 0
-978 -476 0
-978 -480 0
-978 -481 0
-978 -482 0
-978 -483 0
-978 -484 0
-978 -485 0
-978 -486 0
-979 -433 0
-979 -434 0
-979 -435 0
-979 -436 0
-979 -437 0
-979 -438 0
-979 -439 0
-979 -440 0
-979 -441 0
-979 -445 0
-979 -446 0
-979 -447 0
-979 -448 0
-979 -449 0
-979 -450 0
-979 -451 0
-979 -452 0
-979 -453 0
-979 -454 0
-979 -455 0
-979 -456 0
-979 -457 0
-979 -458 0
-979 -459 0
-979 -463 0
-979 -464 0
-979 -465 0
-979 -466 0
-979 -467 0
-979 -468 0
-979 -469 0
-979 -470 0
-979 -471 0
-979 -472 0
-979 -473 0
-979 -474 0
-979 -475 0
-979 -476 0
-979 -477 0
-979 -481 0
-979 -482 0
-979 -483 0
-979 -484 0
-979 -485 0
-979 -486 0
-980 -433 0
-980 -434 0
-980 -435 0
-980 -436 0
-980 -437 0
-980 -438 0
-980 -439 0
-980 -440 0
-980 -441 0
-980 -442 0
-980 -446 0
-980 -447 0
-980 -448 0
-980 -449 0
-980 -450 0
-980 -451 0
-980 -452 0
-980 -453 0
-980 -454 0
-980 -455 0
-980 -456 0
-980 -457 0
-980 -458 0
-980 -459 0
-980 -460 0
-980 -464 0
-980 -465 0
-980 -466 0
-980 -467 0
-980 -468 0
-980 -469 0
-980 -470 0
-980 -471 0
-980 -472 0
-980 -473 0
-980 -474 0
-980 -475 0
-980 -476 0
-980 -477 0
-980 -478 0
-980 -482 0
-980 -483 0
-980 -484 0
-980 -485 0
-980 -486 0
-981 -433 0
-981 -434 0
-981 -435 0
-981 -436 0
-981 -437 0
-981 -438 0
-981 -439 0
-981 -440 0
-981 -441 0
-981 -442 0
-981 -443 0
-981 -447 0
-981 -448 0
-981 -449 0
-981 -450 0
-981 -451 0
-981 -452 0
-981 -453 0
-981 -454 0
-981 -455 0
-981 -456 0
-981 -457 0
-981 -458 0
-981 -459 0
-981 -460 0
-981 -461 0
-981 -465 0
-981 -466 0
-981 -467 0
-981 -468 0
-981 -469 0
-981 -470 0
-981 -471 0
-981 -472 0
-981 -473 0
-981 -474 0
-981 -475 0
-981 -476 0
-981 -477 0
-981 -478 0
-981 -479 0
-981 -483 0
-981 -484 0
-981 -485 0
-981 -486 0
-982 -433 0
-982 -434 0
-982 -435 0
-982 -436 0
-982 -437 0
-982 -438 0
-982 -439 0
-982 -440 0
-982 -441 0
-982 -442 0
-982 -443 0
-982 -444 0
-982 -448 0
-982 -449 0
-982 -450 0
-982 -451 0
-982 -452 0
-982 -453 0
-982 -454 0
-982 -455 0
-982 -456 0
-982 -457 0
-982 -458 0
-982 -459 0
-982 -460 0
-982 -461 0
-982 -462 0
-982 -466 0
-982 -467 0
-982 -468 0
-982 -469 0
-982 -470 0
-982 -471 0
-982 -472 0
-982 -473 0
-982 -474 0
-982 -475 0
-982 -476 0
-982 -477 0
-982 -478 0
-982 -479 0
-982 -480 0
-982 -484 0
-982 -485 0
-982 -486 0
-983 -433 0
-983 -434 0
-983 -435 0
-983 -436 0
-983 -437 0
-983 -438 0
-983 -439 0
-983 -440 0
-983 -441 0
-983 -442 0
-983 -443 0
-983 -444 0
-983 -445 0
-983 -449 0
-983 -450 0
-983 -451 0
-983 -452 0
-983 -453 0
-983 -454 0
-983 -455 0
-983 -456 0
-983 -457 0
-983 -458 0
-983 -459 0
-983 -460 0
-983 -461 0
-983 -462 0
-983 -463 0
-983 -467 0
-983 -468 0
-983 -469 0
-983 -470 0
-983 -471 0
-983 -472 0
-983 -473 0
-983 -474 0
-983 -475 0
-983 -476 0
-983 -477 0
-983 -478 0
-983 -479 0
-983 -480 0
-983 -481 0
-983 -485 0
-983 -486 0
-984 -433 0
-984 -434 0
-984 -435 0
-984 -436 0
-984 -437 0
-984 -438 0
-984 -439 0
-984 -440 0
-984 -441 0
-984 -442 0
-984 -443 0
-984 -444 0
-984 -445 0
-984 -446 0
-984 -450 0
-984 -451 0
-984 -452 0
-984 -453 0
-984 -454 0
-984 -455 0
-984 -456 0
-984 -457 0
-984 -458 0
-984 -459 0
-984 -460 0
-984 -461 0
-984 -462 0
-984 -463 0
-984 -464 0
-984 -468 0
-984 -469 0
-984 -470 0
-984 -471 0
-984 -472 0
-984 -473 0
-984 -474 0
-984 -475 0
-984 -476 0
-984 -477 0
-984 -478 0
-984 -479 0
-984 -480 0
-984 -481 0
-984 -482 0
-984 -486 0
-985 -433 0
-985 -434 0
-985 -435 0
-985 -436 0
-985 -437 0
-985 -438 0
-985 -439 0
-985 -440 0
-985 -441 0
-985 -442 0
-985 -443 0
-985 -444 0
-985 -445 0
-985 -446 0
-985 -447 0
-985 -451 0
-985 -452 0
-985 -453 0
-985 -454 0
-985 -455 0
-985 -456 0
-985 -457 0
-985 -458 0
-985 -459 0
-985 -460 0
-985 -461 0
-985 -462 0
-985 -463 0
-985 -464 0
-985 -465 0
-985 -469 0
-985 -470 0
-985 -471 0
-985 -472 0
-985 -473 0
-985 -474 0
-985 -475 0
-985 -476 0
-985 -477 0
-985 -478 0
-985 -479 0
-985 -480 0
-985 -481 0
-985 -482 0
-985 -483 0
-487 -505 0
-487 -523 0
-505 -523 0
-488 -506 0
-488 -524 0
-506 -524 0
-489 -507 0
-489 -525 0
-507 -525 0
-490 -508 0
-490 -526 0
-508 -526 0
-491 -509 0
-491 -527 0
-509 -527 0
-492 -510 0
-492 -528 0
-510 -528 0
-493 -511 0
-493 -529 0
-511 -529 0
-494 -512 0
-494 -530 0
-512 -530 0
-495 -513 0
-495 -531 0
-513 -531 0
-496 -514 0
-496 -532 0
-514 -532 0
-497 -515 0
-497 -533 0
-515 -533 0
-498 -516 0
-498 -534 0
-516 -534 0
-499 -517 0
-499 -535 0
-517 -535 0
-500 -518 0
-500 -536 0
-518 -536 0
-501 -519 0
-501 -537 0
-519 -537 0
-502 -520 0
-502 -538 0
-520 -538 0
-503 -521 0
-503 -539 0
-521 -539 0
-504 -522 0
-504 -540 0
-522 -540 0
986 987 988 989 990 991 992 993 994 995 996 997 998 999 1000 1001 0
-986 -987 0
-986 -988 0
-986 -989 0
-986 -990 0
-986 -991 0
-986 -992 0
-986 -993 0
-986 -994 0
-986 -995 0
-986 -996 0
-986 -997 0
-986 -998 0
-986 -999 0
-986 -1000 0
-986 -1001 0
-987 -988 0
-987 -989 0
-987 -990 0
-987 -991 0
-987 -992 0
-987 -993 0
-987 -994 0
-987 -995 0
-987 -996 0
-987 -997 0
-987 -998 0
-987 -999 0
-987 -1000 0
-987 -1001 0
-988 -989 0
-988 -990 0
-988 -991 0
-988 -992 0
-988 -993 0
-988 -994 0
-988 -995 0
-988 -996 0
-988 -997 0
-988 -998 0
-988 -999 0
-988 -1000 0
-988 -1001 0
-989 -990 0
-989 -991 0
-989 -992 0
-989 -993 0
-989 -994 0
-989 -995 0
-989 -996 0
-989 -997 0
-989 -998 0
-989 -999 0
-989 -1000 0
-989 -1001 0
-990 -991 0
-990 -992 0
-990 -993 0
-990 -994 0
-990 -995 0
-990 -996 0
-990 -997 0
-990 -998 0
-990 -999 0
-990 -1000 0
-990 -1001 0
-991 -992 0
-991 -993 0
-991 -994 0
-991 -995 0
-991 -996 0
-991 -997 0
-991 -998 0
-991 -999 0
-991 -1000 0
-991 -1001 0
-992 -993 0
-992 -994 0
-992 -995 0
-992 -996 0
-992 -997 0
-992 -998 0
-992 -999 0
-992 -1000 0
-992 -1001 0
-993 -994 0
-993 -995 0
-993 -996 0
-993 -997 0
-993 -998 0
-993 -999 0
-993 -1000 0
-993 -1001 0
-994 -995 0
-994 -996 0
-994 -997 0
-994 -998 0
-994 -999 0
-994 -1000 0
-994 -1001 0
-995 -996 0
-995 -997 0
-995 -998 0
-995 -999 0
-995 -1000 0
-995 -1001 0
-996 -997 0
-996 -998 0
-996 -999 0
-996 -1000 0
-996 -1001 0
-997 -998 0
-997 -999 0
-997 -1000 0
-997 -1001 0
-998 -999 0
-998 -1000 0
-998 -1001 0
-999 -1000 0
-999 -1001 0
-1000 -1001 0
-487 986 0
-488 986 987 0
-489 986 987 988 0
-490 987 988 989 0
-491 988 989 990 0
-492 989 990 991 0
-493 990 991 992 0
-494 991 992 993 0
-495 992 993 994 0
-496 993 994 995 0
-497 994 995 996 0
-498 995 996 997 0
-499 996 997 998 0
-500 997 998 999 0
-501 998 999 1000 0
-502 999 1000 1001 0
-503 1000 1001 0
-504 1001 0
-505 986 0
-506 986 987 0
-507 986 987 988 0
-508 987 988 989 0
-509 988 989 990 0
-510 989 990 991 0
-511 990 991 992 0
-512 991 992 993 0
-513 992 993 994 0
-514 993 994 995 0
-515 994 995 996 0
-516 995 996 997 0
-517 996 997 998 0
-518 997 998 999 0
-519 998 999 1000 0
-520 999 1000 1001 0
-521 1000 1001 0
-522 1001 0
-523 986 0
-524 986 987 0
-525 986 987 988 0
-526 987 988 989 0
-527 988 989 990 0
-528 989 990 991 0
-529 990 991 992 0
-530 991 992 993 0
-531 992 993 994 0
-532 993 994 995 0
-533 994 995 996 0
-534 995 996 997 0
-535 996 997 998 0
-536 997 998 999 0
-537 998 999 1000 0
-538 999 1000 1001 0
-539 1000 1001 0
-540 1001 0
-986 -490 0
-986 -491 0
-986 -492 0
-986 -493 0
-986 -494 0
-986 -495 0
-986 -496 0
-986 -497 0
-986 -498 0
-986 -499 0
-986 -500 0
-986 -501 0
-986 -502 0
-986 -503 0
-986 -504 0
-986 -508 0
-986 -509 0
-986 -510 0
-986 -511 0
-986 -512 0
-986 -513 0
-986 -514 0
-986 -515 0
-986 -516 0
-986 -517 0
-986 -518 0
-986 -519 0
-986 -520 0
-986 -521 0
-986 -522 0
-986 -526 0
-986 -527 0
-986 -528 0
-986 -529 0
-986 -530 0
-986 -531 0
-986 -532 0
-986 -533 0
-986 -534 0
-986 -535 0
-986 -536 0
-986 -537 0
-986 -538 0
-986 -539 0
-986 -540 0
-987 -487 0
-987 -491 0
-987 -492 0
-987 -493 0
-987 -494 0
-987 -495 0
-987 -496 0
-987 -497 0
-987 -498 0
-987 -499 0
-987 -500 0
-987 -501 0
-987 -502 0
-987 -503 0
-987 -504 0
-987 -505 0
-987 -509 0
-987 -510 0
-987 -511 0
-987 -512 0
-987 -513 0
-987 -514 0
-987 -515 0
-987 -516 0
-987 -517 0
-987 -518 0
-987 -519 0
-987 -520 0
-987 -521 0
-987 -522 0
-987 -523 0
-987 -527 0
-987 -528 0
-987 -529 0
-987 -530 0
-987 -531 0
-987 -532 0
-987 -533 0
-987 -534 0
-987 -535 0
-987 -536 0
-987 -537 0
-987 -538 0
-987 -539 0
-987 -540 0
-988 -487 0
-988 -488 0
-988 -492 0
-988 -493 0
-988 -494 0
-988 -495 0
-988 -496 0
-988 -497 0
-988 -498 0
-988 -499 0
-988 -500 0
-988 -501 0
-988 -502 0
-988 -503 0
-988 -504 0
-988 -505 0
-988 -506 0
-988 -510 0
-988 -511 0
-988 -512 0
-988 -513 0
-988 -514 0
-988 -515 0
-988 -516 0
-988 -517 0
-988 -518 0
-988 -519 0
-988 -520 0
-988 -521 0
-988 -522 0
-988 -523 0
-988 -524 0
-988 -528 0
-988 -529 0
-988 -530 0
-988 -531 0
-988 -532 0
-988 -533 0
-988 -534 0
-988 -535 0
-988 -536 0
-988 -537 0
-988 -538 0
-988 -539 0
-988 -540 0
-989 -487 0
-989 -488 0
-989 -489 0
-989 -493 0
-989 -494 0
-989 -495 0
-989 -496 0
-989 -497 0
-989 -498 0
-989 -499 0
-989 -500 0
-989 -501 0
-989 -502 0
-989 -503 0
-989 -504 0
-989 -505 0
-989 -506 0
-989 -507 0
-989 -511 0
-989 -512 0
-989 -513 0
-989 -514 0
-989 -515 0
-989 -516 0
-989 -517 0
-989 -518 0
-989 -519 0
-989 -520 0
-989 -521 0
-989 -522 0
-989 -523 0
-989 -524 0
-989 -525 0
-989 -529 0
-989 -530 0
-989 -531 0
-989 -532 0
-989 -533 0
-989 -534 0
-989 -535 0
-989 -536 0
-989 -537 0
-989 -538 0
-989 -539 0
-989 -540 0
-990 -487 0
-990 -488 0
-990 -489 0
-990 -490 0
-990 -494 0
-990 -495 0
-990 -496 0
-990 -497 0
-990 -498 0
-990 -499 0
-990 -500 0
-990 -501 0
-990 -502 0
-990 -503 0
-990 -504 0
-990 -505 0
-990 -506 0
-990 -507 0
-990 -508 0
-990 -512 0
-990 -513 0
-990 -514 0
-990 -515 0
-990 -516 0
-990 -517 0
-990 -518 0
-990 -519 0
-990 -520 0
-990 -521 0
-990 -522 0
-990 -523 0
-990 -524 0
-990 -525 0
-990 -526 0
-990 -530 0
-990 -531 0
-990 -532 0
-990 -533 0
-990 -534 0
-990 -535 0
-990 -536 0
-990 -537 0
-990 -538 0
-990 -539 0
-990 -540 0
-991 -487 0
-991 -488 0
-991 -489 0
-991 -490 0
-991 -491 0
-991 -495 0
-991 -496 0
-991 -497 0
-991 -498 0
-991 -499 0
-991 -500 0
-991 -501 0
-991 -502 0
-991 -503 0
-991 -504 0
-991 -505 0
-991 -506 0
-991 -507 0
-991 -508 0
-991 -509 0
-991 -513 0
-991 -514 0
-991 -515 0
-991 -516 0
-991 -517 0
-991 -518 0
-991 -519 0
-991 -520 0
-991 -521 0
-991 -522 0
-991 -523 0
-991 -524 0
-991 -525 0
-991 -526 0
-991 -527 0
-991 -531 0
-991 -532 0
-991 -533 0
-991 -534 0
-991 -535 0
-991 -536 0
-991 -537 0
-991 -538 0
-991 -539 0
-991 -540 0
-992 -487 0
-992 -488 0
-992 -489 0
-992 -490 0
-992 -491 0
-992 -492 0
-992 -496 0
-992 -497 0
-992 -498 0
-992 -499 0
-992 -500 0
-992 -501 0
-992 -502 0
-992 -503 0
-992 -504 0
-992 -505 0
-992 -506 0
-992 -507 0
-992 -508 0
-992 -509 0
-992 -510 0
-992 -514 0
-992 -515 0
-992 -516 0
-992 -517 0
-992 -518 0
-992 -519 0
-992 -520 0
-992 -521 0
-992 -522 0
-992 -523 0
-992 -524 0
-992 -525 0
-992 -526 0
-992 -527 0
-992 -528 0
-992 -532 0
-992 -533 0
-992 -534 0
-992 -535 0
-992 -536 0
-992 -537 0
-992 -538 0
-992 -539 0
-992 -540 0
-993 -487 0
-993 -488 0
-993 -489 0
-993 -490 0
-993 -491 0
-993 -492 0
-993 -493 0
-993 -497 0
-993 -498 0
-993 -499 0
-993 -500 0
-993 -501 0
-993 -502 0
-993 -503 0
-993 -504 0
-993 -505 0
-993 -506 0
-993 -507 0
-993 -508 0
-993 -509 0
-993 -510 0
-993 -511 0
-993 -515 0
-993 -516 0
-993 -517 0
-993 -518 0
-993 -519 0
-993 -520 0
-993 -521 0
-993 -522 0
-993 -523 0
-993 -524 0
-993 -525 0
-993 -526 0
-993 -527 0
-993 -528 0
-993 -529 0
-993 -533 0
-993 -534 0
-993 -535 0
-993 -536 0
-993 -537 0
-993 -538 0
-993 -539 0
-993 -540 0
-994 -487 0
-994 -488 0
-994 -489 0
-994 -490 0
-994 -491 0
-994 -492 0
-994 -493 0
-994 -494 0
-994 -498 0
-994 -499 0
-994 -500 0
-994 -501 0
-994 -502 0
-994 -503 0
-994 -504 0
-994 -505 0
-994 -506 0
-994 -507 0
-994 -508 0
-994 -509 0
-994 -510 0
-994 -511 0
-994 -512 0
-994 -516 0
-994 -517 0
-994 -518 0
-994 -519 0
-994 -520 0
-994 -521 0
-994 -522 0
-994 -523 0
-994 -524 0
-994 -525 0
-994 -526 0
-994 -527 0
-994 -528 0
-994 -529 0
-994 -530 0
-994 -534 0
-994 -535 0
-994 -536 0
-994 -537 0
-994 -538 0
-994 -539 0
-994 -540 0
-995 -487 0
-995 -488 0
-995 -489 0
-995 -490 0
-995 -491 0
-995 -492 0
-995 -493 0
-995 -494 0
-995 -495 0
-995 -499 0
-995 -500 0
-995 -501 0
-995 -502 0
-995 -503 0
-995 -504 0
-995 -505 0
-995 -506 0
-995 -507 0
-995 -508 0
-995 -509 0
-995 -510 0
-995 -511 0
-995 -512 0
-995 -513 0
-995 -517 0
-995 -518 0
-995 -519 0
-995 -520 0
-995 -521 0
-995 -522 0
-995 -523 0
-995 -524 0
-995 -525 0
-995 -526 0
-995 -527 0
-995 -528 0
-995 -529 0
-995 -530 0
-995 -531 0
-995 -535 0
-995 -536 0
-995 -537 0
-995 -538 0
-995 -539 0
-995 -540 0
-996 -487 0
-996 -488 0
-996 -489 0
-996 -490 0
-996 -491 0
-996 -492 0
-996 -493 0
-996 -494 0
-996 -495 0
-996 -496 0
-996 -500 0
-996 -501 0
-996 -502 0
-996 -503 0
-996 -504 0
-996 -505 0
-996 -506 0
-996 -507 0
-996 -508 0
-996 -509 0
-996 -510 0
-996 -511 0
-996 -512 0
-996 -513 0
-996 -514 0
-996 -518 0
-996 -519 0
-996 -520 0
-996 -521 0
-996 -522 0
-996 -523 0
-996 -524 0
-996 -525 0
-996 -526 0
-996 -527 0
-996 -528 0
-996 -529 0
-996 -530 0
-996 -531 0
-996 -532 0
-996 -536 0
-996 -537 0
-996 -538 0
-996 -539 0
-996 -540 0
-997 -487 0
-997 -488 0
-997 -489 0
-997 -490 0
-997 -491 0
-997 -492 0
-997 -493 0
-997 -494 0
-997 -495 0
-997 -496 0
-997 -497 0
-997 -501 0
-997 -502 0
-997 -503 0
-997 -504 0
-997 -505 0
-997 -506 0
-997 -507 0
-997 -508 0
-997 -509 0
-997 -510 0
-997 -511 0
-997 -512 0
-997 -513 0
-997 -514 0
-997 -515 0
-997 -519 0
-997 -520 0
-997 -521 0
-997 -522 0
-997 -523 0
-997 -524 0
-997 -525 0
-997 -526 0
-997 -527 0
-997 -528 0
-997 -529 0
-997 -530 0
-997 -531 0
-997 -532 0
-997 -533 0
-997 -537 0
-997 -538 0
-997 -539 0
-997 -540 0
-998 -487 0
-998 -488 0
-998 -489 0
-998 -490 0
-998 -491 0
-998 -492 0
-998 -493 0
-998 -494 0
-998 -495 0
-998 -496 0
-998 -497 0
-998 -498 0
-998 -502 0
-998 -503 0
-998 -504 0
-998 -505 0
-998 -506 0
-998 -507 0
-998 -508 0
-998 -509 0
-998 -510 0
-998 -511 0
-998 -512 0
-998 -513 0
-998 -514 0
-998 -515 0
-998 -516 0
-998 -520 0
-998 -521 0
-998 -522 0
-998 -523 0
-998 -524 0
-998 -525 0
-998 -526 0
-998 -527 0
-998 -528 0
-998 -529 0
-998 -530 0
-998 -531 0
-998 -532 0
-998 -533 0
-998 -534 0
-998 -538 0
-998 -539 0
-998 -540 0
-999 -487 0
-999 -488 0
-999 -489 0
-999 -490 0
-999 -491 0
-999 -492 0
-999 -493 0
-999 -494 0
-999 -495 0
-999 -496 0
-999 -497 0
-999 -498 0
-999 -499 0
-999 -503 0
-999 -504 0
-999 -505 0
-999 -506 0
-999 -507 0
-999 -508 0
-999 -509 0
-999 -510 0
-999 -511 0
-999 -512 0
-999 -513 0
-999 -514 0
-999 -515 0
-999 -516 0
-999 -517 0
-999 -521 0
-999 -522 0
-999 -523 0
-999 -524 0
-999 -525 0
-999 -526 0
-999 -527 0
-999 -528 0
-999 -529 0
-999 -530 0
-999 -531 0
-999 -532 0
-999 -533 0
-999 -534 0
-999 -535 0
-999 -539 0
-999 -540 0
-1000 -487 0
-1000 -488 0
-1000 -489 0
-1000 -490 0
-1000 -491 0
-1000 -492 0
-1000 -493 0
-1000 -494 0
-1000 -495 0
-1000 -496 0
-1000 -497 0
-1000 -498 0
-1000 -499 0
-1000 -500 0
-1000 -504 0
-1000 -505 0
-1000 -506 0
-1000 -507 0
-1000 -508 0
-1000 -509 0
-1000 -510 0
-1000 -511 0
-1000 -512 0
-1000 -513 0
-1000 -514 0
-1000 -515 0
-1000 -516 0
-1000 -517 0
-1000 -518 0
-1000 -522 0
-1000 -523 0
-1000 -524 0
-1000 -525 0
-1000 -526 0
-1000 -527 0
-1000 -528 0
-1000 -529 0
-1000 -530 0
-1000 -531 0
-1000 -532 0
-1000 -533 0
-1000 -534 0
-1000 -535 0
-1000 -536 0
-1000 -540 0
-1001 -487 0
-1001 -488 0
-1001 -489 0
-1001 -490 0
-1001 -491 0
-1001 -492 0
-1001 -493 0
-1001 -494 0
-1001 -495 0
-1001 -496 0
-1001 -497 0
-1001 -498 0
-1001 -499 0
-1001 -500 0
-1001 -501 0
-1001 -505 0
-1001 -506 0
-1001 -507 0
-1001 -508 0
-1001 -509 0
-1001 -510 0
-1001 -511 0
-1001 -512 0
-1001 -513 0
-1001 -514 0
-1001 -515 0
-1001 -516 0
-1001 -517 0
-1001 -518 0
-1001 -519 0
-1001 -523 0
-1001 -524 0
-1001 -525 0
-1001 -526 0
-1001 -527 0
-1001 -528 0
-1001 -529 0
-1001 -530 0
-1001 -531 0
-1001 -532 0
-1001 -533 0
-1001 -534 0
-1001 -535 0
-1001 -536 0
-1001 -537 0
-541 -559 0
-541 -577 0
-559 -577 0
-542 -560 0
-542 -578 0
-560 -578 0
-543 -561 0
-543 -579 0
-561 -579 0
-544 -562 0
-544 -580 0
-562 -580 0
-545 -563 0
-545 -581 0
-563 -581 0
-546 -564 0
-546 -582 0
-564 -582 0
-547 -565 0
-547 -583 0
-565 -583 0
-548 -566 0
-548 -584 0
-566 -584 0
-549 -567 0
-549 -585 0
-567 -585 0
-550 -568 0
-550 -586 0
-568 -586 0
-551 -569 0
-551 -587 0
-569 -587 0
-552 -570 0
-552 -588 0
-570 -588 0
-553 -571 0
-553 -589 0
-571 -589 0
-554 -572 0
-554 -590 0
-572 -590 0
-555 -573 0
-555 -591 0
-573 -591 0
-556 -574 0
-556 -592 0
-574 -592 0
-557 -575 0
-557 -593 0
-575 -593 0
-558 -576 0
-558 -594 0
-576 -594 0
1002 1003 1004 1005 1006 1007 1008 1009 1010 1011 1012 1013 1014 1015 1016 1017 0
-1002 -1003 0
-1002 -1004 0
-1002 -1005 0
-1002 -1006 0
-1002 -1007 0
-1002 -1008 0
-1002 -1009 0
-1002 -1010 0
-1002 -1011 0
-1002 -1012 0
-1002 -1013 0
-1002 -1014 0
-1002 -1015 0
-1002 -1016 0
-1002 -1017 0
-1003 -1004 0
-1003 -1005 0
-1003 -1006 0
-1003 -1007 0
-1003 -1008 0
-1003 -1009 0
-1003 -1010 0
-1003 -1011 0
-1003 -1012 0
-1003 -1013 0
-1003 -1014 0
-1003 -1015 0
-1003 -1016 0
-1003 -1017 0
-1004 -1005 0
-1004 -1006 0
-1004 -1007 0
-1004 -1008 0
-1004 -1009 0
-1004 -1010 0
-1004 -1011 0
-1004 -1012 0
-1004 -1013 0
-1004 -1014 0
-1004 -1015 0
-1004 -1016 0
-1004 -1017 0
-1005 -1006 0
-1005 -1007 0
-1005 -1008 0
-1005 -1009 0
-1005 -1010 0
-1005 -1011 0
-1005 -1012 0
-1005 -1013 0
-1005 -1014 0
-1005 -1015 0
-1005 -1016 0
-1005 -1017 0
-1006 -1007 0
-1006 -1008 0
-1006 -1009 0
-1006 -1010 0
-1006 -1011 0
-1006 -1012 0
-1006 -1013 0
-1006 -1014 0
-1006 -1015 0
-1006 -1016 0
-1006 -1017 0
-1007 -1008 0
-1007 -1009 0
-1007 -1010 0
-1007 -1011 0
-1007 -1012 0
-1007 -1013 0
-1007 -1014 0
-1007 -1015 0
-1007 -1016 0
-1007 -1017 0
-1008 -1009 0
-1008 -1010 0
-1008 -1011 0
-1008 -1012 0
-1008 -1013 0
-1008 -1014 0
-1008 -1015 0
-1008 -1016 0
-1008 -1017 0
-1009 -1010 0
-1009 -1011 0
-1009 -1012 0
-1009 -1013 0
-1009 -1014 0
-1009 -1015 0
-1009 -1016 0
-1009 -1017 0
-1010 -1011 0
-1010 -1012 0
-1010 -1013 0
-1010 -1014 0
-1010 -1015 0
-1010 -1016 0
-1010 -1017 0
-1011 -1012 0
-1011 -1013 0
-1011 -1014 0
-1011 -1015 0
-1011 -1016 0
-1011 -1017 0
-1012 -1013 0
-1012 -1014 0
-1012 -1015 0
-1012 -1016 0
-1012 -1017 0
-1013 -1014 0
-1013 -1015 0
-1013 -1016 0
-1013 -1017 0
-1014 -1015 0
-1014 -1016 0
-1014 -1017 0
-1015 -1016 0
-1015 -1017 0
-1016 -1017 0
-541 1002 0
-542 1002 1003 0
-543 1002 1003 1004 0
-544 1003 1004 1005 0
-545 1004 1005 1006 0
-546 1005 1006 1007 0
-547 1006 1007 1008 0
-548 1007 1008 1009 0
-549 1008 1009 1010 0
-550 1009 1010 1011 0
-551 1010 1011 1012 0
-552 1011 1012 1013 0
-553 1012 1013 1014 0
-554 1013 1014 1015 0
-555 1014 1015 1016 0
-556 1015 1016 1017 0
-557 1016 1017 0
-558 1017 0
-559 1002 0
-560 1002 1003 0
-561 1002 1003 1004 0
-562 1003 1004 1005 0
-563 1004 1005 1006 0
-564 1005 1006 1007 0
-565 1006 1007 1008 0
-566 1007 1008 1009 0
-567 1008 1009 1010 0
-568 1009 1010 1011 0
-569 1010 1011 1012 0
-570 1011 1012 1013 0
-571 1012 1013 1014 0
-572 1013 1014 1015 0
-573 1014 1015 1016 0
-574 1015 1016 1017 0
-575 1016 1017 0
-576 1017 0
-577 1002 0
-578 1002 1003 0
-579 1002 1003 1004 0
-580 1003 1004 1005 0
-581 1004 1005 1006 0
-582 1005 1006 1007 0
-583 1006 1007 1008 0
-584 1007 1008 1009 0
-585 1008 1009 1010 0
-586 1009 1010 1011 0
-587 1010 1011 1012 0
-588 1011 1012 1013 0
-589 1012 1013 1014 0
-590 1013 1014 1015 0
-591 1014 1015 1016 0
-592 1015 1016 1017 0
-593 1016 1017 0
-594 1017 0
-1002 -544 0
-1002 -545 0
-1002 -546 0
-1002 -547 0
-1002 -548 0
-1002 -549 0
-1002 -550 0
-1002 -551 0
-1002 -552 0
-1002 -553 0
-1002 -554 0
-1002 -555 0
-1002 -556 0
-1002 -557 0
-1002 -558 0
-1002 -562 0
-1002 -563 0
-1002 -564 0
-1002 -565 0
-1002 -566 0
-1002 -567 0
-1002 -568 0
-1002 -569 0
-1002 -570 0
-1002 -571 0
-1002 -572 0
-1002 -573 0
-1002 -574 0
-1002 -575 0
-1002 -576 0
-1002 -580 0
-1002 -581 0
-1002 -582 0
-1002 -583 0
-1002 -584 0
-1002 -585 0
-1002 -586 0
-1002 -587 0
-1002 -588 0
-1002 -589 0
-1002 -590 0
-1002 -591 0
-1002 -592 0
-1002 -593 0
-1002 -594 0
-1003 -541 0
-1003 -545 0
-1003 -546 0
-1003 -547 0
-1003 -548 0
-1003 -549 0
-1003 -550 0
-1003 -551 0
-1003 -552 0
-1003 -553 0
-1003 -554 0
-1003 -555 0
-1003 -556 0
-1003 -557 0
-1003 -558 0
-1003 -559 0
-1003 -563 0
-1003 -564 0
-1003 -565 0
-1003 -566 0
-1003 -567 0
-1003 -568 0
-1003 -569 0
-1003 -570 0
-1003 -571 0
-1003 -572 0
-1003 -573 0
-1003 -574 0
-1003 -575 0
-1003 -576 0
-1003 -577 0
-1003 -581 0
-1003 -582 0
-1003 -583 0
-1003 -584 0
-1003 -585 0
-1003 -586 0
-1003 -587 0
-1003 -588 0
-1003 -589 0
-1003 -590 0
-1003 -591 0
-1003 -592 0
-1003 -593 0
-1003 -594 0
-1004 -541 0
-1004 -542 0
-1004 -546 0
-1004 -547 0
-1004 -548 0
-1004 -549 0
-1004 -550 0
-1004 -551 0
-1004 -552 0
-1004 -553 0
-1004 -554 0
-1004 -555 0
-1004 -556 0
-1004 -557 0
-1004 -558 0
-1004 -559 0
-1004 -560 0
-1004 -564 0
-1004 -565 0
-1004 -566 0
-1004 -567 0
-1004 -568 0
-1004 -569 0
-1004 -570 0
-1004 -571 0
-1004 -572 0
-1004 -573 0
-1004 -574 0
-1004 -575 0
-1004 -576 0
-1004 -577 0
-1004 -578 0
-1004 -582 0
-1004 -583 0
-1004 -584 0
-1004 -585 0
-1004 -586 0
-1004 -587 0
-1004 -588 0
-1004 -589 0
-1004 -590 0
-1004 -591 0
-1004 -592 0
-1004 -593 0
-1004 -594 0
-1005 -541 0
-1005 -542 0
-1005 -543 0
-1005 -547 0
-1005 -548 0
-1005 -549 0
-1005 -550 0
-1005 -551 0
-1005 -552 0
-1005 -553 0
-1005 -554 0
-1005 -555 0
-1005 -556 0
-1005 -557 0
-1005 -558 0
-1005 -559 0
-1005 -560 0
-1005 -561 0
-1005 -565 0
-1005 -566 0
-1005 -567 0
-1005 -568 0
-1005 -569 0
-1005 -570 0
-1005 -571 0
-1005 -572 0
-1005 -573 0
-1005 -574 0
-1005 -575 0
-1005 -576 0
-1005 -577 0
-1005 -578 0
-1005 -579 0
-1005 -583 0
-1005 -584 0
-1005 -585 0
-1005 -586 0
-1005 -587 0
-1005 -588 0
-1005 -589 0
-1005 -590 0
-1005 -591 0
-1005 -592 0
-1005 -593 0
-1005 -594 0
-1006 -541 0
-1006 -542 0
-1006 -543 0
-1006 -544 0
-1006 -548 0
-1006 -549 0
-1006 -550 0
-1006 -551 0
-1006 -552 0
-1006 -553 0
-1006 -554 0
-1006 -555 0
-1006 -556 0
-1006 -557 0
-1006 -558 0
-1006 -559 0
-1006 -560 0
-1006 -561 0
-1006 -562 0
-1006 -566 0
-1006 -567 0
-1006 -568 0
-1006 -569 0
-1006 -570 0
-1006 -571 0
-1006 -572 0
-1006 -573 0
-1006 -574 0
-1006 -575 0
-1006 -576 0
-1006 -577 0
-1006 -578 0
-1006 -579 0
-1006 -580 0
-1006 -584 0
-1006 -585 0
-1006 -586 0
-1006 -587 0
-1006 -588 0
-1006 -589 0
-1006 -590 0
-1006 -591 0
-1006 -592 0
-1006 -593 0
-1006 -594 0
-1007 -541 0
-1007 -542 0
-1007 -543 0
-1007 -544 0
-1007 -545 0
-1007 -549 0
-1007 -550 0
-1007 -551 0
-1007 -552 0
-1007 -553 0
-1007 -554 0
-1007 -555 0
-1007 -556 0
-1007 -557 0
-1007 -558 0
-1007 -559 0
-1007 -560 0
-1007 -561 0
-1007 -562 0
-1007 -563 0
-1007 -567 0
-1007 -568 0
-1007 -569 0
-1007 -570 0
-1007 -571 0
-1007 -572 0
-1007 -573 0
-1007 -574 0
-1007 -575 0
-1007 -576 0
-1007 -577 0
-1007 -578 0
-1007 -579 0
-1007 -580 0
-1007 -581 0
-1007 -585 0
-1007 -586 0
-1007 -587 0
-1007 -588 0
-1007 -589 0
-1007 -590 0
-1007 -591 0
-1007 -592 0
-1007 -593 0
-1007 -594 0
-1008 -541 0
-1008 -542 0
-1008 -543 0
-1008 -544 0
-1008 -545 0
-1008 -546 0
-1008 -550 0
-1008 -551 0
-1008 -552 0
-1008 -553 0
-1008 -554 0
-1008 -555 0
-1008 -556 0
-1008 -557 0
-1008 -558 0
-1008 -559 0
-1008 -560 0
-1008 -561 0
-1008 -562 0
-1008 -563 0
-1008 -564 0
-1008 -568 0
-1008 -569 0
-1008 -570 0
-1008 -571 0
-1008 -572 0
-1008 -573 0
-1008 -574 0
-1008 -575 0
-1008 -576 0
-1008 -577 0
-1008 -578 0
-1008 -579 0
-1008 -580 0
-1008 -581 0
-1008 -582 0
-1008 -586 0
-1008 -587 0
-1008 -588 0
-1008 -589 0
-1008 -590 0
-1008 -591 0
-1008 -592 0
-1008 -593 0
-1008 -594 0
-1009 -541 0
-1009 -542 0
-1009 -543 0
-1009 -544 0
-1009 -545 0
-1009 -546 0
-1009 -547 0
-1009 -551 0
-1009 -552 0
-1009 -553 0
-1009 -554 0
-1009 -555 0
-1009 -556 0
-1009 -557 0
-1009 -558 0
-1009 -559 0
-1009 -560 0
-1009 -561 0
-1009 -562 0
-1009 -563 0
-1009 -564 0
-1009 -565 0
-1009 -569 0
-1009 -570 0
-1009 -571 0
-1009 -572 0
-1009 -573 0
-1009 -574 0
-1009 -575 0
-1009 -576 0
-1009 -577 0
-1009 -578 0
-1009 -579 0
-1009 -580 0
-1009 -581 0
-1009 -582 0
-1009 -583 0
-1009 -587 0
-1009 -588 0
-1009 -589 0
-1009 -590 0
-1009 -591 0
-1009 -592 0
-1009 -593 0
-1009 -594 0
-1010 -541 0
-1010 -542 0
-1010 -543 0
-1010 -544 0
-1010 -545 0
-1010 -546 0
-1010 -547 0
-1010 -548 0
-1010 -552 0
-1010 -553 0
-1010 -554 0
-1010 -555 0
-1010 -556 0
-1010 -557 0
-1010 -558 0
-1010 -559 0
-1010 -560 0
-1010 -561 0
-1010 -562 0
-1010 -563 0
-1010 -564 0
-1010 -565 0
-1010 -566 0
-1010 -570 0
-1010 -571 0
-1010 -572 0
-1010 -573 0
-1010 -574 0
-1010 -575 0
-1010 -576 0
-1010 -577 0
-1010 -578 0
-1010 -579 0
-1010 -580 0
-1010 -581 0
-1010 -582 0
-1010 -583 0
-1010 -584 0
-1010 -588 0
-1010 -589 0
-1010 -590 0
-1010 -591 0
-1010 -592 0
-1010 -593 0
-1010 -594 0
-1011 -541 0
-1011 -542 0
-1011 -543 0
-1011 -544 0
-1011 -545 0
-1011 -546 0
-1011 -547 0
-1011 -548 0
-1011 -549 0
-1011 -553 0
-1011 -554 0
-1011 -555 0
-1011 -556 0
-1011 -557 0
-1011 -558 0
-1011 -559 0
-1011 -560 0
-1011 -561 0
-1011 -562 0
-1011 -563 0
-1011 -564 0
-1011 -565 0
-1011 -566 0
-1011 -567 0
-1011 -571 0
-1011 -572 0
-1011 -573 0
-1011 -574 0
-1011 -575 0
-1011 -576 0
-1011 -577 0
-1011 -578 0
-1011 -579 0
-1011 -580 0
-1011 -581 0
-1011 -582 0
-1011 -583 0
-1011 -584 0
-1011 -585 0
-1011 -589 0
-1011 -590 0
-1011 -591 0
-1011 -592 0
-1011 -593 0
-1011 -594 0
-1012 -541 0
-1012 -542 0
-1012 -543 0
-1012 -544 0
-1012 -545 0
-1012 -546 0
-1012 -547 0
-1012 -548 0
-1012 -549 0
-1012 -550 0
-1012 -554 0
-1012 -555 0
-1012 -556 0
-1012 -557 0
-1012 -558 0
-1012 -559 0
-1012 -560 0
-1012 -561 0
-1012 -562 0
-1012 -563 0
-1012 -564 0
-1012 -565 0
-1012 -566 0
-1012 -567 0
-1012 -568 0
-1012 -572 0
-1012 -573 0
-1012 -574 0
-1012 -575 0
-1012 -576 0
-1012 -577 0
-1012 -578 0
-1012 -579 0
-1012 -580 0
-1012 -581 0
-1012 -582 0
-1012 -583 0
-1012 -584 0
-1012 -585 0
-1012 -586 0
-1012 -590 0
-1012 -591 0
-1012 -592 0
-1012 -593 0
-1012 -594 0
-1013 -541 0
-1013 -542 0
-1013 -543 0
-1013 -544 0
-1013 -545 0
-1013 -546 0
-1013 -547 0
-1013 -548 0
-1013 -549 0
-1013 -550 0
-1013 -551 0
-1013 -555 0
-1013 -556 0
-1013 -557 0
-1013 -558 0
-1013 -559 0
-1013 -560 0
-1013 -561 0
-1013 -562 0
-1013 -563 0
-1013 -564 0
-1013 -565 0
-1013 -566 0
-1013 -567 0
-1013 -568 0
-1013 -569 0
-1013 -573 0
-1013 -574 0
-1013 -575 0
-1013 -576 0
-1013 -577 0
-1013 -578 0
-1013 -579 0
-1013 -580 0
-1013 -581 0
-1013 -582 0
-1013 -583 0
-1013 -584 0
-1013 -585 0
-1013 -586 0
-1013 -587 0
-1013 -591 0
-1013 -592 0
-1013 -593 0
-1013 -594 0
-1014 -541 0
-1014 -542 0
-1014 -543 0
-1014 -544 0
-1014 -545 0
-1014 -546 0
-1014 -547 0
-1014 -548 0
-1014 -549 0
-1014 -550 0
-1014 -551 0
-1014 -552 0
-1014 -556 0
-1014 -557 0
-1014 -558 0
-1014 -559 0
-1014 -560 0
-1014 -561 0
-1014 -562 0
-1014 -563 0
-1014 -564 0
-1014 -565 0
-1014 -566 0
-1014 -567 0
-1014 -568 0
-1014 -569 0
-1014 -570 0
-1014 -574 0
-1014 -575 0
-1014 -576 0
-1014 -577 0
-1014 -578 0
-1014 -579 0
-1014 -580 0
-1014 -581 0
-1014 -582 0
-1014 -583 0
-1014 -584 0
-1014 -585 0
-1014 -586 0
-1014 -587 0
-1014 -588 0
-1014 -592 0
-1014 -593 0
-1014 -594 0
-1015 -541 0
-1015 -542 0
-1015 -543 0
-1015 -544 0
-1015 -545 0
-1015 -546 0
-1015 -547 0
-1015 -548 0
-1015 -549 0
-1015 -550 0
-1015 -551 0
-1015 -552 0
-1015 -553 0
-1015 -557 0
-1015 -558 0
-1015 -559 0
-1015 -560 0
-1015 -561 0
-1015 -562 0
-1015 -563 0
-1015 -564 0
-1015 -565 0
-1015 -566 0
-1015 -567 0
-1015 -568 0
-1015 -569 0
-1015 -570 0
-1015 -571 0
-1015 -575 0
-1015 -576 0
-1015 -577 0
-1015 -578 0
-1015 -579 0
-1015 -580 0
-1015 -581 0
-1015 -582 0
-1015 -583 0
-1015 -584 0
-1015 -585 0
-1015 -586 0
-1015 -587 0
-1015 -588 0
-1015 -589 0
-1015 -593 0
-1015 -594 0
-1016 -541 0
-1016 -542 0
-1016 -543 0
-1016 -544 0
-1016 -545 0
-1016 -546 0
-1016 -547 0
-1016 -548 0
-1016 -549 0
-1016 -550 0
-1016 -551 0
-1016 -552 0
-1016 -553 0
-1016 -554 0
-1016 -558 0
-1016 -559 0
-1016 -560 0
-1016 -561 0
-1016 -562 0
-1016 -563 0
-1016 -564 0
-1016 -565 0
-1016 -566 0
-1016 -567 0
-1016 -568 0
-1016 -569 0
-1016 -570 0
-1016 -571 0
-1016 -572 0
-1016 -576 0
-1016 -577 0
-1016 -578 0
-1016 -579 0
-1016 -580 0
-1016 -581 0
-1016 -582 0
-1016 -583 0
-1016 -584 0
-1016 -585 0
-1016 -586 0
-1016 -587 0
-1016 -588 0
-1016 -589 0
-1016 -590 0
-1016 -594 0
-1017 -541 0
-1017 -542 0
-1017 -543 0
-1017 -544 0
-1017 -545 0
-1017 -546 0
-1017 -547 0
-1017 -548 0
-1017 -549 0
-1017 -550 0
-1017 -551 0
-1017 -552 0
-1017 -553 0
-1017 -554 0
-1017 -555 0
-1017 -559 0
-1017 -560 0
-1017 -561 0
-1017 -562 0
-1017 -563 0
-1017 -564 0
-1017 -565 0
-1017 -566 0
-1017 -567 0
-1017 -568 0
-1017 -569 0
-1017 -570 0
-1017 -571 0
-1017 -572 0
-1017 -573 0
-1017 -577 0
-1017 -578 0
-1017 -579 0
-1017 -580 0
-1017 -581 0
-1017 -582 0
-1017 -583 0
-1017 -584 0
-1017 -585 0
-1017 -586 0
-1017 -587 0
-1017 -588 0
-1017 -589 0
-1017 -590 0
-1017 -591 0
-595 -613 0
-595 -631 0
-613 -631 0
-596 -614 0
-596 -632 0
-614 -632 0
-597 -615 0
-597 -633 0
-615 -633 0
-598 -616 0
-598 -634 0
-616 -634 0
-599 -617 0
-599 -635 0
-617 -635 0
-600 -618 0
-600 -636 0
-618 -636 0
-601 -619 0
-601 -637 0
-619 -637 0
-602 -620 0
-602 -638 0
-620 -638 0
-603 -621 0
-603 -639 0
-621 -639 0
-604 -622 0
-604 -640 0
-622 -640 0
-605 -623 0
-605 -641 0
-623 -641 0
-606 -624 0
-606 -642 0
-624 -642 0
-607 -625 0
-607 -643 0
-625 -643 0
-608 -626 0
-608 -644 0
-626 -644 0
-609 -627 0
-609 -645 0
-627 -645 0
-610 -628 0
-610 -646 0
-628 -646 0
-611 -629 0
-611 -647 0
-629 -647 0
-612 -630 0
-612 -648 0
-630 -648 0
1018 1019 1020 1021 1022 1023 1024 1025 1026 1027 1028 1029 1030 1031 1032 1033 0
-1018 -1019 0
-1018 -1020 0
-1018 -1021 0
-1018 -1022 0
-1018 -1023 0
-1018 -1024 0
-1018 -1025 0
-1018 -1026 0
-1018 -1027 0
-1018 -1028 0
-1018 -1029 0
-1018 -1030 0
-1018 -1031 0
-1018 -1032 0
-1018 -1033 0
-1019 -1020 0
-1019 -1021 0
-1019 -1022 0
-1019 -1023 0
-1019 -1024 0
-1019 -1025 0
-1019 -1026 0
-1019 -1027 0
-1019 -1028 0
-1019 -1029 0
-1019 -1030 0
-1019 -1031 0
-1019 -1032 0
-1019 -1033 0
-1020 -1021 0
-1020 -1022 0
-1020 -1023 0
-1020 -1024 0
-1020 -1025 0
-1020 -1026 0
-1020 -1027 0
-1020 -1028 0
-1020 -1029 0
-1020 -1030 0
-1020 -1031 0
-1020 -1032 0
-1020 -1033 0
-1021 -1022 0
-1021 -1023 0
-1021 -1024 0
-1021 -1025 0
-1021 -1026 0
-1021 -1027 0
-1021 -1028 0
-1021 -1029 0
-1021 -1030 0
-1021 -1031 0
-1021 -1032 0
-1021 -1033 0
-1022 -1023 0
-1022 -1024 0
-1022 -1025 0
-1022 -1026 0
-1022 -1027 0
-1022 -1028 0
-1022 -1029 0
-1022 -1030 0
-1022 -1031 0
-1022 -1032 0
-1022 -1033 0
-1023 -1024 0
-1023 -1025 0
-1023 -1026 0
-1023 -1027 0
-1023 -1028 0
-1023 -1029 0
-1023 -1030 0
-1023 -1031 0
-1023 -1032 0
-1023 -1033 0
-1024 -1025 0
-1024 -1026 0
-1024 -1027 0
-1024 -1028 0
-1024 -1029 0
-1024 -1030 0
-1024 -1031 0
-1024 -1032 0
-1024 -1033 0
-1025 -1026 0
-1025 -1027 0
-1025 -1028 0
-1025 -1029 0
-1025 -1030 0
-1025 -1031 0
-1025 -1032 0
-1025 -1033 0
-1026 -1027 0
-1026 -1028 0
-1026 -1029 0
-1026 -1030 0
-1026 -1031 0
-1026 -1032 0
-1026 -1033 0
-1027 -1028 0
-1027 -1029 0
-1027 -1030 0
-1027 -1031 0
-1027 -1032 0
-1027 -1033 0
-1028 -1029 0
-1028 -1030 0
-1028 -1031 0
-1028 -1032 0
-1028 -1033 0
-1029 -1030 0
-1029 -1031 0
-1029 -1032 0
-1029 -1033 0
-1030 -1031 0
-1030 -1032 0
-1030 -1033 0
-1031 -1032 0
-1031 -1033 0
-1032 -1033 0
-595 1018 0
-596 1018 1019 0
-597 1018 1019 1020 0
-598 1019 1020 1021 0
-599 1020 1021 1022 0
-600 1021 1022 1023 0
-601 1022 1023 1024 0
-602 1023 1024 1025 0
-603 1024 1025 1026 0
-604 1025 1026 1027 0
-605 1026 1027 1028 0
-606 1027 1028 1029 0
-607 1028 1029 1030 0
-608 1029 1030 1031 0
-609 1030 1031 1032 0
-610 1031 1032 1033 0
-611 1032 1033 0
-612 1033 0
-613 1018 0
-614 1018 1019 0
-615 1018 1019 1020 0
-616 1019 1020 1021 0
-617 1020 1021 1022 0
-618 1021 1022 1023 0
-619 1022 1023 1024 0
-620 1023 1024 1025 0
-621 1024 1025 1026 0
-622 1025 1026 1027 0
-623 1026 1027 1028 0
-624 1027 1028 1029 0
-625 1028 1029 1030 0
-626 1029 1030 1031 0
-627 1030 1031 1032 0
-628 1031 1032 1033 0
-629 1032 1033 0
-630 1033 0
-631 1018 0
-632 1018 1019 0
-633 1018 1019 1020 0
-634 1019 1020 1021 0
-635 1020 1021 1022 0
-636 1021 1022 1023 0
-637 1022 1023 1024 0
-638 1023 1024 1025 0
-639 1024 1025 1026 0
-640 1025 1026 1027 0
-641 1026 1027 1028 0
-642 1027 1028 1029 0
-643 1028 1029 1030 0
-644 1029 1030 1031 0
-645 1030 1031 1032 0
-646 1031 1032 1033 0
-647 1032 1033 0
-648 1033 0
-1018 -598 0
-1018 -599 0
-1018 -600 0
-1018 -601 0
-1018 -602 0
-1018 -603 0
-1018 -604 0
-1018 -605 0
-1018 -606 0
-1018 -607 0
-1018 -608 0
-1018 -609 0
-1018 -610 0
-1018 -611 0
-1018 -612 0
-1018 -616 0
-1018 -617 0
-1018 -618 0
-1018 -619 0
-1018 -620 0
-1018 -621 0
-1018 -622 0
-1018 -623 0
-1018 -624 0
-1018 -625 0
-1018 -626 0
-1018 -627 0
-1018 -628 0
-1018 -629 0
-1018 -630 0
-1018 -634 0
-1018 -635 0
-1018 -636 0
-1018 -637 0
-1018 -638 0
-1018 -639 0
-1018 -640 0
-1018 -641 0
-1018 -642 0
-1018 -643 0
-1018 -644 0
-1018 -645 0
-1018 -646 0
-1018 -647 0
-1018 -648 0
-1019 -595 0
-1019 -599 0
-1019 -600 0
-1019 -601 0
-1019 -602 0
-1019 -603 0
-1019 -604 0
-1019 -605 0
-1019 -606 0
-1019 -607 0
-1019 -608 0
-1019 -609 0
-1019 -610 0
-1019 -611 0
-1019 -612 0
-1019 -613 0
-1019 -617 0
-1019 -618 0
-1019 -619 0
-1019 -620 0
-1019 -621 0
-1019 -622 0
-1019 -623 0
-1019 -624 0
-1019 -625 0
-1019 -626 0
-1019 -627 0
-1019 -628 0
-1019 -629 0
-1019 -630 0
-1019 -631 0
-1019 -635 0
-1019 -636 0
-1019 -637 0
-1019 -638 0
-1019 -639 0
-1019 -640 0
-1019 -641 0
-1019 -642 0
-1019 -643 0
-1019 -644 0
-1019 -645 0
-1019 -646 0
-1019 -647 0
-1019 -648 0
-1020 -595 0
-1020 -596 0
-1020 -600 0
-1020 -601 0
-1020 -602 0
-1020 -603 0
-1020 -604 0
-1020 -605 0
-1020 -606 0
-1020 -607 0
-1020 -608 0
-1020 -609 0
-1020 -610 0
-1020 -611 0
-1020 -612 0
-1020 -613 0
-1020 -614 0
-1020 -618 0
-1020 -619 0
-1020 -620 0
-1020 -621 0
-1020 -622 0
-1020 -623 0
-1020 -624 0
-1020 -625 0
-1020 -626 0
-1020 -627 0
-1020 -628 0
-1020 -629 0
-1020 -630 0
-1020 -631 0
-1020 -632 0
-1020 -636 0
-1020 -637 0
-1020 -638 0
-1020 -639 0
-1020 -640 0
-1020 -641 0
-1020 -642 0
-1020 -643 0
-1020 -644 0
-1020 -645 0
-1020 -646 0
-1020 -647 0
-1020 -648 0
-1021 -595 0
-1021 -596 0
-1021 -597 0
-1021 -601 0
-1021 -602 0
-1021 -603 0
-1021 -604 0
-1021 -605 0
-1021 -606 0
-1021 -607 0
-1021 -608 0
-1021 -609 0
-1021 -610 0
-1021 -611 0
-1021 -612 0
-1021 -613 0
-1021 -614 0
-1021 -615 0
-1021 -619 0
-1021 -620 0
-1021 -621 0
-1021 -622 0
-1021 -623 0
-1021 -624 0
-1021 -625 0
-1021 -626 0
-1021 -627 0
-1021 -628 0
-1021 -629 0
-1021 -630 0
-1021 -631 0
-1021 -632 0
-1021 -633 0
-1021 -637 0
-1021 -638 0
-1021 -639 0
-1021 -640 0
-1021 -641 0
-1021 -642 0
-1021 -643 0
-1021 -644 0
-1021 -645 0
-1021 -646 0
-1021 -647 0
-1021 -648 0
-1022 -595 0
-1022 -596 0
-1022 -597 0
-1022 -598 0
-1022 -602 0
-1022 -603 0
-1022 -604 0
-1022 -605 0
-1022 -606 0
-1022 -607 0
-1022 -608 0
-1022 -609 0
-1022 -610 0
-1022 -611 0
-1022 -612 0
-1022 -613 0
-1022 -614 0
-1022 -615 0
-1022 -616 0
-1022 -620 0
-1022 -621 0
-1022 -622 0
-1022 -623 0
-1022 -624 0
-1022 -625 0
-1022 -626 0
-1022 -627 0
-1022 -628 0
-1022 -629 0
-1022 -630 0
-1022 -631 0
-1022 -632 0
-1022 -633 0
-1022 -634 0
-1022 -638 0
-1022 -639 0
-1022 -640 0
-1022 -641 0
-1022 -642 0
-1022 -643 0
-1022 -644 0
-1022 -645 0
-1022 -646 0
-1022 -647 0
-1022 -648 0
-1023 -595 0
-1023 -596 0
-1023 -597 0
-1023 -598 0
-1023 -599 0
-1023 -603 0
-1023 -604 0
-1023 -605 0
-1023 -606 0
-1023 -607 0
-1023 -608 0
-1023 -609 0
-1023 -610 0
-1023 -611 0
-1023 -612 0
-1023 -613 0
-1023 -614 0
-1023 -615 0
-1023 -616 0
-1023 -617 0
-1023 -621 0
-1023 -622 0
-1023 -623 0
-1023 -624 0
-1023 -625 0
-1023 -626 0
-1023 -627 0
-1023 -628 0
-1023 -629 0
-1023 -630 0
-1023 -631 0
-1023 -632 0
-1023 -633 0
-1023 -634 0
-1023 -635 0
-1023 -639 0
-1023 -640 0
-1023 -641 0
-1023 -642 0
-1023 -643 0
-1023 -644 0
-1023 -645 0
-1023 -646 0
-1023 -647 0
-1023 -648 0
-1024 -595 0
-1024 -596 0
-1024 -597 0
-1024 -598 0
-1024 -599 0
-1024 -600 0
-1024 -604 0
-1024 -605 0
-1024 -606 0
-1024 -607 0
-1024 -608 0
-1024 -609 0
-1024 -610 0
-1024 -611 0
-1024 -612 0
-1024 -613 0
-1024 -614 0
-1024 -615 0
-1024 -616 0
-1024 -617 0
-1024 -618 0
-1024 -622 0
-1024 -623 0
-1024 -624 0
-1024 -625 0
-1024 -626 0
-1024 -627 0
-1024 -628 0
-1024 -629 0
-1024 -630 0
-1024 -631 0
-1024 -632 0
-1024 -633 0
-1024 -634 0
-1024 -635 0
-1024 -636 0
-1024 -640 0
-1024 -641 0
-1024 -642 0
-1024 -643 0
-1024 -644 0
-1024 -645 0
-1024 -646 0
-1024 -647 0
-1024 -648 0
-1025 -595 0
-1025 -596 0
-1025 -597 0
-1025 -598 0
-1025 -599 0
-1025 -600 0
-1025 -601 0
-1025 -605 0
-1025 -606 0
-1025 -607 0
-1025 -608 0
-1025 -609 0
-1025 -610 0
-1025 -611 0
-1025 -612 0
-1025 -613 0
-1025 -614 0
-1025 -615 0
-1025 -616 0
-1025 -617 0
-1025 -618 0
-1025 -619 0
-1025 -623 0
-1025 -624 0
-1025 -625 0
-1025 -626 0
-1025 -627 0
-1025 -628 0
-1025 -629 0
-1025 -630 0
-1025 -631 0
-1025 -632 0
-1025 -633 0
-1025 -634 0
-1025 -635 0
-1025 -636 0
-1025 -637 0
-1025 -641 0
-1025 -642 0
-1025 -643 0
-1025 -644 0
-1025 -645 0
-1025 -646 0
-1025 -647 0
-1025 -648 0
-1026 -595 0
-1026 -596 0
-1026 -597 0
-1026 -598 0
-1026 -599 0
-1026 -600 0
-1026 -601 0
-1026 -602 0
-1026 -606 0
-1026 -607 0
-1026 -608 0
-1026 -609 0
-1026 -610 0
-1026 -611 0
-1026 -612 0
-1026 -613 0
-1026 -614 0
-1026 -615 0
-1026 -616 0
-1026 -617 0
-1026 -618 0
-1026 -619 0
-1026 -620 0
-1026 -624 0
-1026 -625 0
-1026 -626 0
-1026 -627 0
-1026 -628 0
-1026 -629 0
-1026 -630 0
-1026 -631 0
-1026 -632 0
-1026 -633 0
-1026 -634 0
-1026 -635 0
-1026 -636 0
-1026 -637 0
-1026 -638 0
-1026 -642 0
-1026 -643 0
-1026 -644 0
-1026 -645 0
-1026 -646 0
-1026 -647 0
-1026 -648 0
-1027 -595 0
-1027 -596 0
-1027 -597 0
-1027 -598 0
-1027 -599 0
-1027 -600 0
-1027 -601 0
-1027 -602 0
-1027 -603 0
-1027 -607 0
-1027 -608 0
-1027 -609 0
-1027 -610 0
-1027 -611 0
-1027 -612 0
-1027 -613 0
-1027 -614 0
-1027 -615 0
-1027 -616 0
-1027 -617 0
-1027 -618 0
-1027 -619 0
-1027 -620 0
-1027 -621 0
-1027 -625 0
-1027 -626 0
-1027 -627 0
-1027 -628 0
-1027 -629 0
-1027 -630 0
-1027 -631 0
-1027 -632 0
-1027 -633 0
-1027 -634 0
-1027 -635 0
-1027 -636 0
-1027 -637 0
-1027 -638 0
-1027 -639 0
-1027 -643 0
-1027 -644 0
-1027 -645 0
-1027 -646 0
-1027 -647 0
-1027 -648 0
-1028 -595 0
-1028 -596 0
-1028 -597 0
-1028 -598 0
-1028 -599 0
-1028 -600 0
-1028 -601 0
-1028 -602 0
-1028 -603 0
-1028 -604 0
-1028 -608 0
-1028 -609 0
-1028 -610 0
-1028 -611 0
-1028 -612 0
-1028 -613 0
-1028 -614 0
-1028 -615 0
-1028 -616 0
-1028 -617 0
-1028 -618 0
-1028 -619 0
-1028 -620 0
-1028 -621 0
-1028 -622 0
-1028 -626 0
-1028 -627 0
-1028 -628 0
-1028 -629 0
-1028 -630 0
-1028 -631 0
-1028 -632 0
-1028 -633 0
-1028 -634 0
-1028 -635 0
-1028 -636 0
-1028 -637 0
-1028 -638 0
-1028 -639 0
-1028 -640 0
-1028 -644 0
-1028 -645 0
-1028 -646 0
-1028 -647 0
-1028 -648 0
-1029 -595 0
-1029 -596 0
-1029 -597 0
-1029 -598 0
-1029 -599 0
-1029 -600 0
-1029 -601 0
-1029 -602 0
-1029 -603 0
-1029 -604 0
-1029 -605 0
-1029 -609 0
-1029 -610 0
-1029 -611 0
-1029 -612 0
-1029 -613 0
-1029 -614 0
-1029 -615 0
-1029 -616 0
-1029 -617 0
-1029 -618 0
-1029 -619 0
-1029 -620 0
-1029 -621 0
-1029 -622 0
-1029 -623 0
-1029 -627 0
-1029 -628 0
-1029 -629 0
-1029 -630 0
-1029 -631 0
-1029 -632 0
-1029 -633 0
-1029 -634 0
-1029 -635 0
-1029 -636 0
-1029 -637 0
-1029 -638 0
-1029 -639 0
-1029 -640 0
-1029 -641 0
-1029 -645 0
-1029 -646 0
-1029 -647 0
-1029 -648 0
-1030 -595 0
-1030 -596 0
-1030 -597 0
-1030 -598 0
-1030 -599 0
-1030 -600 0
-1030 -601 0
-1030 -602 0
-1030 -603 0
-1030 -604 0
-1030 -605 0
-1030 -606 0
-1030 -610 0
-1030 -611 0
-1030 -612 0
-1030 -613 0
-1030 -614 0
-1030 -615 0
-1030 -616 0
-1030 -617 0
-1030 -618 0
-1030 -619 0
-1030 -620 0
-1030 -621 0
-1030 -622 0
-1030 -623 0
-1030 -624 0
-1030 -628 0
-1030 -629 0
-1030 -630 0
-1030 -631 0
-1030 -632 0
-1030 -633 0
-1030 -634 0
-1030 -635 0
-1030 -636 0
-1030 -637 0
-1030 -638 0
-1030 -639 0
-1030 -640 0
-1030 -641 0
-1030 -642 0
-1030 -646 0
-1030 -647 0
-1030 -648 0
-1031 -595 0
-1031 -596 0
-1031 -597 0
-1031 -598 0
-1031 -599 0
-1031 -600 0
-1031 -601 0
-1031 -602 0
-1031 -603 0
-1031 -604 0
-1031 -605 0
-1031 -606 0
-1031 -607 0
-1031 -611 0
-1031 -612 0
-1031 -613 0
-1031 -614 0
-1031 -615 0
-1031 -616 0
-1031 -617 0
-1031 -618 0
-1031 -619 0
-1031 -620 0
-1031 -621 0
-1031 -622 0
-1031 -623 0
-1031 -624 0
-1031 -625 0
-1031 -629 0
-1031 -630 0
-1031 -631 0
-1031 -632 0
-1031 -633 0
-1031 -634 0
-1031 -635 0
-1031 -636 0
-1031 -637 0
-1031 -638 0
-1031 -639 0
-1031 -640 0
-1031 -641 0
-1031 -642 0
-1031 -643 0
-1031 -647 0
-1031 -648 0
-1032 -595 0
-1032 -596 0
-1032 -597 0
-1032 -598 0
-1032 -599 0
-1032 -600 0
-1032 -601 0
-1032 -602 0
-1032 -603 0
-1032 -604 0
-1032 -605 0
-1032 -606 0
-1032 -607 0
-1032 -608 0
-1032 -612 0
-1032 -613 0
-1032 -614 0
-1032 -615 0
-1032 -616 0
-1032 -617 0
-1032 -618 0
-1032 -619 0
-1032 -620 0
-1032 -621 0
-1032 -622 0
-1032 -623 0
-1032 -624 0
-1032 -625 0
-1032 -626 0
-1032 -630 0
-1032 -631 0
-1032 -632 0
-1032 -633 0
-1032 -634 0
-1032 -635 0
-1032 -636 0
-1032 -637 0
-1032 -638 0
-1032 -639 0
-1032 -640 0
-1032 -641 0
-1032 -642 0
-1032 -643 0
-1032 -644 0
-1032 -648 0
-1033 -595 0
-1033 -596 0
-1033 -597 0
-1033 -598 0
-1033 -599 0
-1033 -600 0
-1033 -601 0
-1033 -602 0
-1033 -603 0
-1033 -604 0
-1033 -605 0
-1033 -606 0
-1033 -607 0
-1033 -608 0
-1033 -609 0
-1033 -613 0
-1033 -614 0
-1033 -615 0
-1033 -616 0
-1033 -617 0
-1033 -618 0
-1033 -619 0
-1033 -620 0
-1033 -621 0
-1033 -622 0
-1033 -623 0
-1033 -624 0
-1033 -625 0
-1033 -626 0
-1033 -627 0
-1033 -631 0
-1033 -632 0
-1033 -633 0
-1033 -634 0
-1033 -635 0
-1033 -636 0
-1033 -637 0
-1033 -638 0
-1033 -639 0
-1033 -640 0
-1033 -641 0
-1033 -642 0
-1033 -643 0
-1033 -644 0
-1033 -645 0
-649 -667 0
-649 -685 0
-667 -685 0
-650 -668 0
-650 -686 0
-668 -686 0
-651 -669 0
-651 -687 0
-669 -687 0
-652 -670 0
-652 -688 0
-670 -688 0
-653 -671 0
-653 -689 0
-671 -689 0
-654 -672 0
-654 -690 0
-672 -690 0
-655 -673 0
-655 -691 0
-673 -691 0
-656 -674 0
-656 -692 0
-674 -692 0
-657 -675 0
-657 -693 0
-675 -693 0
-658 -676 0
-658 -694 0
-676 -694 0
-659 -677 0
-659 -695 0
-677 -695 0
-660 -678 0
-660 -696 0
-678 -696 0
-661 -679 0
-661 -697 0
-679 -697 0
-662 -680 0
-662 -698 0
-680 -698 0
-663 -681 0
-663 -699 0
-681 -699 0
-664 -682 0
-664 -700 0
-682 -700 0
-665 -683 0
-665 -701 0
-683 -701 0
-666 -684 0
-666 -702 0
-684 -702 0
1034 1035 1036 1037 1038 1039 1040 1041 1042 1043 1044 1045 1046 1047 1048 1049 0
-1034 -1035 0
-1034 -1036 0
-1034 -1037 0
-1034 -1038 0
-1034 -1039 0
-1034 -1040 0
-1034 -1041 0
-1034 -1042 0
-1034 -1043 0
-1034 -1044 0
-1034 -1045 0
-1034 -1046 0
-1034 -1047 0
-1034 -1048 0
-1034 -1049 0
-1035 -1036 0
-1035 -1037 0
-1035 -1038 0
-1035 -1039 0
-1035 -1040 0
-1035 -1041 0
-1035 -1042 0
-1035 -1043 0
-1035 -1044 0
-1035 -1045 0
-1035 -1046 0
-1035 -1047 0
-1035 -1048 0
-1035 -1049 0
-1036 -1037 0
-1036 -1038 0
-1036 -1039 0
-1036 -1040 0
-1036 -1041 0
-1036 -1042 0
-1036 -1043 0
-1036 -1044 0
-1036 -1045 0
-1036 -1046 0
-1036 -1047 0
-1036 -1048 0
-1036 -1049 0
-1037 -1038 0
-1037 -1039 0
-1037 -1040 0
-1037 -1041 0
-1037 -1042 0
-1037 -1043 0
-1037 -1044 0
-1037 -1045 0
-1037 -1046 0
-1037 -1047 0
-1037 -1048 0
-1037 -1049 0
-1038 -1039 0
-1038 -1040 0
-1038 -1041 0
-1038 -1042 0
-1038 -1043 0
-1038 -1044 0
-1038 -1045 0
-1038 -1046 0
-1038 -1047 0
-1038 -1048 0
-1038 -1049 0
-1039 -1040 0
-1039 -1041 0
-1039 -1042 0
-1039 -1043 0
-1039 -1044 0
-1039 -1045 0
-1039 -1046 0
-1039 -1047 0
-1039 -1048 0
-1039 -1049 0
-1040 -1041 0
-1040 -1042 0
-1040 -1043 0
-1040 -1044 0
-1040 -1045 0
-1040 -1046 0
-1040 -1047 0
-1040 -1048 0
-1040 -1049 0
-1041 -1042 0
-1041 -1043 0
-1041 -1044 0
-1041 -1045 0
-1041 -1046 0
-1041 -1047 0
-1041 -1048 0
-1041 -1049 0
-1042 -1043 0
-1042 -1044 0
-1042 -1045 0
-1042 -1046 0
-1042 -1047 0
-1042 -1048 0
-1042 -1049 0
-1043 -1044 0
-1043 -1045 0
-1043 -1046 0
-1043 -1047 0
-1043 -1048 0
-1043 -1049 0
-1044 -1045 0
-1044 -1046 0
-1044 -1047 0
-1044 -1048 0
-1044 -1049 0
-1045 -1046 0
-1045 -1047 0
-1045 -1048 0
-1045 -1049 0
-1046 -1047 0
-1046 -1048 0
-1046 -1049 0
-1047 -1048 0
-1047 -1049 0
-1048 -1049 0
-649 1034 0
-650 1034 1035 0
-651 1034 1035 1036 0
-652 1035 1036 1037 0
-653 1036 1037 1038 0
-654 1037 1038 1039 0
-655 1038 1039 1040 0
-656 1039 1040 1041 0
-657 1040 1041 1042 0
-658 1041 1042 1043 0
-659 1042 1043 1044 0
-660 1043 1044 1045 0
-661 1044 1045 1046 0
-662 1045 1046 1047 0
-663 1046 1047 1048 0
-664 1047 1048 1049 0
-665 1048 1049 0
-666 1049 0
-667 1034 0
-668 1034 1035 0
-669 1034 1035 1036 0
-670 1035 1036 1037 0
-671 1036 1037 1038 0
-672 1037 1038 1039 0
-673 1038 1039 1040 0
-674 1039 1040 1041 0
-675 1040 1041 1042 0
-676 1041 1042 1043 0
-677 1042 1043 1044 0
-678 1043 1044 1045 0
-679 1044 1045 1046 0
-680 1045 1046 1047 0
-681 1046 1047 1048 0
-682 1047 1048 1049 0
-683 1048 1049 0
-684 1049 0
-685 1034 0
-686 1034 1035 0
-687 1034 1035 1036 0
-688 1035 1036 1037 0
-689 1036 1037 1038 0
-690 1037 1038 1039 0
-691 1038 1039 1040 0
-692 1039 1040 1041 0
-693 1040 1041 1042 0
-694 1041 1042 1043 0
-695 1042 1043 1044 0
-696 1043 1044 1045 0
-697 1044 1045 1046 0
-698 1045 1046 1047 0
-699 1046 1047 1048 0
-700 1047 1048 1049 0
-701 1048 1049 0
-702 1049 0
-1034 -652 0
-1034 -653 0
-1034 -654 0
-1034 -655 0
-1034 -656 0
-1034 -657 0
-1034 -658 0
-1034 -659 0
-1034 -660 0
-1034 -661 0
-1034 -662 0
-1034 -663 0
-1034 -664 0
-1034 -665 0
-1034 -666 0
-1034 -670 0
-1034 -671 0
-1034 -672 0
-1034 -673 0
-1034 -674 0
-1034 -675 0
-1034 -676 0
-1034 -677 0
-1034 -678 0
-1034 -679 0
-1034 -680 0
-1034 -681 0
-1034 -682 0
-1034 -683 0
-1034 -684 0
-1034 -688 0
-1034 -689 0
-1034 -690 0
-1034 -691 0
-1034 -692 0
-1034 -693 0
-1034 -694 0
-1034 -695 0
-1034 -696 0
-1034 -697 0
-1034 -698 0
-1034 -699 0
-1034 -700 0
-1034 -701 0
-1034 -702 0
-1035 -649 0
-1035 -653 0
-1035 -654 0
-1035 -655 0
-1035 -656 0
-1035 -657 0
-1035 -658 0
-1035 -659 0
-1035 -660 0
-1035 -661 0
-1035 -662 0
-1035 -663 0
-1035 -664 0
-1035 -665 0
-1035 -666 0
-1035 -667 0
-1035 -671 0
-1035 -672 0
-1035 -673 0
-1035 -674 0
-1035 -675 0
-1035 -676 0
-1035 -677 0
-1035 -678 0
-1035 -679 0
-1035 -680 0
-1035 -681 0
-1035 -682 0
-1035 -683 0
-1035 -684 0
-1035 -685 0
-1035 -689 0
-1035 -690 0
-1035 -691 0
-1035 -692 0
-1035 -693 0
-1035 -694 0
-1035 -695 0
-1035 -696 0
-1035 -697 0
-1035 -698 0
-1035 -699 0
-1035 -700 0
-1035 -701 0
-1035 -702 0
-1036 -649 0
-1036 -650 0
-1036 -654 0
-1036 -655 0
-1036 -656 0
-1036 -657 0
-1036 -658 0
-1036 -659 0
-1036 -660 0
-1036 -661 0
-1036 -662 0
-1036 -663 0
-1036 -664 0
-1036 -665 0
-1036 -666 0
-1036 -667 0
-1036 -668 0
-1036 -672 0
-1036 -673 0
-1036 -674 0
-1036 -675 0
-1036 -676 0
-1036 -677 0
-1036 -678 0
-1036 -679 0
-1036 -680 0
-1036 -681 0
-1036 -682 0
-1036 -683 0
-1036 -684 0
-1036 -685 0
-1036 -686 0
-1036 -690 0
-1036 -691 0
-1036 -692 0
-1036 -693 0
-1036 -694 0
-1036 -695 0
-1036 -696 0
-1036 -697 0
-1036 -698 0
-1036 -699 0
-1036 -700 0
-1036 -701 0
-1036 -702 0
-1037 -649 0
-1037 -650 0
-1037 -651 0
-1037 -655 0
-1037 -656 0
-1037 -657 0
-1037 -658 0
-1037 -659 0
-1037 -660 0
-1037 -661 0
-1037 -662 0
-1037 -663 0
-1037 -664 0
-1037 -665 0
-1037 -666 0
-1037 -667 0
-1037 -668 0
-1037 -669 0
-1037 -673 0
-1037 -674 0
-1037 -675 0
-1037 -676 0
-1037 -677 0
-1037 -678 0
-1037 -679 0
-1037 -680 0
-1037 -681 0
-1037 -682 0
-1037 -683 0
-1037 -684 0
-1037 -685 0
-1037 -686 0
-1037 -687 0
-1037 -691 0
-1037 -692 0
-1037 -693 0
-1037 -694 0
-1037 -695 0
-1037 -696 0
-1037 -697 0
-1037 -698 0
-1037 -699 0
-1037 -700 0
-1037 -701 0
-1037 -702 0
-1038 -649 0
-1038 -650 0
-1038 -651 0
-1038 -652 0
-1038 -656 0
-1038 -657 0
-1038 -658 0
-1038 -659 0
-1038 -660 0
-1038 -661 0
-1038 -662 0
-1038 -663 0
-1038 -664 0
-1038 -665 0
-1038 -666 0
-1038 -667 0
-1038 -668 0
-1038 -669 0
-1038 -670 0
-1038 -674 0
-1038 -675 0
-1038 -676 0
-1038 -677 0
-1038 -678 0
-1038 -679 0
-1038 -680 0
-1038 -681 0
-1038 -682 0
-1038 -683 0
-1038 -684 0
-1038 -685 0
-1038 -686 0
-1038 -687 0
-1038 -688 0
-1038 -692 0
-1038 -693 0
-1038 -694 0
-1038 -695 0
-1038 -696 0
-1038 -697 0
-1038 -698 0
-1038 -699 0
-1038 -700 0
-1038 -701 0
-1038 -702 0
-1039 -649 0
-1039 -650 0
-1039 -651 0
-1039 -652 0
-1039 -653 0
-1039 -657 0
-1039 -658 0
-1039 -659 0
-1039 -660 0
-1039 -661 0
-1039 -662 0
-1039 -663 0
-1039 -664 0
-1039 -665 0
-1039 -666 0
-1039 -667 0
-1039 -668 0
-1039 -669 0
-1039 -670 0
-1039 -671 0
-1039 -675 0
-1039 -676 0
-1039 -677 0
-1039 -678 0
-1039 -679 0
-1039 -680 0
-1039 -681 0
-1039 -682 0
-1039 -683 0
-1039 -684 0
-1039 -685 0
-1039 -686 0
-1039 -687 0
-1039 -688 0
-1039 -689 0
-1039 -693 0
-1039 -694 0
-1039 -695 0
-1039 -696 0
-1039 -697 0
-1039 -698 0
-1039 -699 0
-1039 -700 0
-1039 -701 0
-1039 -702 0
-1040 -649 0
-1040 -650 0
-1040 -651 0
-1040 -652 0
-1040 -653 0
-1040 -654 0
-1040 -658 0
-1040 -659 0
-1040 -660 0
-1040 -661 0
-1040 -662 0
-1040 -663 0
-1040 -664 0
-1040 -665 0
-1040 -666 0
-1040 -667 0
-1040 -668 0
-1040 -669 0
-1040 -670 0
-1040 -671 0
-1040 -672 0
-1040 -676 0
-1040 -677 0
-1040 -678 0
-1040 -679 0
-1040 -680 0
-1040 -681 0
-1040 -682 0
-1040 -683 0
-1040 -684 0
-1040 -685 0
-1040 -686 0
-1040 -687 0
-1040 -688 0
-1040 -689 0
-1040 -690 0
-1040 -694 0
-1040 -695 0
-1040 -696 0
-1040 -697 0
-1040 -698 0
-1040 -699 0
-1040 -700 0
-1040 -701 0
-1040 -702 0
-1041 -649 0
-1041 -650 0
-1041 -651 0
-1041 -652 0
-1041 -653 0
-1041 -654 0
-1041 -655 0
-1041 -659 0
-1041 -660 0
-1041 -661 0
-1041 -662 0
-1041 -663 0
-1041 -664 0
-1041 -665 0
-1041 -666 0
-1041 -667 0
-1041 -668 0
-1041 -669 0
-1041 -670 0
-1041 -671 0
-1041 -672 0
-1041 -673 0
-1041 -677 0
-1041 -678 0
-1041 -679 0
-1041 -680 0
-1041 -681 0
-1041 -682 0
-1041 -683 0
-1041 -684 0
-1041 -685 0
-1041 -686 0
-1041 -687 0
-1041 -688 0
-1041 -689 0
-1041 -690 0
-1041 -691 0
-1041 -695 0
-1041 -696 0
-1041 -697 0
-1041 -698 0
-1041 -699 0
-1041 -700 0
-1041 -701 0
-1041 -702 0
-1042 -649 0
-1042 -650 0
-1042 -651 0
-1042 -652 0
-1042 -653 0
-1042 -654 0
-1042 -655 0
-1042 -656 0
-1042 -660 0
-1042 -661 0
-1042 -662 0
-1042 -663 0
-1042 -664 0
-1042 -665 0
-1042 -666 0
-1042 -667 0
-1042 -668 0
-1042 -669 0
-1042 -670 0
-1042 -671 0
-1042 -672 0
-1042 -673 0
-1042 -674 0
-1042 -678 0
-1042 -679 0
-1042 -680 0
-1042 -681 0
-1042 -682 0
-1042 -683 0
-1042 -684 0
-1042 -685 0
-1042 -686 0
-1042 -687 0
-1042 -688 0
-1042 -689 0
-1042 -690 0
-1042 -691 0
-1042 -692 0
-1042 -696 0
-1042 -697 0
-1042 -698 0
-1042 -699 0
-1042 -700 0
-1042 -701 0
-1042 -702 0
-1043 -649 0
-1043 -650 0
-1043 -651 0
-1043 -652 0
-1043 -653 0
-1043 -654 0
-1043 -655 0
-1043 -656 0
-1043 -657 0
-1043 -661 0
-1043 -662 0
-1043 -663 0
-1043 -664 0
-1043 -665 0
-1043 -666 0
-1043 -667 0
-1043 -668 0
-1043 -669 0
-1043 -670 0
-1043 -671 0
-1043 -672 0
-1043 -673 0
-1043 -674 0
-1043 -675 0
-1043 -679 0
-1043 -680 0
-1043 -681 0
-1043 -682 0
-1043 -683 0
-1043 -684 0
-1043 -685 0
-1043 -686 0
-1043 -687 0
-1043 -688 0
-1043 -689 0
-1043 -690 0
-1043 -691 0
-1043 -692 0
-1043 -693 0
-1043 -697 0
-1043 -698 0
-1043 -699 0
-1043 -700 0
-1043 -701 0
-1043 -702 0
-1044 -649 0
-1044 -650 0
-1044 -651 0
-1044 -652 0
-1044 -653 0
-1044 -654 0
-1044 -655 0
-1044 -656 0
-1044 -657 0
-1044 -658 0
-1044 -662 0
-1044 -663 0
-1044 -664 0
-1044 -665 0
-1044 -666 0
-1044 -667 0
-1044 -668 0
-1044 -669 0
-1044 -670 0
-1044 -671 0
-1044 -672 0
-1044 -673 0
-1044 -674 0
-1044 -675 0
-1044 -676 0
-1044 -680 0
-1044 -681 0
-1044 -682 0
-1044 -683 0
-1044 -684 0
-1044 -685 0
-1044 -686 0
-1044 -687 0
-1044 -688 0
-1044 -689 0
-1044 -690 0
-1044 -691 0
-1044 -692 0
-1044 -693 0
-1044 -694 0
-1044 -698 0
-1044 -699 0
-1044 -700 0
-1044 -701 0
-1044 -702 0
-1045 -649 0
-1045 -650 0
-1045 -651 0
-1045 -652 0
-1045 -653 0
-1045 -654 0
-1045 -655 0
-1045 -656 0
-1045 -657 0
-1045 -658 0
-1045 -659 0
-1045 -663 0
-1045 -664 0
-1045 -665 0
-1045 -666 0
-1045 -667 0
-1045 -668 0
-1045 -669 0
-1045 -670 0
-1045 -671 0
-1045 -672 0
-1045 -673 0
-1045 -674 0
-1045 -675 0
-1045 -676 0
-1045 -677 0
-1045 -681 0
-1045 -682 0
-1045 -683 0
-1045 -684 0
-1045 -685 0
-1045 -686 0
-1045 -687 0
-1045 -688 0
-1045 -689 0
-1045 -690 0
-1045 -691 0
-1045 -692 0
-1045 -693 0
-1045 -694 0
-1045 -695 0
-1045 -699 0
-1045 -700 0
-1045 -701 0
-1045 -702 0
-1046 -649 0
-1046 -650 0
-1046 -651 0
-1046 -652 0
-1046 -653 0
-1046 -654 0
-1046 -655 0
-1046 -656 0
-1046 -657 0
-1046 -658 0
-1046 -659 0
-1046 -660 0
-1046 -664 0
-1046 -665 0
-1046 -666 0
-1046 -667 0
-1046 -668 0
-1046 -669 0
-1046 -670 0
-1046 -671 0
-1046 -672 0
-1046 -673 0
-1046 -674 0
-1046 -675 0
-1046 -676 0
-1046 -677 0
-1046 -678 0
-1046 -682 0
-1046 -683 0
-1046 -684 0
-1046 -685 0
-1046 -686 0
-1046 -687 0
-1046 -688 0
-1046 -689 0
-1046 -690 0
-1046 -691 0
-1046 -692 0
-1046 -693 0
-1046 -694 0
-1046 -695 0
-1046 -696 0
-1046 -700 0
-1046 -701 0
-1046 -702 0
-1047 -649 0
-1047 -650 0
-1047 -651 0
-1047 -652 0
-1047 -653 0
-1047 -654 0
-1047 -655 0
-1047 -656 0
-1047 -657 0
-1047 -658 0
-1047 -659 0
-1047 -660 0
-1047 -661 0
-1047 -665 0
-1047 -666 0
-1047 -667 0
-1047 -668 0
-1047 -669 0
-1047 -670 0
-1047 -671 0
-1047 -672 0
-1047 -673 0
-1047 -674 0
-1047 -675 0
-1047 -676 0
-1047 -677 0
-1047 -678 0
-1047 -679 0
-1047 -683 0
-1047 -684 0
-1047 -685 0
-1047 -686 0
-1047 -687 0
-1047 -688 0
-1047 -689 0
-1047 -690 0
-1047 -691 0
-1047 -692 0
-1047 -693 0
-1047 -694 0
-1047 -695 0
-1047 -696 0
-1047 -697 0
-1047 -701 0
-1047 -702 0
-1048 -649 0
-1048 -650 0
-1048 -651 0
-1048 -652 0
-1048 -653 0
-1048 -654 0
-1048 -655 0
-1048 -656 0
-1048 -657 0
-1048 -658 0
-1048 -659 0
-1048 -660 0
-1048 -661 0
-1048 -662 0
-1048 -666 0
-1048 -667 0
-1048 -668 0
-1048 -669 0
-1048 -670 0
-1048 -671 0
-1048 -672 0
-1048 -673 0
-1048 -674 0
-1048 -675 0
-1048 -676 0
-1048 -677 0
-1048 -678 0
-1048 -679 0
-1048 -680 0
-1048 -684 0
-1048 -685 0
-1048 -686 0
-1048 -687 0
-1048 -688 0
-1048 -689 0
-1048 -690 0
-1048 -691 0
-1048 -692 0
-1048 -693 0
-1048 -694 0
-1048 -695 0
-1048 -696 0
-1048 -697 0
-1048 -698 0
-1048 -702 0
-1049 -649 0
-1049 -650 0
-1049 -651 0
-1049 -652 0
-1049 -653 0
-1049 -654 0
-1049 -655 0
-1049 -656 0
-1049 -657 0
-1049 -658 0
-1049 -659 0
-1049 -660 0
-1049 -661 0
-1049 -662 0
-1049 -663 0
-1049 -667 0
-1049 -668 0
-1049 -669 0
-1049 -670 0
-1049 -671 0
-1049 -672 0
-1049 -673 0
-1049 -674 0
-1049 -675 0
-1049 -676 0
-1049 -677 0
-1049 -678 0
-1049 -679 0
-1049 -680 0
-1049 -681 0
-1049 -685 0
-1049 -686 0
-1049 -687 0
-1049 -688 0
-1049 -689 0
-1049 -690 0
-1049 -691 0
-1049 -692 0
-1049 -693 0
-1049 -694 0
-1049 -695 0
-1049 -696 0
-1049 -697 0
-1049 -698 0
-1049 -699 0
-703 -721 0
-703 -739 0
-721 -739 0
-704 -722 0
-704 -740 0
-722 -740 0
-705 -723 0
-705 -741 0
-723 -741 0
-706 -724 0
-706 -742 0
-724 -742 0
-707 -725 0
-707 -743 0
-725 -743 0
-708 -726 0
-708 -744 0
-726 -744 0
-709 -727 0
-709 -745 0
-727 -745 0
-710 -728 0
-710 -746 0
-728 -746 0
-711 -729 0
-711 -747 0
-729 -747 0
-712 -730 0
-712 -748 0
-730 -748 0
-713 -731 0
-713 -749 0
-731 -749 0
-714 -732 0
-714 -750 0
-732 -750 0
-715 -733 0
-715 -751 0
-733 -751 0
-716 -734 0
-716 -752 0
-734 -752 0
-717 -735 0
-717 -753 0
-735 -753 0
-718 -736 0
-718 -754 0
-736 -754 0
-719 -737 0
-719 -755 0
-737 -755 0
-720 -738 0
-720 -756 0
-738 -756 0
1050 1051 1052 1053 1054 1055 1056 1057 1058 1059 1060 1061 1062 1063 1064 1065 0
-1050 -1051 0
-1050 -1052 0
-1050 -1053 0
-1050 -1054 0
-1050 -1055 0
-1050 -1056 0
-1050 -1057 0
-1050 -1058 0
-1050 -1059 0
-1050 -1060 0
-1050 -1061 0
-1050 -1062 0
-1050 -1063 0
-1050 -1064 0
-1050 -1065 0
-1051 -1052 0
-1051 -1053 0
-1051 -1054 0
-1051 -1055 0
-1051 -1056 0
-1051 -1057 0
-1051 -1058 0
-1051 -1059 0
-1051 -1060 0
-1051 -1061 0
-1051 -1062 0
-1051 -1063 0
-1051 -1064 0
-1051 -1065 0
-1052 -1053 0
-1052 -1054 0
-1052 -1055 0
-1052 -1056 0
-1052 -1057 0
-1052 -1058 0
-1052 -1059 0
-1052 -1060 0
-1052 -1061 0
-1052 -1062 0
-1052 -1063 0
-1052 -1064 0
-1052 -1065 0
-1053 -1054 0
-1053 -1055 0
-1053 -1056 0
-1053 -1057 0
-1053 -1058 0
-1053 -1059 0
-1053 -1060 0
-1053 -1061 0
-1053 -1062 0
-1053 -1063 0
-1053 -1064 0
-1053 -1065 0
-1054 -1055 0
-1054 -1056 0
-1054 -1057 0
-1054 -1058 0
-1054 -1059 0
-1054 -1060 0
-1054 -1061 0
-1054 -1062 0
-1054 -1063 0
-1054 -1064 0
-1054 -1065 0
-1055 -1056 0
-1055 -1057 0
-1055 -1058 0
-1055 -1059 0
-1055 -1060 0
-1055 -1061 0
-1055 -1062 0
-1055 -1063 0
-1055 -1064 0
-1055 -1065 0
-1056 -1057 0
-1056 -1058 0
-1056 -1059 0
-1056 -1060 0
-1056 -1061 0
-1056 -1062 0
-1056 -1063 0
-1056 -1064 0
-1056 -1065 0
-1057 -1058 0
-1057 -1059 0
-1057 -1060 0
-1057 -1061 0
-1057 -1062 0
-1057 -1063 0
-1057 -1064 0
-1057 -1065 0
-1058 -1059 0
-1058 -1060 0
-1058 -1061 0
-1058 -1062 0
-1058 -1063 0
-1058 -1064 0
-1058 -1065 0
-1059 -1060 0
-1059 -1061 0
-1059 -1062 0
-1059 -1063 0
-1059 -1064 0
-1059 -1065 0
-1060 -1061 0
-1060 -1062 0
-1060 -1063 0
-1060 -1064 0
-1060 -1065 0
-1061 -1062 0
-1061 -1063 0
-1061 -1064 0
-1061 -1065 0
-1062 -1063 0
-1062 -1064 0
-1062 -1065 0
-1063 -1064 0
-1063 -1065 0
-1064 -1065 0
-703 1050 0
-704 1050 1051 0
-705 1050 1051 1052 0
-706 1051 1052 1053 0
-707 1052 1053 1054 0
-708 1053 1054 1055 0
-709 1054 1055 1056 0
-710 1055 1056 1057 0
-711 1056 1057 1058 0
-712 1057 1058 1059 0
-713 1058 1059 1060 0
-714 1059 1060 1061 0
-715 1060 1061 1062 0
-716 1061 1062 1063 0
-717 1062 1063 1064 0
-718 1063 1064 1065 0
-719 1064 1065 0
-720 1065 0
-721 1050 0
-722 1050 1051 0
-723 1050 1051 1052 0
-724 1051 1052 1053 0
-725 1052 1053 1054 0
-726 1053 1054 1055 0
-727 1054 1055 1056 0
-728 1055 1056 1057 0
-729 1056 1057 1058 0
-730 1057 1058 1059 0
-731 1058 1059 1060 0
-732 1059 1060 1061 0
-733 1060 1061 1062 0
-734 1061 1062 1063 0
-735 1062 1063 1064 0
-736 1063 1064 1065 0
-737 1064 1065 0
-738 1065 0
-739 1050 0
-740 1050 1051 0
-741 1050 1051 1052 0
-742 1051 1052 1053 0
-743 1052 1053 1054 0
-744 1053 1054 1055 0
-745 1054 1055 1056 0
-746 1055 1056 1057 0
-747 1056 1057 1058 0
-748 1057 1058 1059 0
-749 1058 1059 1060 0
-750 1059 1060 1061 0
-751 1060 1061 1062 0
-752 1061 1062 1063 0
-753 1062 1063 1064 0
-754 1063 1064 1065 0
-755 1064 1065 0
-756 1065 0
-1050 -706 0
-1050 -707 0
-1050 -708 0
-1050 -709 0
-1050 -710 0
-1050 -711 0
-1050 -712 0
-1050 -713 0
-1050 -714 0
-1050 -715 0
-1050 -716 0
-1050 -717 0
-1050 -718 0
-1050 -719 0
-1050 -720 0
-1050 -724 0
-1050 -725 0
-1050 -726 0
-1050 -727 0
-1050 -728 0
-1050 -729 0
-1050 -730 0
-1050 -731 0
-1050 -732 0
-1050 -733 0
-1050 -734 0
-1050 -735 0
-1050 -736 0
-1050 -737 0
-1050 -738 0
-1050 -742 0
-1050 -743 0
-1050 -744 0
-1050 -745 0
-1050 -746 0
-1050 -747 0
-1050 -748 0
-1050 -749 0
-1050 -750 0
-1050 -751 0
-1050 -752 0
-1050 -753 0
-1050 -754 0
-1050 -755 0
-1050 -756 0
-1051 -703 0
-1051 -707 0
-1051 -708 0
-1051 -709 0
-1051 -710 0
-1051 -711 0
-1051 -712 0
-1051 -713 0
-1051 -714 0
-1051 -715 0
-1051 -716 0
-1051 -717 0
-1051 -718 0
-1051 -719 0
-1051 -720 0
-1051 -721 0
-1051 -725 0
-1051 -726 0
-1051 -727 0
-1051 -728 0
-1051 -729 0
-1051 -730 0
-1051 -731 0
-1051 -732 0
-1051 -733 0
-1051 -734 0
-1051 -735 0
-1051 -736 0
-1051 -737 0
-1051 -738 0
-1051 -739 0
-1051 -743 0
-1051 -744 0
-1051 -745 0
-1051 -746 0
-1051 -747 0
-1051 -748 0
-1051 -749 0
-1051 -750 0
-1051 -751 0
-1051 -752 0
-1051 -753 0
-1051 -754 0
-1051 -755 0
-1051 -756 0
-1052 -703 0
-1052 -704 0
-1052 -708 0
-1052 -709 0
-1052 -710 0
-1052 -711 0
-1052 -712 0
-1052 -713 0
-1052 -714 0
-1052 -715 0
-1052 -716 0
-1052 -717 0
-1052 -718 0
-1052 -719 0
-1052 -720 0
-1052 -721 0
-1052 -722 0
-1052 -726 0
-1052 -727 0
-1052 -728 0
-1052 -729 0
-1052 -730 0
-1052 -731 0
-1052 -732 0
-1052 -733 0
-1052 -734 0
-1052 -735 0
-1052 -736 0
-1052 -737 0
-1052 -738 0
-1052 -739 0
-1052 -740 0
-1052 -744 0
-1052 -745 0
-1052 -746 0
-1052 -747 0
-1052 -748 0
-1052 -749 0
-1052 -750 0
-1052 -751 0
-1052 -752 0
-1052 -753 0
-1052 -754 0
-1052 -755 0
-1052 -756 0
-1053 -703 0
-1053 -704 0
-1053 -705 0
-1053 -709 0
-1053 -710 0
-1053 -711 0
-1053 -712 0
-1053 -713 0
-1053 -714 0
-1053 -715 0
-1053 -716 0
-1053 -717 0
-1053 -718 0
-1053 -719 0
-1053 -720 0
-1053 -721 0
-1053 -722 0
-1053 -723 0
-1053 -727 0
-1053 -728 0
-1053 -729 0
-1053 -730 0
-1053 -731 0
-1053 -732 0
-1053 -733 0
-1053 -734 0
-1053 -735 0
-1053 -736 0
-1053 -737 0
-1053 -738 0
-1053 -739 0
-1053 -740 0
-1053 -741 0
-1053 -745 0
-1053 -746 0
-1053 -747 0
-1053 -748 0
-1053 -749 0
-1053 -750 0
-1053 -751 0
-1053 -752 0
-1053 -753 0
-1053 -754 0
-1053 -755 0
-1053 -756 0
-1054 -703 0
-1054 -704 0
-1054 -705 0
-1054 -706 0
-1054 -710 0
-1054 -711 0
-1054 -712 0
-1054 -713 0
-1054 -714 0
-1054 -715 0
-1054 -716 0
-1054 -717 0
-1054 -718 0
-1054 -719 0
-1054 -720 0
-1054 -721 0
-1054 -722 0
-1054 -723 0
-1054 -724 0
-1054 -728 0
-1054 -729 0
-1054 -730 0
-1054 -731 0
-1054 -732 0
-1054 -733 0
-1054 -734 0
-1054 -735 0
-1054 -736 0
-1054 -737 0
-1054 -738 0
-1054 -739 0
-1054 -740 0
-1054 -741 0
-1054 -742 0
-1054 -746 0
-1054 -747 0
-1054 -748 0
-1054 -749 0
-1054 -750 0
-1054 -751 0
-1054 -752 0
-1054 -753 0
-1054 -754 0
-1054 -755 0
-1054 -756 0
-1055 -703 0
-1055 -704 0
-1055 -705 0
-1055 -706 0
-1055 -707 0
-1055 -711 0
-1055 -712 0
-1055 -713 0
-1055 -714 0
-1055 -715 0
-1055 -716 0
-1055 -717 0
-1055 -718 0
-1055 -719 0
-1055 -720 0
-1055 -721 0
-1055 -722 0
-1055 -723 0
-1055 -724 0
-1055 -725 0
-1055 -729 0
-1055 -730 0
-1055 -731 0
-1055 -732 0
-1055 -733 0
-1055 -734 0
-1055 -735 0
-1055 -736 0
-1055 -737 0
-1055 -738 0
-1055 -739 0
-1055 -740 0
-1055 -741 0
-1055 -742 0
-1055 -743 0
-1055 -747 0
-1055 -748 0
-1055 -749 0
-1055 -750 0
-1055 -751 0
-1055 -752 0
-1055 -753 0
-1055 -754 0
-1055 -755 0
-1055 -756 0
-1056 -703 0
-1056 -704 0
-1056 -705 0
-1056 -706 0
-1056 -707 0
-1056 -708 0
-1056 -712 0
-1056 -713 0
-1056 -714 0
-1056 -715 0
-1056 -716 0
-1056 -717 0
-1056 -718 0
-1056 -719 0
-1056 -720 0
-1056 -721 0
-1056 -722 0
-1056 -723 0
-1056 -724 0
-1056 -725 0
-1056 -726 0
-1056 -730 0
-1056 -731 0
-1056 -732 0
-1056 -733 0
-1056 -734 0
-1056 -735 0
-1056 -736 0
-1056 -737 0
-1056 -738 0
-1056 -739 0
-1056 -740 0
-1056 -741 0
-1056 -742 0
-1056 -743 0
-1056 -744 0
-1056 -748 0
-1056 -749 0
-1056 -750 0
-1056 -751 0
-1056 -752 0
-1056 -753 0
-1056 -754 0
-1056 -755 0
-1056 -756 0
-1057 -703 0
-1057 -704 0
-1057 -705 0
-1057 -706 0
-1057 -707 0
-1057 -708 0
-1057 -709 0
-1057 -713 0
-1057 -714 0
-1057 -715 0
-1057 -716 0
-1057 -717 0
-1057 -718 0
-1057 -719 0
-1057 -720 0
-1057 -721 0
-1057 -722 0
-1057 -723 0
-1057 -724 0
-1057 -725 0
-1057 -726 0
-1057 -727 0
-1057 -731 0
-1057 -732 0
-1057 -733 0
-1057 -734 0
-1057 -735 0
-1057 -736 0
-1057 -737 0
-1057 -738 0
-1057 -739 0
-1057 -740 0
-1057 -741 0
-1057 -742 0
-1057 -743 0
-1057 -744 0
-1057 -745 0
-1057 -749 0
-1057 -750 0
-1057 -751 0
-1057 -752 0
-1057 -753 0
-1057 -754 0
-1057 -755 0
-1057 -756 0
-1058 -703 0
-1058 -704 0
-1058 -705 0
-1058 -706 0
-1058 -707 0
-1058 -708 0
-1058 -709 0
-1058 -710 0
-1058 -714 0
-1058 -715 0
-1058 -716 0
-1058 -717 0
-1058 -718 0
-1058 -719 0
-1058 -720 0
-1058 -721 0
-1058 -722 0
-1058 -723 0
-1058 -724 0
-1058 -725 0
-1058 -726 0
-1058 -727 0
-1058 -728 0
-1058 -732 0
-1058 -733 0
-1058 -734 0
-1058 -735 0
-1058 -736 0
-1058 -737 0
-1058 -738 0
-1058 -739 0
-1058 -740 0
-1058 -741 0
-1058 -742 0
-1058 -743 0
-1058 -744 0
-1058 -745 0
-1058 -746 0
-1058 -750 0
-1058 -751 0
-1058 -752 0
-1058 -753 0
-1058 -754 0
-1058 -755 0
-1058 -756 0
-1059 -703 0
-1059 -704 0
-1059 -705 0
-1059 -706 0
-1059 -707 0
-1059 -708 0
-1059 -709 0
-1059 -710 0
-1059 -711 0
-1059 -715 0
-1059 -716 0
-1059 -717 0
-1059 -718 0
-1059 -719 0
-1059 -720 0
-1059 -721 0
-1059 -722 0
-1059 -723 0
-1059 -724 0
-1059 -725 0
-1059 -726 0
-1059 -727 0
-1059 -728 0
-1059 -729 0
-1059 -733 0
-1059 -734 0
-1059 -735 0
-1059 -736 0
-1059 -737 0
-1059 -738 0
-1059 -739 0
-1059 -740 0
-1059 -741 0
-1059 -742 0
-1059 -743 0
-1059 -744 0
-1059 -745 0
-1059 -746 0
-1059 -747 0
-1059 -751 0
-1059 -752 0
-1059 -753 0
-1059 -754 0
-1059 -755 0
-1059 -756 0
-1060 -703 0
-1060 -704 0
-1060 -705 0
-1060 -706 0
-1060 -707 0
-1060 -708 0
-1060 -709 0
-1060 -710 0
-1060 -711 0
-1060 -712 0
-1060 -716 0
-1060 -717 0
-1060 -718 0
-1060 -719 0
-1060 -720 0
-1060 -721 0
-1060 -722 0
-1060 -723 0
-1060 -724 0
-1060 -725 0
-1060 -726 0
-1060 -727 0
-1060 -728 0
-1060 -729 0
-1060 -730 0
-1060 -734 0
-1060 -735 0
-1060 -736 0
-1060 -737 0
-1060 -738 0
-1060 -739 0
-1060 -740 0
-1060 -741 0
-1060 -742 0
-1060 -743 0
-1060 -744 0
-1060 -745 0
-1060 -746 0
-1060 -747 0
-1060 -748 0
-1060 -752 0
-1060 -753 0
-1060 -754 0
-1060 -755 0
-1060 -756 0
-1061 -703 0
-1061 -704 0
-1061 -705 0
-1061 -706 0
-1061 -707 0
-1061 -708 0
-1061 -709 0
-1061 -710 0
-1061 -711 0
-1061 -712 0
-1061 -713 0
-1061 -717 0
-1061 -718 0
-1061 -719 0
-1061 -720 0
-1061 -721 0
-1061 -722 0
-1061 -723 0
-1061 -724 0
-1061 -725 0
-1061 -726 0
-1061 -727 0
-1061 -728 0
-1061 -729 0
-1061 -730 0
-1061 -731 0
-1061 -735 0
-1061 -736 0
-1061 -737 0
-1061 -738 0
-1061 -739 0
-1061 -740 0
-1061 -741 0
-1061 -742 0
-1061 -743 0
-1061 -744 0
-1061 -745 0
-1061 -746 0
-1061 -747 0
-1061 -748 0
-1061 -749 0
-1061 -753 0
-1061 -754 0
-1061 -755 0
-1061 -756 0
-1062 -703 0
-1062 -704 0
-1062 -705 0
-1062 -706 0
-1062 -707 0
-1062 -708 0
-1062 -709 0
-1062 -710 0
-1062 -711 0
-1062 -712 0
-1062 -713 0
-1062 -714 0
-1062 -718 0
-1062 -719 0
-1062 -720 0
-1062 -721 0
-1062 -722 0
-1062 -723 0
-1062 -724 0
-1062 -725 0
-1062 -726 0
-1062 -727 0
-1062 -728 0
-1062 -729 0
-1062 -730 0
-1062 -731 0
-1062 -732 0
-1062 -736 0
-1062 -737 0
-1062 -738 0
-1062 -739 0
-1062 -740 0
-1062 -741 0
-1062 -742 0
-1062 -743 0
-1062 -744 0
-1062 -745 0
-1062 -746 0
-1062 -747 0
-1062 -748 0
-1062 -749 0
-1062 -750 0
-1062 -754 0
-1062 -755 0
-1062 -756 0
-1063 -703 0
-1063 -704 0
-1063 -705 0
-1063 -706 0
-1063 -707 0
-1063 -708 0
-1063 -709 0
-1063 -710 0
-1063 -711 0
-1063 -712 0
-1063 -713 0
-1063 -714 0
-1063 -715 0
-1063 -719 0
-1063 -720 0
-1063 -721 0
-1063 -722 0
-1063 -723 0
-1063 -724 0
-1063 -725 0
-1063 -726 0
-1063 -727 0
-1063 -728 0
-1063 -729 0
-1063 -730 0
-1063 -731 0
-1063 -732 0
-1063 -733 0
-1063 -737 0
-1063 -738 0
-1063 -739 0
-1063 -740 0
-1063 -741 0
-1063 -742 0
-1063 -743 0
-1063 -744 0
-1063 -745 0
-1063 -746 0
-1063 -747 0
-1063 -748 0
-1063 -749 0
-1063 -750 0
-1063 -751 0
-1063 -755 0
-1063 -756 0
-1064 -703 0
-1064 -704 0
-1064 -705 0
-1064 -706 0
-1064 -707 0
-1064 -708 0
-1064 -709 0
-1064 -710 0
-1064 -711 0
-1064 -712 0
-1064 -713 0
-1064 -714 0
-1064 -715 0
-1064 -716 0
-1064 -720 0
-1064 -721 0
-1064 -722 0
-1064 -723 0
-1064 -724 0
-1064 -725 0
-1064 -726 0
-1064 -727 0
-1064 -728 0
-1064 -729 0
-1064 -730 0
-1064 -731 0
-1064 -732 0
-1064 -733 0
-1064 -734 0
-1064 -738 0
-1064 -739 0
-1064 -740 0
-1064 -741 0
-1064 -742 0
-1064 -743 0
-1064 -744 0
-1064 -745 0
-1064 -746 0
-1064 -747 0
-1064 -748 0
-1064 -749 0
-1064 -750 0
-1064 -751 0
-1064 -752 0
-1064 -756 0
-1065 -703 0
-1065 -704 0
-1065 -705 0
-1065 -706 0
-1065 -707 0
-1065 -708 0
-1065 -709 0
-1065 -710 0
-1065 -711 0
-1065 -712 0
-1065 -713 0
-1065 -714 0
-1065 -715 0
-1065 -716 0
-1065 -717 0
-1065 -721 0
-1065 -722 0
-1065 -723 0
-1065 -724 0
-1065 -725 0
-1065 -726 0
-1065 -727 0
-1065 -728 0
-1065 -729 0
-1065 -730 0
-1065 -731 0
-1065 -732 0
-1065 -733 0
-1065 -734 0
-1065 -735 0
-1065 -739 0
-1065 -740 0
-1065 -741 0
-1065 -742 0
-1065 -743 0
-1065 -744 0
-1065 -745 0
-1065 -746 0
-1065 -747 0
-1065 -748 0
-1065 -749 0
-1065 -750 0
-1065 -751 0
-1065 -752 0
-1065 -753 0
-757 -775 0
-757 -793 0
-775 -793 0
-758 -776 0
-758 -794 0
-776 -794 0
-759 -777 0
-759 -795 0
-777 -795 0
-760 -778 0
-760 -796 0
-778 -796 0
-761 -779 0
-761 -797 0
-779 -797 0
-762 -780 0
-762 -798 0
-780 -798 0
-763 -781 0
-763 -799 0
-781 -799 0
-764 -782 0
-764 -800 0
-782 -800 0
-765 -783 0
-765 -801 0
-783 -801 0
-766 -784 0
-766 -802 0
-784 -802 0
-767 -785 0
-767 -803 0
-785 -803 0
-768 -786 0
-768 -804 0
-786 -804 0
-769 -787 0
-769 -805 0
-787 -805 0
-770 -788 0
-770 -806 0
-788 -806 0
-771 -789 0
-771 -807 0
-789 -807 0
-772 -790 0
-772 -808 0
-790 -808 0
-773 -791 0
-773 -809 0
-791 -809 0
-774 -792 0
-774 -810 0
-792 -810 0
1066 1067 1068 1069 1070 1071 1072 1073 1074 1075 1076 1077 1078 1079 1080 1081 0
-1066 -1067 0
-1066 -1068 0
-1066 -1069 0
-1066 -1070 0
-1066 -1071 0
-1066 -1072 0
-1066 -1073 0
-1066 -1074 0
-1066 -1075 0
-1066 -1076 0
-1066 -1077 0
-1066 -1078 0
-1066 -1079 0
-1066 -1080 0
-1066 -1081 0
-1067 -1068 0
-1067 -1069 0
-1067 -1070 0
-1067 -1071 0
-1067 -1072 0
-1067 -1073 0
-1067 -1074 0
-1067 -1075 0
-1067 -1076 0
-1067 -1077 0
-1067 -1078 0
-1067 -1079 0
-1067 -1080 0
-1067 -1081 0
-1068 -1069 0
-1068 -1070 0
-1068 -1071 0
-1068 -1072 0
-1068 -1073 0
-1068 -1074 0
-1068 -1075 0
-1068 -1076 0
-1068 -1077 0
-1068 -1078 0
-1068 -1079 0
-1068 -1080 0
-1068 -1081 0
-1069 -1070 0
-1069 -1071 0
-1069 -1072 0
-1069 -1073 0
-1069 -1074 0
-1069 -1075 0
-1069 -1076 0
-1069 -1077 0
-1069 -1078 0
-1069 -1079 0
-1069 -1080 0
-1069 -1081 0
-1070 -1071 0
-1070 -1072 0
-1070 -1073 0
-1070 -1074 0
-1070 -1075 0
-1070 -1076 0
-1070 -1077 0
-1070 -1078 0
-1070 -1079 0
-1070 -1080 0
-1070 -1081 0
-1071 -1072 0
-1071 -1073 0
-1071 -1074 0
-1071 -1075 0
-1071 -1076 0
-1071 -1077 0
-1071 -1078 0
-1071 -1079 0
-1071 -1080 0
-1071 -1081 0
-1072 -1073 0
-1072 -1074 0
-1072 -1075 0
-1072 -1076 0
-1072 -1077 0
-1072 -1078 0
-1072 -1079 0
-1072 -1080 0
-1072 -1081 0
-1073 -1074 0
-1073 -1075 0
-1073 -1076 0
-1073 -1077 0
-1073 -1078 0
-1073 -1079 0
-1073 -1080 0
-1073 -1081 0
-1074 -1075 0
-1074 -1076 0
-1074 -1077 0
-1074 -1078 0
-1074 -1079 0
-1074 -1080 0
-1074 -1081 0
-1075 -1076 0
-1075 -1077 0
-1075 -1078 0
-1075 -1079 0
-1075 -1080 0
-1075 -1081 0
-1076 -1077 0
-1076 -1078 0
-1076 -1079 0
-1076 -1080 0
-1076 -1081 0
-1077 -1078 0
-1077 -1079 0
-1077 -1080 0
-1077 -1081 0
-1078 -1079 0
-1078 -1080 0
-1078 -1081 0
-1079 -1080 0
-1079 -1081 0
-1080 -1081 0
-757 1066 0
-758 1066 1067 0
-759 1066 1067 1068 0
-760 1067 1068 1069 0
-761 1068 1069 1070 0
-762 1069 1070 1071 0
-763 1070 1071 1072 0
-764 1071 1072 1073 0
-765 1072 1073 1074 0
-766 1073 1074 1075 0
-767 1074 1075 1076 0
-768 1075 1076 1077 0
-769 1076 1077 1078 0
-770 1077 1078 1079 0
-771 1078 1079 1080 0
-772 1079 1080 1081 0
-773 1080 1081 0
-774 1081 0
-775 1066 0
-776 1066 1067 0
-777 1066 1067 1068 0
-778 1067 1068 1069 0
-779 1068 1069 1070 0
-780 1069 1070 1071 0
-781 1070 1071 1072 0
-782 1071 1072 1073 0
-783 1072 1073 1074 0
-784 1073 1074 1075 0
-785 1074 1075 1076 0
-786 1075 1076 1077 0
-787 1076 1077 1078 0
-788 1077 1078 1079 0
-789 1078 1079 1080 0
-790 1079 1080 1081 0
-791 1080 1081 0
-792 1081 0
-793 1066 0
-794 1066 1067 0
-795 1066 1067 1068 0
-796 1067 1068 1069 0
-797 1068 1069 1070 0
-798 1069 1070 1071 0
-799 1070 1071 1072 0
-800 1071 1072 1073 0
-801 1072 1073 1074 0
-802 1073 1074 1075 0
-803 1074 1075 1076 0
-804 1075 1076 1077 0
-805 1076 1077 1078 0
-806 1077 1078 1079 0
-807 1078 1079 1080 0
-808 1079 1080 1081 0
-809 1080 1081 0
-810 1081 0
-1066 -760 0
-1066 -761 0
-1066 -762 0
-1066 -763 0
-1066 -764 0
-1066 -765 0
-1066 -766 0
-1066 -767 0
-1066 -768 0
-1066 -769 0
-1066 -770 0
-1066 -771 0
-1066 -772 0
-1066 -773 0
-1066 -774 0
-1066 -778 0
-1066 -779 0
-1066 -780 0
-1066 -781 0
-1066 -782 0
-1066 -783 0
-1066 -784 0
-1066 -785 0
-1066 -786 0
-1066 -787 0
-1066 -788 0
-1066 -789 0
-1066 -790 0
-1066 -791 0
-1066 -792 0
-1066 -796 0
-1066 -797 0
-1066 -798 0
-1066 -799 0
-1066 -800 0
-1066 -801 0
-1066 -802 0
-1066 -803 0
-1066 -804 0
-1066 -805 0
-1066 -806 0
-1066 -807 0
-1066 -808 0
-1066 -809 0
-1066 -810 0
-1067 -757 0
-1067 -761 0
-1067 -762 0
-1067 -763 0
-1067 -764 0
-1067 -765 0
-1067 -766 0
-1067 -767 0
-1067 -768 0
-1067 -769 0
-1067 -770 0
-1067 -771 0
-1067 -772 0
-1067 -773 0
-1067 -774 0
-1067 -775 0
-1067 -779 0
-1067 -780 0
-1067 -781 0
-1067 -782 0
-1067 -783 0
-1067 -784 0
-1067 -785 0
-1067 -786 0
-1067 -787 0
-1067 -788 0
-1067 -789 0
-1067 -790 0
-1067 -791 0
-1067 -792 0
-1067 -793 0
-1067 -797 0
-1067 -798 0
-1067 -799 0
-1067 -800 0
-1067 -801 0
-1067 -802 0
-1067 -803 0
-1067 -804 0
-1067 -805 0
-1067 -806 0
-1067 -807 0
-1067 -808 0
-1067 -809 0
-1067 -810 0
-1068 -757 0
-1068 -758 0
-1068 -762 0
-1068 -763 0
-1068 -764 0
-1068 -765 0
-1068 -766 0
-1068 -767 0
-1068 -768 0
-1068 -769 0
-1068 -770 0
-1068 -771 0
-1068 -772 0
-1068 -773 0
-1068 -774 0
-1068 -775 0
-1068 -776 0
-1068 -780 0
-1068 -781 0
-1068 -782 0
-1068 -783 0
-1068 -784 0
-1068 -785 0
-1068 -786 0
-1068 -787 0
-1068 -788 0
-1068 -789 0
-1068 -790 0
-1068 -791 0
-1068 -792 0
-1068 -793 0
-1068 -794 0
-1068 -798 0
-1068 -799 0
-1068 -800 0
-1068 -801 0
-1068 -802 0
-1068 -803 0
-1068 -804 0
-1068 -805 0
-1068 -806 0
-1068 -807 0
-1068 -808 0
-1068 -809 0
-1068 -810 0
-1069 -757 0
-1069 -758 0
-1069 -759 0
-1069 -763 0
-1069 -764 0
-1069 -765 0
-1069 -766 0
-1069 -767 0
-1069 -768 0
-1069 -769 0
-1069 -770 0
-1069 -771 0
-1069 -772 0
-1069 -773 0
-1069 -774 0
-1069 -775 0
-1069 -776 0
-1069 -777 0
-1069 -781 0
-1069 -782 0
-1069 -783 0
-1069 -784 0
-1069 -785 0
-1069 -786 0
-1069 -787 0
-1069 -788 0
-1069 -789 0
-1069 -790 0
-1069 -791 0
-1069 -792 0
-1069 -793 0
-1069 -794 0
-1069 -795 0
-1069 -799 0
-1069 -800 0
-1069 -801 0
-1069 -802 0
-1069 -803 0
-1069 -804 0
-1069 -805 0
-1069 -806 0
-1069 -807 0
-1069 -808 0
-1069 -809 0
-1069 -810 0
-1070 -757 0
-1070 -758 0
-1070 -759 0
-1070 -760 0
-1070 -764 0
-1070 -765 0
-1070 -766 0
-1070 -767 0
-1070 -768 0
-1070 -769 0
-1070 -770 0
-1070 -771 0
-1070 -772 0
-1070 -773 0
-1070 -774 0
-1070 -775 0
-1070 -776 0
-1070 -777 0
-1070 -778 0
-1070 -782 0
-1070 -783 0
-1070 -784 0
-1070 -785 0
-1070 -786 0
-1070 -787 0
-1070 -788 0
-1070 -789 0
-1070 -790 0
-1070 -791 0
-1070 -792 0
-1070 -793 0
-1070 -794 0
-1070 -795 0
-1070 -796 0
-1070 -800 0
-1070 -801 0
-1070 -802 0
-1070 -803 0
-1070 -804 0
-1070 -805 0
-1070 -806 0
-1070 -807 0
-1070 -808 0
-1070 -809 0
-1070 -810 0
-1071 -757 0
-1071 -758 0
-1071 -759 0
-1071 -760 0
-1071 -761 0
-1071 -765 0
-1071 -766 0
-1071 -767 0
-1071 -768 0
-1071 -769 0
-1071 -770 0
-1071 -771 0
-1071 -772 0
-1071 -773 0
-1071 -774 0
-1071 -775 0
-1071 -776 0
-1071 -777 0
-1071 -778 0
-1071 -779 0
-1071 -783 0
-1071 -784 0
-1071 -785 0
-1071 -786 0
-1071 -787 0
-1071 -788 0
-1071 -789 0
-1071 -790 0
-1071 -791 0
-1071 -792 0
-1071 -793 0
-1071 -794 0
-1071 -795 0
-1071 -796 0
-1071 -797 0
-1071 -801 0
-1071 -802 0
-1071 -803 0
-1071 -804 0
-1071 -805 0
-1071 -806 0
-1071 -807 0
-1071 -808 0
-1071 -809 0
-1071 -810 0
-1072 -757 0
-1072 -758 0
-1072 -759 0
-1072 -760 0
-1072 -761 0
-1072 -762 0
-1072 -766 0
-1072 -767 0
-1072 -768 0
-1072 -769 0
-1072 -770 0
-1072 -771 0
-1072 -772 0
-1072 -773 0
-1072 -774 0
-1072 -775 0
-1072 -776 0
-1072 -777 0
-1072 -778 0
-1072 -779 0
-1072 -780 0
-1072 -784 0
-1072 -785 0
-1072 -786 0
-1072 -787 0
-1072 -788 0
-1072 -789 0
-1072 -790 0
-1072 -791 0
-1072 -792 0
-1072 -793 0
-1072 -794 0
-1072 -795 0
-1072 -796 0
-1072 -797 0
-1072 -798 0
-1072 -802 0
-1072 -803 0
-1072 -804 0
-1072 -805 0
-1072 -806 0
-1072 -807 0
-1072 -808 0
-1072 -809 0
-1072 -810 0
-1073 -757 0
-1073 -758 0
-1073 -759 0
-1073 -760 0
-1073 -761 0
-1073 -762 0
-1073 -763 0
-1073 -767 0
-1073 -768 0
-1073 -769 0
-1073 -770 0
-1073 -771 0
-1073 -772 0
-1073 -773 0
-1073 -774 0
-1073 -775 0
-1073 -776 0
-1073 -777 0
-1073 -778 0
-1073 -779 0
-1073 -780 0
-1073 -781 0
-1073 -785 0
-1073 -786 0
-1073 -787 0
-1073 -788 0
-1073 -789 0
-1073 -790 0
-1073 -791 0
-1073 -792 0
-1073 -793 0
-1073 -794 0
-1073 -795 0
-1073 -796 0
-1073 -797 0
-1073 -798 0
-1073 -799 0
-1073 -803 0
-1073 -804 0
-1073 -805 0
-1073 -806 0
-1073 -807 0
-1073 -808 0
-1073 -809 0
-1073 -810 0
-1074 -757 0
-1074 -758 0
-1074 -759 0
-1074 -760 0
-1074 -761 0
-1074 -762 0
-1074 -763 0
-1074 -764 0
-1074 -768 0
-1074 -769 0
-1074 -770 0
-1074 -771 0
-1074 -772 0
-1074 -773 0
-1074 -774 0
-1074 -775 0
-1074 -776 0
-1074 -777 0
-1074 -778 0
-1074 -779 0
-1074 -780 0
-1074 -781 0
-1074 -782 0
-1074 -786 0
-1074 -787 0
-1074 -788 0
-1074 -789 0
-1074 -790 0
-1074 -791 0
-1074 -792 0
-1074 -793 0
-1074 -794 0
-1074 -795 0
-1074 -796 0
-1074 -797 0
-1074 -798 0
-1074 -799 0
-1074 -800 0
-1074 -804 0
-1074 -805 0
-1074 -806 0
-1074 -807 0
-1074 -808 0
-1074 -809 0
-1074 -810 0
-1075 -757 0
-1075 -758 0
-1075 -759 0
-1075 -760 0
-1075 -761 0
-1075 -762 0
-1075 -763 0
-1075 -764 0
-1075 -765 0
-1075 -769 0
-1075 -770 0
-1075 -771 0
-1075 -772 0
-1075 -773 0
-1075 -774 0
-1075 -775 0
-1075 -776 0
-1075 -777 0
-1075 -778 0
-1075 -779 0
-1075 -780 0
-1075 -781 0
-1075 -782 0
-1075 -783 0
-1075 -787 0
-1075 -788 0
-1075 -789 0
-1075 -790 0
-1075 -791 0
-1075 -792 0
-1075 -793 0
-1075 -794 0
-1075 -795 0
-1075 -796 0
-1075 -797 0
-1075 -798 0
-1075 -799 0
-1075 -800 0
-1075 -801 0
-1075 -805 0
-1075 -806 0
-1075 -807 0
-1075 -808 0
-1075 -809 0
-1075 -810 0
-1076 -757 0
-1076 -758 0
-1076 -759 0
-1076 -760 0
-1076 -761 0
-1076 -762 0
-1076 -763 0
-1076 -764 0
-1076 -765 0
-1076 -766 0
-1076 -770 0
-1076 -771 0
-1076 -772 0
-1076 -773 0
-1076 -774 0
-1076 -775 0
-1076 -776 0
-1076 -777 0
-1076 -778 0
-1076 -779 0
-1076 -780 0
-1076 -781 0
-1076 -782 0
-1076 -783 0
-1076 -784 0
-1076 -788 0
-1076 -789 0
-1076 -790 0
-1076 -791 0
-1076 -792 0
-1076 -793 0
-1076 -794 0
-1076 -795 0
-1076 -796 0
-1076 -797 0
-1076 -798 0
-1076 -799 0
-1076 -800 0
-1076 -801 0
-1076 -802 0
-1076 -806 0
-1076 -807 0
-1076 -808 0
-1076 -809 0
-1076 -810 0
-1077 -757 0
-1077 -758 0
-1077 -759 0
-1077 -760 0
-1077 -761 0
-1077 -762 0
-1077 -763 0
-1077 -764 0
-1077 -765 0
-1077 -766 0
-1077 -767 0
-1077 -771 0
-1077 -772 0
-1077 -773 0
-1077 -774 0
-1077 -775 0
-1077 -776 0
-1077 -777 0
-1077 -778 0
-1077 -779 0
-1077 -780 0
-1077 -781 0
-1077 -782 0
-1077 -783 0
-1077 -784 0
-1077 -785 0
-1077 -789 0
-1077 -790 0
-1077 -791 0
-1077 -792 0
-1077 -793 0
-1077 -794 0
-1077 -795 0
-1077 -796 0
-1077 -797 0
-1077 -798 0
-1077 -799 0
-1077 -800 0
-1077 -801 0
-1077 -802 0
-1077 -803 0
-1077 -807 0
-1077 -808 0
-1077 -809 0
-1077 -810 0
-1078 -757 0
-1078 -758 0
-1078 -759 0
-1078 -760 0
-1078 -761 0
-1078 -762 0
-1078 -763 0
-1078 -764 0
-1078 -765 0
-1078 -766 0
-1078 -767 0
-1078 -768 0
-1078 -772 0
-1078 -773 0
-1078 -774 0
-1078 -775 0
-1078 -776 0
-1078 -777 0
-1078 -778 0
-1078 -779 0
-1078 -780 0
-1078 -781 0
-1078 -782 0
-1078 -783 0
-1078 -784 0
-1078 -785 0
-1078 -786 0
-1078 -790 0
-1078 -791 0
-1078 -792 0
-1078 -793 0
-1078 -794 0
-1078 -795 0
-1078 -796 0
-1078 -797 0
-1078 -798 0
-1078 -799 0
-1078 -800 0
-1078 -801 0
-1078 -802 0
-1078 -803 0
-1078 -804 0
-1078 -808 0
-1078 -809 0
-1078 -810 0
-1079 -757 0
-1079 -758 0
-1079 -759 0
-1079 -760 0
-1079 -761 0
-1079 -762 0
-1079 -763 0
-1079 -764 0
-1079 -765 0
-1079 -766 0
-1079 -767 0
-1079 -768 0
-1079 -769 0
-1079 -773 0
-1079 -774 0
-1079 -775 0
-1079 -776 0
-1079 -777 0
-1079 -778 0
-1079 -779 0
-1079 -780 0
-1079 -781 0
-1079 -782 0
-1079 -783 0
-1079 -784 0
-1079 -785 0
-1079 -786 0
-1079 -787 0
-1079 -791 0
-1079 -792 0
-1079 -793 0
-1079 -794 0
-1079 -795 0
-1079 -796 0
-1079 -797 0
-1079 -798 0
-1079 -799 0
-1079 -800 0
-1079 -801 0
-1079 -802 0
-1079 -803 0
-1079 -804 0
-1079 -805 0
-1079 -809 0
-1079 -810 0
-1080 -757 0
-1080 -758 0
-1080 -759 0
-1080 -760 0
-1080 -761 0
-1080 -762 0
-1080 -763 0
-1080 -764 0
-1080 -765 0
-1080 -766 0
-1080 -767 0
-1080 -768 0
-1080 -769 0
-1080 -770 0
-1080 -774 0
-1080 -775 0
-1080 -776 0
-1080 -777 0
-1080 -778 0
-1080 -779 0
-1080 -780 0
-1080 -781 0
-1080 -782 0
-1080 -783 0
-1080 -784 0
-1080 -785 0
-1080 -786 0
-1080 -787 0
-1080 -788 0
-1080 -792 0
-1080 -793 0
-1080 -794 0
-1080 -795 0
-1080 -796 0
-1080 -797 0
-1080 -798 0
-1080 -799 0
-1080 -800 0
-1080 -801 0
-1080 -802 0
-1080 -803 0
-1080 -804 0
-1080 -805 0
-1080 -806 0
-1080 -810 0
-1081 -757 0
-1081 -758 0
-1081 -759 0
-1081 -760 0
-1081 -761 0
-1081 -762 0
-1081 -763 0
-1081 -764 0
-1081 -765 0
-1081 -766 0
-1081 -767 0
-1081 -768 0
-1081 -769 0
-1081 -770 0
-1081 -771 0
-1081 -775 0
-1081 -776 0
-1081 -777 0
-1081 -778 0
-1081 -779 0
-1081 -780 0
-1081 -781 0
-1081 -782 0
-1081 -783 0
-1081 -784 0
-1081 -785 0
-1081 -786 0
-1081 -787 0
-1081 -788 0
-1081 -789 0
-1081 -793 0
-1081 -794 0
-1081 -795 0
-1081 -796 0
-1081 -797 0
-1081 -798 0
-1081 -799 0
-1081 -800 0
-1081 -801 0
-1081 -802 0
-1081 -803 0
-1081 -804 0
-1081 -805 0
-1081 -806 0
-1081 -807 0
1 19 37 55 73 91 109 127 145 163 181 199 217 235 253 271 289 307 325 343 361 379 397 415 433 451 469 487 505 523 541 559 577 595 613 631 649 667 685 703 721 739 757 775 793 0
2 20 38 56 74 92 110 128 146 164 182 200 218 236 254 272 290 308 326 344 362 380 398 416 434 452 470 488 506 524 542 560 578 596 614 632 650 668 686 704 722 740 758 776 794 0
3 21 39 57 75 93 111 129 147 165 183 201 219 237 255 273 291 309 327 345 363 381 399 417 435 453 471 489 507 525 543 561 579 597 615 633 651 669 687 705 723 741 759 777 795 0
4 22 40 58 76 94 112 130 148 166 184 202 220 238 256 274 292 310 328 346 364 382 400 418 436 454 472 490 508 526 544 562 580 598 616 634 652 670 688 706 724 742 760 778 796 0
5 23 41 59 77 95 113 131 149 167 185 203 221 239 257 275 293 311 329 347 365 383 401 419 437 455 473 491 509 527 545 563 581 599 617 635 653 671 689 707 725 743 761 779 797 0
6 24 42 60 78 96 114 132 150 168 186 204 222 240 258 276 294 312 330 348 366 384 402 420 438 456 474 492 510 528 546 564 582 600 618 636 654 672 690 708 726 744 762 780 798 0
7 25 43 61 79 97 115 133 151 169 187 205 223 241 259 277 295 313 331 349 367 385 403 421 439 457 475 493 511 529 547 565 583 601 619 637 655 673 691 709 727 745 763 781 799 0
8 26 44 62 80 98 116 134 152 170 188 206 224 242 260 278 296 314 332 350 368 386 404 422 440 458 476 494 512 530 548 566 584 602 620 638 656 674 692 710 728 746 764 782 800 0
9 27 45 63 81 99 117 135 153 171 189 207 225 243 261 279 297 315 333 351 369 387 405 423 441 459 477 495 513 531 549 567 585 603 621 639 657 675 693 711 729 747 765 783 801 0
10 28 46 64 82 100 118 136 154 172 190 208 226 244 262 280 298 316 334 352 370 388 406 424 442 460 478 496 514 532 550 568 586 604 622 640 658 676 694 712 730 748 766 784 802 0
11 29 47 65 83 101 119 137 155 173 191 209 227 245 263 281 299 317 335 353 371 389 407 425 443 461 479 497 515 533 551 569 587 605 623 641 659 677 695 713 731 749 767 785 803 0
12 30 48 66 84 102 120 138 156 174 192 210 228 246 264 282 300 318 336 354 372 390 408 426 444 462 480 498 516 534 552 570 588 606 624 642 660 678 696 714 732 750 768 786 804 0
13 31 49 67 85 103 121 139 157 175 193 211 229 247 265 283 301 319 337 355 373 391 409 427 445 463 481 499 517 535 553 571 589 607 625 643 661 679 697 715 733 751 769 787 805 0
14 32 50 68 86 104 122 140 158 176 194 212 230 248 266 284 302 320 338 356 374 392 410 428 446 464 482 500 518 536 554 572 590 608 626 644 662 680 698 716 734 752 770 788 806 0
15 33 51 69 87 105 123 141 159 177 195 213 231 249 267 285 303 321 339 357 375 393 411 429 447 465 483 501 519 537 555 573 591 609 627 645 663 681 699 717 735 753 771 789 807 0
16 34 52 70 88 106 124 142 160 178 196 214 232 250 268 286 304 322 340 358 376 394 412 430 448 466 484 502 520 538 556 574 592 610 628 646 664 682 700 718 736 754 772 790 808 0
17 35 53 71 89 107 125 143 161 179 197 215 233 251 269 287 305 323 341 359 377 395 413 431 449 467 485 503 521 539 557 575 593 611 629 647 665 683 701 719 737 755 773 791 809 0
18 36 54 72 90 108 126 144 162 180 198 216 234 252 270 288 306 324 342 360 378 396 414 432 450 468 486 504 522 540 558 576 594 612 630 648 666 684 702 720 738 756 774 792 810 0
