p cnf 889 19564
1 2 3 4 5 6 7 8 9 10 11 12 13 14 15 0
-1 -2 0
-1 -3 0
-1 -4 0
-1 -5 0
-1 -6 0
-1 -7 0
-1 -8 0
-1 -9 0
-1 -10 0
-1 -11 0
-1 -12 0
-1 -13 0
-1 -14 0
-1 -15 0
-2 -3 0
-2 -4 0
-2 -5 0
-2 -6 0
-2 -7 0
-2 -8 0
-2 -9 0
-2 -10 0
-2 -11 0
-2 -12 0
-2 -13 0
-2 -14 0
-2 -15 0
-3 -4 0
-3 -5 0
-3 -6 0
-3 -7 0
-3 -8 0
-3 -9 0
-3 -10 0
-3 -11 0
-3 -12 0
-3 -13 0
-3 -14 0
-3 -15 0
-4 -5 0
-4 -6 0
-4 -7 0
-4 -8 0
-4 -9 0
-4 -10 0
-4 -11 0
-4 -12 0
-4 -13 0
-4 -14 0
-4 -15 0
-5 -6 0
-5 -7 0
-5 -8 0
-5 -9 0
-5 -10 0
-5 -11 0
-5 -12 0
-5 -13 0
-5 -14 0
-5 -15 0
-6 -7 0
-6 -8 0
-6 -9 0
-6 -10 0
-6 -11 0
-6 -12 0
-6 -13 0
-6 -14 0
-6 -15 0
-7 -8 0
-7 -9 0
-7 -10 0
-7 -11 0
-7 -12 0
-7 -13 0
-7 -14 0
-7 -15 0
-8 -9 0
-8 -10 0
-8 -11 0
-8 -12 0
-8 -13 0
-8 -14 0
-8 -15 0
-9 -10 0
-9 -11 0
-9 -12 0
-9 -13 0
-9 -14 0
-9 -15 0
-10 -11 0
-10 -12 0
-10 -13 0
-10 -14 0
-10 -15 0
-11 -12 0
-11 -13 0
-11 -14 0
-11 -15 0
-12 -13 0
-12 -14 0
-12 -15 0
-13 -14 0
-13 -15 0
-14 -15 0
16 17 18 19 20 21 22 23 24 25 26 27 28 29 30 0
-16 -17 0
-16 -18 0
-16 -19 0
-16 -20 0
-16 -21 0
-16 -22 0
-16 -23 0
-16 -24 0
-16 -25 0
-16 -26 0
-16 -27 0
-16 -28 0
-16 -29 0
-16 -30 0
-17 -18 0
-17 -19 0
-17 -20 0
-17 -21 0
-17 -22 0
-17 -23 0
-17 -24 0
-17 -25 0
-17 -26 0
-17 -27 0
-17 -28 0
-17 -29 0
-17 -30 0
-18 -19 0
-18 -20 0
-18 -21 0
-18 -22 0
-18 -23 0
-18 -24 0
-18 -25 0
-18 -26 0
-18 -27 0
-18 -28 0
-18 -29 0
-18 -30 0
-19 -20 0
-19 -21 0
-19 -22 0
-19 -23 0
-19 -24 0
-19 -25 0
-19 -26 0
-19 -27 0
-19 -28 0
-19 -29 0
-19 -30 0
-20 -21 0
-20 -22 0
-20 -23 0
-20 -24 0
-20 -25 0
-20 -26 0
-20 -27 0
-20 -28 0
-20 -29 0
-20 -30 0
-21 -22 0
-21 -23 0
-21 -24 0
-21 -25 0
-21 -26 0
-21 -27 0
-21 -28 0
-21 -29 0
-21 -30 0
-22 -23 0
-22 -24 0
-22 -25 0
-22 -26 0
-22 -27 0
-22 -28 0
-22 -29 0
-22 -30 0
-23 -24 0
-23 -25 0
-23 -26 0
-23 -27 0
-23 -28 0
-23 -29 0
-23 -30 0
-24 -25 0
-24 -26 0
-24 -27 0
-24 -28 0
-24 -29 0
-24 -30 0
-25 -26 0
-25 -27 0
-25 -28 0
-25 -29 0
-25 -30 0
-26 -27 0
-26 -28 0
-26 -29 0
-26 -30 0
-27 -28 0
-27 -29 0
-27 -30 0
-28 -29 0
-28 -30 0
-29 -30 0
31 32 33 34 35 36 37 38 39 40 41 42 43 44 45 0
-31 -32 0
-31 -33 0
-31 -34 0
-31 -35 0
-31 -36 0
-31 -37 0
-31 -38 0
-31 -39 0
-31 -40 0
-31 -41 0
-31 -42 0
-31 -43 0
-31 -44 0
-31 -45 0
-32 -33 0
-32 -34 0
-32 -35 0
-32 -36 0
-32 -37 0
-32 -38 0
-32 -39 0
-32 -40 0
-32 -41 0
-32 -42 0
-32 -43 0
-32 -44 0
-32 -45 0
-33 -34 0
-33 -35 0
-33 -36 0
-33 -37 0
-33 -38 0
-33 -39 0
-33 -40 0
-33 -41 0
-33 -42 0
-33 -43 0
-33 -44 0
-33 -45 0
-34 -35 0
-34 -36 0
-34 -37 0
-34 -38 0
-34 -39 0
-34 -40 0
-34 -41 0
-34 -42 0
-34 -43 0
-34 -44 0
-34 -45 0
-35 -36 0
-35 -37 0
-35 -38 0
-35 -39 0
-35 -40 0
-35 -41 0
-35 -42 0
-35 -43 0
-35 -44 0
-35 -45 0
-36 -37 0
-36 -38 0
-36 -39 0
-36 -40 0
-36 -41 0
-36 -42 0
-36 -43 0
-36 -44 0
-36 -45 0
-37 -38 0
-37 -39 0
-37 -40 0
-37 -41 0
-37 -42 0
-37 -43 0
-37 -44 0
-37 -45 0
-38 -39 0
-38 -40 0
-38 -41 0
-38 -42 0
-38 -43 0
-38 -44 0
-38 -45 0
-39 -40 0
-39 -41 0
-39 -42 0
-39 -43 0
-39 -44 0
-39 -45 0
-40 -41 0
-40 -42 0
-40 -43 0
-40 -44 0
-40 -45 0
-41 -42 0
-41 -43 0
-41 -44 0
-41 -45 0
-42 -43 0
-42 -44 0
-42 -45 0
-43 -44 0
-43 -45 0
-44 -45 0
46 47 48 49 50 51 52 53 54 55 56 57 58 59 60 0
-46 -47 0
-46 -48 0
-46 -49 0
-46 -50 0
-46 -51 0
-46 -52 0
-46 -53 0
-46 -54 0
-46 -55 0
-46 -56 0
-46 -57 0
-46 -58 0
-46 -59 0
-46 -60 0
-47 -48 0
-47 -49 0
-47 -50 0
-47 -51 0
-47 -52 0
-47 -53 0
-47 -54 0
-47 -55 0
-47 -56 0
-47 -57 0
-47 -58 0
-47 -59 0
-47 -60 0
-48 -49 0
-48 -50 0
-48 -51 0
-48 -52 0
-48 -53 0
-48 -54 0
-48 -55 0
-48 -56 0
-48 -57 0
-48 -58 0
-48 -59 0
-48 -60 0
-49 -50 0
-49 -51 0
-49 -52 0
-49 -53 0
-49 -54 0
-49 -55 0
-49 -56 0
-49 -57 0
-49 -58 0
-49 -59 0
-49 -60 0
-50 -51 0
-50 -52 0
-50 -53 0
-50 -54 0
-50 -55 0
-50 -56 0
-50 -57 0
-50 -58 0
-50 -59 0
-50 -60 0
-51 -52 0
-51 -53 0
-51 -54 0
-51 -55 0
-51 -56 0
-51 -57 0
-51 -58 0
-51 -59 0
-51 -60 0
-52 -53 0
-52 -54 0
-52 -55 0
-52 -56 0
-52 -57 0
-52 -58 0
-52 -59 0
-52 -60 0
-53 -54 0
-53 -55 0
-53 -56 0
-53 -57 0
-53 -58 0
-53 -59 0
-53 -60 0
-54 -55 0
-54 -56 0
-54 -57 0
-54 -58 0
-54 -59 0
-54 -60 0
-55 -56 0
-55 -57 0
-55 -58 0
-55 -59 0
-55 -60 0
-56 -57 0
-56 -58 0
-56 -59 0
-56 -60 0
-57 -58 0
-57 -59 0
-57 -60 0
-58 -59 0
-58 -60 0
-59 -60 0
61 62 63 64 65 66 67 68 69 70 71 72 73 74 75 0
-61 -62 0
-61 -63 0
-61 -64 0
-61 -65 0
-61 -66 0
-61 -67 0
-61 -68 0
-61 -69 0
-61 -70 0
-61 -71 0
-61 -72 0
-61 -73 0
-61 -74 0
-61 -75 0
-62 -63 0
-62 -64 0
-62 -65 0
-62 -66 0
-62 -67 0
-62 -68 0
-62 -69 0
-62 -70 0
-62 -71 0
-62 -72 0
-62 -73 0
-62 -74 0
-62 -75 0
-63 -64 0
-63 -65 0
-63 -66 0
-63 -67 0
-63 -68 0
-63 -69 0
-63 -70 0
-63 -71 0
-63 -72 0
-63 -73 0
-63 -74 0
-63 -75 0
-64 -65 0
-64 -66 0
-64 -67 0
-64 -68 0
-64 -69 0
-64 -70 0
-64 -71 0
-64 -72 0
-64 -73 0
-64 -74 0
-64 -75 0
-65 -66 0
-65 -67 0
-65 -68 0
-65 -69 0
-65 -70 0
-65 -71 0
-65 -72 0
-65 -73 0
-65 -74 0
-65 -75 0
-66 -67 0
-66 -68 0
-66 -69 0
-66 -70 0
-66 -71 0
-66 -72 0
-66 -73 0
-66 -74 0
-66 -75 0
-67 -68 0
-67 -69 0
-67 -70 0
-67 -71 0
-67 -72 0
-67 -73 0
-67 -74 0
-67 -75 0
-68 -69 0
-68 -70 0
-68 -71 0
-68 -72 0
-68 -73 0
-68 -74 0
-68 -75 0
-69 -70 0
-69 -71 0
-69 -72 0
-69 -73 0
-69 -74 0
-69 -75 0
-70 -71 0
-70 -72 0
-70 -73 0
-70 -74 0
-70 -75 0
-71 -72 0
-71 -73 0
-71 -74 0
-71 -75 0
-72 -73 0
-72 -74 0
-72 -75 0
-73 -74 0
-73 -75 0
-74 -75 0
76 77 78 79 80 81 82 83 84 85 86 87 88 89 90 0
-76 -77 0
-76 -78 0
-76 -79 0
-76 -80 0
-76 -81 0
-76 -82 0
-76 -83 0
-76 -84 0
-76 -85 0
-76 -86 0
-76 -87 0
-76 -88 0
-76 -89 0
-76 -90 0
-77 -78 0
-77 -79 0
-77 -80 0
-77 -81 0
-77 -82 0
-77 -83 0
-77 -84 0
-77 -85 0
-77 -86 0
-77 -87 0
-77 -88 0
-77 -89 0
-77 -90 0
-78 -79 0
-78 -80 0
-78 -81 0
-78 -82 0
-78 -83 0
-78 -84 0
-78 -85 0
-78 -86 0
-78 -87 0
-78 -88 0
-78 -89 0
-78 -90 0
-79 -80 0
-79 -81 0
-79 -82 0
-79 -83 0
-79 -84 0
-79 -85 0
-79 -86 0
-79 -87 0
-79 -88 0
-79 -89 0
-79 -90 0
-80 -81 0
-80 -82 0
-80 -83 0
-80 -84 0
-80 -85 0
-80 -86 0
-80 -87 0
-80 -88 0
-80 -89 0
-80 -90 0
-81 -82 0
-81 -83 0
-81 -84 0
-81 -85 0
-81 -86 0
-81 -87 0
-81 -88 0
-81 -89 0
-81 -90 0
-82 -83 0
-82 -84 0
-82 -85 0
-82 -86 0
-82 -87 0
-82 -88 0
-82 -89 0
-82 -90 0
-83 -84 0
-83 -85 0
-83 -86 0
-83 -87 0
-83 -88 0
-83 -89 0
-83 -90 0
-84 -85 0
-84 -86 0
-84 -87 0
-84 -88 0
-84 -89 0
-84 -90 0
-85 -86 0
-85 -87 0
-85 -88 0
-85 -89 0
-85 -90 0
-86 -87 0
-86 -88 0
-86 -89 0
-86 -90 0
-87 -88 0
-87 -89 0
-87 -90 0
-88 -89 0
-88 -90 0
-89 -90 0
91 92 93 94 95 96 97 98 99 100 101 102 103 104 105 0
-91 -92 0
-91 -93 0
-91 -94 0
-91 -95 0
-91 -96 0
-91 -97 0
-91 -98 0
-91 -99 0
-91 -100 0
-91 -101 0
-91 -102 0
-91 -103 0
-91 -104 0
-91 -105 0
-92 -93 0
-92 -94 0
-92 -95 0
-92 -96 0
-92 -97 0
-92 -98 0
-92 -99 0
-92 -100 0
-92 -101 0
-92 -102 0
-92 -103 0
-92 -104 0
-92 -105 0
-93 -94 0
-93 -95 0
-93 -96 0
-93 -97 0
-93 -98 0
-93 -99 0
-93 -100 0
-93 -101 0
-93 -102 0
-93 -103 0
-93 -104 0
-93 -105 0
-94 -95 0
-94 -96 0
-94 -97 0
-94 -98 0
-94 -99 0
-94 -100 0
-94 -101 0
-94 -102 0
-94 -103 0
-94 -104 0
-94 -105 0
-95 -96 0
-95 -97 0
-95 -98 0
-95 -99 0
-95 -100 0
-95 -101 0
-95 -102 0
-95 -103 0
-95 -104 0
-95 -105 0
-96 -97 0
-96 -98 0
-96 -99 0
-96 -100 0
-96 -101 0
-96 -102 0
-96 -103 0
-96 -104 0
-96 -105 0
-97 -98 0
-97 -99 0
-97 -100 0
-97 -101 0
-97 -102 0
-97 -103 0
-97 -104 0
-97 -105 0
-98 -99 0
-98 -100 0
-98 -101 0
-98 -102 0
-98 -103 0
-98 -104 0
-98 -105 0
-99 -100 0
-99 -101 0
-99 -102 0
-99 -103 0
-99 -104 0
-99 -105 0
-100 -101 0
-100 -102 0
-100 -103 0
-100 -104 0
-100 -105 0
-101 -102 0
-101 -103 0
-101 -104 0
-101 -105 0
-102 -103 0
-102 -104 0
-102 -105 0
-103 -104 0
-103 -105 0
-104 -105 0
106 107 108 109 110 111 112 113 114 115 116 117 118 119 120 0
-106 -107 0
-106 -108 0
-106 -109 0
-106 -110 0
-106 -111 0
-106 -112 0
-106 -113 0
-106 -114 0
-106 -115 0
-106 -116 0
-106 -117 0
-106 -118 0
-106 -119 0
-106 -120 0
-107 -108 0
-107 -109 0
-107 -110 0
-107 -111 0
-107 -112 0
-107 -113 0
-107 -114 0
-107 -115 0
-107 -116 0
-107 -117 0
-107 -118 0
-107 -119 0
-107 -120 0
-108 -109 0
-108 -110 0
-108 -111 0
-108 -112 0
-108 -113 0
-108 -114 0
-108 -115 0
-108 -116 0
-108 -117 0
-108 -118 0
-108 -119 0
-108 -120 0
-109 -110 0
-109 -111 0
-109 -112 0
-109 -113 0
-109 -114 0
-109 -115 0
-109 -116 0
-109 -117 0
-109 -118 0
-109 -119 0
-109 -120 0
-110 -111 0
-110 -112 0
-110 -113 0
-110 -114 0
-110 -115 0
-110 -116 0
-110 -117 0
-110 -118 0
-110 -119 0
-110 -120 0
-111 -112 0
-111 -113 0
-111 -114 0
-111 -115 0
-111 -116 0
-111 -117 0
-111 -118 0
-111 -119 0
-111 -120 0
-112 -113 0
-112 -114 0
-112 -115 0
-112 -116 0
-112 -117 0
-112 -118 0
-112 -119 0
-112 -120 0
-113 -114 0
-113 -115 0
-113 -116 0
-113 -117 0
-113 -118 0
-113 -119 0
-113 -120 0
-114 -115 0
-114 -116 0
-114 -117 0
-114 -118 0
-114 -119 0
-114 -120 0
-115 -116 0
-115 -117 0
-115 -118 0
-115 -119 0
-115 -120 0
-116 -117 0
-116 -118 0
-116 -119 0
-116 -120 0
-117 -118 0
-117 -119 0
-117 -120 0
-118 -119 0
-118 -120 0
-119 -120 0
121 122 123 124 125 126 127 128 129 130 131 132 133 134 135 0
-121 -122 0
-121 -123 0
-121 -124 0
-121 -125 0
-121 -126 0
-121 -127 0
-121 -128 0
-121 -129 0
-121 -130 0
-121 -131 0
-121 -132 0
-121 -133 0
-121 -134 0
-121 -135 0
-122 -123 0
-122 -124 0
-122 -125 0
-122 -126 0
-122 -127 0
-122 -128 0
-122 -129 0
-122 -130 0
-122 -131 0
-122 -132 0
-122 -133 0
-122 -134 0
-122 -135 0
-123 -124 0
-123 -125 0
-123 -126 0
-123 -127 0
-123 -128 0
-123 -129 0
-123 -130 0
-123 -131 0
-123 -132 0
-123 -133 0
-123 -134 0
-123 -135 0
-124 -125 0
-124 -126 0
-124 -127 0
-124 -128 0
-124 -129 0
-124 -130 0
-124 -131 0
-124 -132 0
-124 -133 0
-124 -134 0
-124 -135 0
-125 -126 0
-125 -127 0
-125 -128 0
-125 -129 0
-125 -130 0
-125 -131 0
-125 -132 0
-125 -133 0
-125 -134 0
-125 -135 0
-126 -127 0
-126 -128 0
-126 -129 0
-126 -130 0
-126 -131 0
-126 -132 0
-126 -133 0
-126 -134 0
-126 -135 0
-127 -128 0
-127 -129 0
-127 -130 0
-127 -131 0
-127 -132 0
-127 -133 0
-127 -134 0
-127 -135 0
-128 -129 0
-128 -130 0
-128 -131 0
-128 -132 0
-128 -133 0
-128 -134 0
-128 -135 0
-129 -130 0
-129 -131 0
-129 -132 0
-129 -133 0
-129 -134 0
-129 -135 0
-130 -131 0
-130 -132 0
-130 -133 0
-130 -134 0
-130 -135 0
-131 -132 0
-131 -133 0
-131 -134 0
-131 -135 0
-132 -133 0
-132 -134 0
-132 -135 0
-133 -134 0
-133 -135 0
-134 -135 0
136 137 138 139 140 141 142 143 144 145 146 147 148 149 150 0
-136 -137 0
-136 -138 0
-136 -139 0
-136 -140 0
-136 -141 0
-136 -142 0
-136 -143 0
-136 -144 0
-136 -145 0
-136 -146 0
-136 -147 0
-136 -148 0
-136 -149 0
-136 -150 0
-137 -138 0
-137 -139 0
-137 -140 0
-137 -141 0
-137 -142 0
-137 -143 0
-137 -144 0
-137 -145 0
-137 -146 0
-137 -147 0
-137 -148 0
-137 -149 0
-137 -150 0
-138 -139 0
-138 -140 0
-138 -141 0
-138 -142 0
-138 -143 0
-138 -144 0
-138 -145 0
-138 -146 0
-138 -147 0
-138 -148 0
-138 -149 0
-138 -150 0
-139 -140 0
-139 -141 0
-139 -142 0
-139 -143 0
-139 -144 0
-139 -145 0
-139 -146 0
-139 -147 0
-139 -148 0
-139 -149 0
-139 -150 0
-140 -141 0
-140 -142 0
-140 -143 0
-140 -144 0
-140 -145 0
-140 -146 0
-140 -147 0
-140 -148 0
-140 -149 0
-140 -150 0
-141 -142 0
-141 -143 0
-141 -144 0
-141 -145 0
-141 -146 0
-141 -147 0
-141 -148 0
-141 -149 0
-141 -150 0
-142 -143 0
-142 -144 0
-142 -145 0
-142 -146 0
-142 -147 0
-142 -148 0
-142 -149 0
-142 -150 0
-143 -144 0
-143 -145 0
-143 -146 0
-143 -147 0
-143 -148 0
-143 -149 0
-143 -150 0
-144 -145 0
-144 -146 0
-144 -147 0
-144 -148 0
-144 -149 0
-144 -150 0
-145 -146 0
-145 -147 0
-145 -148 0
-145 -149 0
-145 -150 0
-146 -147 0
-146 -148 0
-146 -149 0
-146 -150 0
-147 -148 0
-147 -149 0
-147 -150 0
-148 -149 0
-148 -150 0
-149 -150 0
151 152 153 154 155 156 157 158 159 160 161 162 163 164 165 0
-151 -152 0
-151 -153 0
-151 -154 0
-151 -155 0
-151 -156 0
-151 -157 0
-151 -158 0
-151 -159 0
-151 -160 0
-151 -161 0
-151 -162 0
-151 -163 0
-151 -164 0
-151 -165 0
-152 -153 0
-152 -154 0
-152 -155 0
-152 -156 0
-152 -157 0
-152 -158 0
-152 -159 0
-152 -160 0
-152 -161 0
-152 -162 0
-152 -163 0
-152 -164 0
-152 -165 0
-153 -154 0
-153 -155 0
-153 -156 0
-153 -157 0
-153 -158 0
-153 -159 0
-153 -160 0
-153 -161 0
-153 -162 0
-153 -163 0
-153 -164 0
-153 -165 0
-154 -155 0
-154 -156 0
-154 -157 0
-154 -158 0
-154 -159 0
-154 -160 0
-154 -161 0
-154 -162 0
-154 -163 0
-154 -164 0
-154 -165 0
-155 -156 0
-155 -157 0
-155 -158 0
-155 -159 0
-155 -160 0
-155 -161 0
-155 -162 0
-155 -163 0
-155 -164 0
-155 -165 0
-156 -157 0
-156 -158 0
-156 -159 0
-156 -160 0
-156 -161 0
-156 -162 0
-156 -163 0
-156 -164 0
-156 -165 0
-157 -158 0
-157 -159 0
-157 -160 0
-157 -161 0
-157 -162 0
-157 -163 0
-157 -164 0
-157 -165 0
-158 -159 0
-158 -160 0
-158 -161 0
-158 -162 0
-158 -163 0
-158 -164 0
-158 -165 0
-159 -160 0
-159 -161 0
-159 -162 0
-159 -163 0
-159 -164 0
-159 -165 0
-160 -161 0
-160 -162 0
-160 -163 0
-160 -164 0
-160 -165 0
-161 -162 0
-161 -163 0
-161 -164 0
-161 -165 0
-162 -163 0
-162 -164 0
-162 -165 0
-163 -164 0
-163 -165 0
-164 -165 0
166 167 168 169 170 171 172 173 174 175 176 177 178 179 180 0
-166 -167 0
-166 -168 0
-166 -169 0
-166 -170 0
-166 -171 0
-166 -172 0
-166 -173 0
-166 -174 0
-166 -175 0
-166 -176 0
-166 -177 0
-166 -178 0
-166 -179 0
-166 -180 0
-167 -168 0
-167 -169 0
-167 -170 0
-167 -171 0
-167 -172 0
-167 -173 0
-167 -174 0
-167 -175 0
-167 -176 0
-167 -177 0
-167 -178 0
-167 -179 0
-167 -180 0
-168 -169 0
-168 -170 0
-168 -171 0
-168 -172 0
-168 -173 0
-168 -174 0
-168 -175 0
-168 -176 0
-168 -177 0
-168 -178 0
-168 -179 0
-168 -180 0
-169 -170 0
-169 -171 0
-169 -172 0
-169 -173 0
-169 -174 0
-169 -175 0
-169 -176 0
-169 -177 0
-169 -178 0
-169 -179 0
-169 -180 0
-170 -171 0
-170 -172 0
-170 -173 0
-170 -174 0
-170 -175 0
-170 -176 0
-170 -177 0
-170 -178 0
-170 -179 0
-170 -180 0
-171 -172 0
-171 -173 0
-171 -174 0
-171 -175 0
-171 -176 0
-171 -177 0
-171 -178 0
-171 -179 0
-171 -180 0
-172 -173 0
-172 -174 0
-172 -175 0
-172 -176 0
-172 -177 0
-172 -178 0
-172 -179 0
-172 -180 0
-173 -174 0
-173 -175 0
-173 -176 0
-173 -177 0
-173 -178 0
-173 -179 0
-173 -180 0
-174 -175 0
-174 -176 0
-174 -177 0
-174 -178 0
-174 -179 0
-174 -180 0
-175 -176 0
-175 -177 0
-175 -178 0
-175 -179 0
-175 -180 0
-176 -177 0
-176 -178 0
-176 -179 0
-176 -180 0
-177 -178 0
-177 -179 0
-177 -180 0
-178 -179 0
-178 -180 0
-179 -180 0
181 182 183 184 185 186 187 188 189 190 191 192 193 194 195 0
-181 -182 0
-181 -183 0
-181 -184 0
-181 -185 0
-181 -186 0
-181 -187 0
-181 -188 0
-181 -189 0
-181 -190 0
-181 -191 0
-181 -192 0
-181 -193 0
-181 -194 0
-181 -195 0
-182 -183 0
-182 -184 0
-182 -185 0
-182 -186 0
-182 -187 0
-182 -188 0
-182 -189 0
-182 -190 0
-182 -191 0
-182 -192 0
-182 -193 0
-182 -194 0
-182 -195 0
-183 -184 0
-183 -185 0
-183 -186 0
-183 -187 0
-183 -188 0
-183 -189 0
-183 -190 0
-183 -191 0
-183 -192 0
-183 -193 0
-183 -194 0
-183 -195 0
-184 -185 0
-184 -186 0
-184 -187 0
-184 -188 0
-184 -189 0
-184 -190 0
-184 -191 0
-184 -192 0
-184 -193 0
-184 -194 0
-184 -195 0
-185 -186 0
-185 -187 0
-185 -188 0
-185 -189 0
-185 -190 0
-185 -191 0
-185 -192 0
-185 -193 0
-185 -194 0
-185 -195 0
-186 -187 0
-186 -188 0
-186 -189 0
-186 -190 0
-186 -191 0
-186 -192 0
-186 -193 0
-186 -194 0
-186 -195 0
-187 -188 0
-187 -189 0
-187 -190 0
-187 -191 0
-187 -192 0
-187 -193 0
-187 -194 0
-187 -195 0
-188 -189 0
-188 -190 0
-188 -191 0
-188 -192 0
-188 -193 0
-188 -194 0
-188 -195 0
-189 -190 0
-189 -191 0
-189 -192 0
-189 -193 0
-189 -194 0
-189 -195 0
-190 -191 0
-190 -192 0
-190 -193 0
-190 -194 0
-190 -195 0
-191 -192 0
-191 -193 0
-191 -194 0
-191 -195 0
-192 -193 0
-192 -194 0
-192 -195 0
-193 -194 0
-193 -195 0
-194 -195 0
196 197 198 199 200 201 202 203 204 205 206 207 208 209 210 0
-196 -197 0
-196 -198 0
-196 -199 0
-196 -200 0
-196 -201 0
-196 -202 0
-196 -203 0
-196 -204 0
-196 -205 0
-196 -206 0
-196 -207 0
-196 -208 0
-196 -209 0
-196 -210 0
-197 -198 0
-197 -199 0
-197 -200 0
-197 -201 0
-197 -202 0
-197 -203 0
-197 -204 0
-197 -205 0
-197 -206 0
-197 -207 0
-197 -208 0
-197 -209 0
-197 -210 0
-198 -199 0
-198 -200 0
-198 -201 0
-198 -202 0
-198 -203 0
-198 -204 0
-198 -205 0
-198 -206 0
-198 -207 0
-198 -208 0
-198 -209 0
-198 -210 0
-199 -200 0
-199 -201 0
-199 -202 0
-199 -203 0
-199 -204 0
-199 -205 0
-199 -206 0
-199 -207 0
-199 -208 0
-199 -209 0
-199 -210 0
-200 -201 0
-200 -202 0
-200 -203 0
-200 -204 0
-200 -205 0
-200 -206 0
-200 -207 0
-200 -208 0
-200 -209 0
-200 -210 0
-201 -202 0
-201 -203 0
-201 -204 0
-201 -205 0
-201 -206 0
-201 -207 0
-201 -208 0
-201 -209 0
-201 -210 0
-202 -203 0
-202 -204 0
-202 -205 0
-202 -206 0
-202 -207 0
-202 -208 0
-202 -209 0
-202 -210 0
-203 -204 0
-203 -205 0
-203 -206 0
-203 -207 0
-203 -208 0
-203 -209 0
-203 -210 0
-204 -205 0
-204 -206 0
-204 -207 0
-204 -208 0
-204 -209 0
-204 -210 0
-205 -206 0
-205 -207 0
-205 -208 0
-205 -209 0
-205 -210 0
-206 -207 0
-206 -208 0
-206 -209 0
-206 -210 0
-207 -208 0
-207 -209 0
-207 -210 0
-208 -209 0
-208 -210 0
-209 -210 0
211 212 213 214 215 216 217 218 219 220 221 222 223 224 225 0
-211 -212 0
-211 -213 0
-211 -214 0
-211 -215 0
-211 -216 0
-211 -217 0
-211 -218 0
-211 -219 0
-211 -220 0
-211 -221 0
-211 -222 0
-211 -223 0
-211 -224 0
-211 -225 0
-212 -213 0
-212 -214 0
-212 -215 0
-212 -216 0
-212 -217 0
-212 -218 0
-212 -219 0
-212 -220 0
-212 -221 0
-212 -222 0
-212 -223 0
-212 -224 0
-212 -225 0
-213 -214 0
-213 -215 0
-213 -216 0
-213 -217 0
-213 -218 0
-213 -219 0
-213 -220 0
-213 -221 0
-213 -222 0
-213 -223 0
-213 -224 0
-213 -225 0
-214 -215 0
-214 -216 0
-214 -217 0
-214 -218 0
-214 -219 0
-214 -220 0
-214 -221 0
-214 -222 0
-214 -223 0
-214 -224 0
-214 -225 0
-215 -216 0
-215 -217 0
-215 -218 0
-215 -219 0
-215 -220 0
-215 -221 0
-215 -222 0
-215 -223 0
-215 -224 0
-215 -225 0
-216 -217 0
-216 -218 0
-216 -219 0
-216 -220 0
-216 -221 0
-216 -222 0
-216 -223 0
-216 -224 0
-216 -225 0
-217 -218 0
-217 -219 0
-217 -220 0
-217 -221 0
-217 -222 0
-217 -223 0
-217 -224 0
-217 -225 0
-218 -219 0
-218 -220 0
-218 -221 0
-218 -222 0
-218 -223 0
-218 -224 0
-218 -225 0
-219 -220 0
-219 -221 0
-219 -222 0
-219 -223 0
-219 -224 0
-219 -225 0
-220 -221 0
-220 -222 0
-220 -223 0
-220 -224 0
-220 -225 0
-221 -222 0
-221 -223 0
-221 -224 0
-221 -225 0
-222 -223 0
-222 -224 0
-222 -225 0
-223 -224 0
-223 -225 0
-224 -225 0
226 227 228 229 230 231 232 233 234 235 236 237 238 239 240 0
-226 -227 0
-226 -228 0
-226 -229 0
-226 -230 0
-226 -231 0
-226 -232 0
-226 -233 0
-226 -234 0
-226 -235 0
-226 -236 0
-226 -237 0
-226 -238 0
-226 -239 0
-226 -240 0
-227 -228 0
-227 -229 0
-227 -230 0
-227 -231 0
-227 -232 0
-227 -233 0
-227 -234 0
-227 -235 0
-227 -236 0
-227 -237 0
-227 -238 0
-227 -239 0
-227 -240 0
-228 -229 0
-228 -230 0
-228 -231 0
-228 -232 0
-228 -233 0
-228 -234 0
-228 -235 0
-228 -236 0
-228 -237 0
-228 -238 0
-228 -239 0
-228 -240 0
-229 -230 0
-229 -231 0
-229 -232 0
-229 -233 0
-229 -234 0
-229 -235 0
-229 -236 0
-229 -237 0
-229 -238 0
-229 -239 0
-229 -240 0
-230 -231 0
-230 -232 0
-230 -233 0
-230 -234 0
-230 -235 0
-230 -236 0
-230 -237 0
-230 -238 0
-230 -239 0
-230 -240 0
-231 -232 0
-231 -233 0
-231 -234 0
-231 -235 0
-231 -236 0
-231 -237 0
-231 -238 0
-231 -239 0
-231 -240 0
-232 -233 0
-232 -234 0
-232 -235 0
-232 -236 0
-232 -237 0
-232 -238 0
-232 -239 0
-232 -240 0
-233 -234 0
-233 -235 0
-233 -236 0
-233 -237 0
-233 -238 0
-233 -239 0
-233 -240 0
-234 -235 0
-234 -236 0
-234 -237 0
-234 -238 0
-234 -239 0
-234 -240 0
-235 -236 0
-235 -237 0
-235 -238 0
-235 -239 0
-235 -240 0
-236 -237 0
-236 -238 0
-236 -239 0
-236 -240 0
-237 -238 0
-237 -239 0
-237 -240 0
-238 -239 0
-238 -240 0
-239 -240 0
241 242 243 244 245 246 247 248 249 250 251 252 253 254 255 0
-241 -242 0
-241 -243 0
-241 -244 0
-241 -245 0
-241 -246 0
-241 -247 0
-241 -248 0
-241 -249 0
-241 -250 0
-241 -251 0
-241 -252 0
-241 -253 0
-241 -254 0
-241 -255 0
-242 -243 0
-242 -244 0
-242 -245 0
-242 -246 0
-242 -247 0
-242 -248 0
-242 -249 0
-242 -250 0
-242 -251 0
-242 -252 0
-242 -253 0
-242 -254 0
-242 -255 0
-243 -244 0
-243 -245 0
-243 -246 0
-243 -247 0
-243 -248 0
-243 -249 0
-243 -250 0
-243 -251 0
-243 -252 0
-243 -253 0
-243 -254 0
-243 -255 0
-244 -245 0
-244 -246 0
-244 -247 0
-244 -248 0
-244 -249 0
-244 -250 0
-244 -251 0
-244 -252 0
-244 -253 0
-244 -254 0
-244 -255 0
-245 -246 0
-245 -247 0
-245 -248 0
-245 -249 0
-245 -250 0
-245 -251 0
-245 -252 0
-245 -253 0
-245 -254 0
-245 -255 0
-246 -247 0
-246 -248 0
-246 -249 0
-246 -250 0
-246 -251 0
-246 -252 0
-246 -253 0
-246 -254 0
-246 -255 0
-247 -248 0
-247 -249 0
-247 -250 0
-247 -251 0
-247 -252 0
-247 -253 0
-247 -254 0
-247 -255 0
-248 -249 0
-248 -250 0
-248 -251 0
-248 -252 0
-248 -253 0
-248 -254 0
-248 -255 0
-249 -250 0
-249 -251 0
-249 -252 0
-249 -253 0
-249 -254 0
-249 -255 0
-250 -251 0
-250 -252 0
-250 -253 0
-250 -254 0
-250 -255 0
-251 -252 0
-251 -253 0
-251 -254 0
-251 -255 0
-252 -253 0
-252 -254 0
-252 -255 0
-253 -254 0
-253 -255 0
-254 -255 0
256 257 258 259 260 261 262 263 264 265 266 267 268 269 270 0
-256 -257 0
-256 -258 0
-256 -259 0
-256 -260 0
-256 -261 0
-256 -262 0
-256 -263 0
-256 -264 0
-256 -265 0
-256 -266 0
-256 -267 0
-256 -268 0
-256 -269 0
-256 -270 0
-257 -258 0
-257 -259 0
-257 -260 0
-257 -261 0
-257 -262 0
-257 -263 0
-257 -264 0
-257 -265 0
-257 -266 0
-257 -267 0
-257 -268 0
-257 -269 0
-257 -270 0
-258 -259 0
-258 -260 0
-258 -261 0
-258 -262 0
-258 -263 0
-258 -264 0
-258 -265 0
-258 -266 0
-258 -267 0
-258 -268 0
-258 -269 0
-258 -270 0
-259 -260 0
-259 -261 0
-259 -262 0
-259 -263 0
-259 -264 0
-259 -265 0
-259 -266 0
-259 -267 0
-259 -268 0
-259 -269 0
-259 -270 0
-260 -261 0
-260 -262 0
-260 -263 0
-260 -264 0
-260 -265 0
-260 -266 0
-260 -267 0
-260 -268 0
-260 -269 0
-260 -270 0
-261 -262 0
-261 -263 0
-261 -264 0
-261 -265 0
-261 -266 0
-261 -267 0
-261 -268 0
-261 -269 0
-261 -270 0
-262 -263 0
-262 -264 0
-262 -265 0
-262 -266 0
-262 -267 0
-262 -268 0
-262 -269 0
-262 -270 0
-263 -264 0
-263 -265 0
-263 -266 0
-263 -267 0
-263 -268 0
-263 -269 0
-263 -270 0
-264 -265 0
-264 -266 0
-264 -267 0
-264 -268 0
-264 -269 0
-264 -270 0
-265 -266 0
-265 -267 0
-265 -268 0
-265 -269 0
-265 -270 0
-266 -267 0
-266 -268 0
-266 -269 0
-266 -270 0
-267 -268 0
-267 -269 0
-267 -270 0
-268 -269 0
-268 -270 0
-269 -270 0
271 272 273 274 275 276 277 278 279 280 281 282 283 284 285 0
-271 -272 0
-271 -273 0
-271 -274 0
-271 -275 0
-271 -276 0
-271 -277 0
-271 -278 0
-271 -279 0
-271 -280 0
-271 -281 0
-271 -282 0
-271 -283 0
-271 -284 0
-271 -285 0
-272 -273 0
-272 -274 0
-272 -275 0
-272 -276 0
-272 -277 0
-272 -278 0
-272 -279 0
-272 -280 0
-272 -281 0
-272 -282 0
-272 -283 0
-272 -284 0
-272 -285 0
-273 -274 0
-273 -275 0
-273 -276 0
-273 -277 0
-273 -278 0
-273 -279 0
-273 -280 0
-273 -281 0
-273 -282 0
-273 -283 0
-273 -284 0
-273 -285 0
-274 -275 0
-274 -276 0
-274 -277 0
-274 -278 0
-274 -279 0
-274 -280 0
-274 -281 0
-274 -282 0
-274 -283 0
-274 -284 0
-274 -285 0
-275 -276 0
-275 -277 0
-275 -278 0
-275 -279 0
-275 -280 0
-275 -281 0
-275 -282 0
-275 -283 0
-275 -284 0
-275 -285 0
-276 -277 0
-276 -278 0
-276 -279 0
-276 -280 0
-276 -281 0
-276 -282 0
-276 -283 0
-276 -284 0
-276 -285 0
-277 -278 0
-277 -279 0
-277 -280 0
-277 -281 0
-277 -282 0
-277 -283 0
-277 -284 0
-277 -285 0
-278 -279 0
-278 -280 0
-278 -281 0
-278 -282 0
-278 -283 0
-278 -284 0
-278 -285 0
-279 -280 0
-279 -281 0
-279 -282 0
-279 -283 0
-279 -284 0
-279 -285 0
-280 -281 0
-280 -282 0
-280 -283 0
-280 -284 0
-280 -285 0
-281 -282 0
-281 -283 0
-281 -284 0
-281 -285 0
-282 -283 0
-282 -284 0
-282 -285 0
-283 -284 0
-283 -285 0
-284 -285 0
286 287 288 289 290 291 292 293 294 295 296 297 298 299 300 0
-286 -287 0
-286 -288 0
-286 -289 0
-286 -290 0
-286 -291 0
-286 -292 0
-286 -293 0
-286 -294 0
-286 -295 0
-286 -296 0
-286 -297 0
-286 -298 0
-286 -299 0
-286 -300 0
-287 -288 0
-287 -289 0
-287 -290 0
-287 -291 0
-287 -292 0
-287 -293 0
-287 -294 0
-287 -295 0
-287 -296 0
-287 -297 0
-287 -298 0
-287 -299 0
-287 -300 0
-288 -289 0
-288 -290 0
-288 -291 0
-288 -292 0
-288 -293 0
-288 -294 0
-288 -295 0
-288 -296 0
-288 -297 0
-288 -298 0
-288 -299 0
-288 -300 0
-289 -290 0
-289 -291 0
-289 -292 0
-289 -293 0
-289 -294 0
-289 -295 0
-289 -296 0
-289 -297 0
-289 -298 0
-289 -299 0
-289 -300 0
-290 -291 0
-290 -292 0
-290 -293 0
-290 -294 0
-290 -295 0
-290 -296 0
-290 -297 0
-290 -298 0
-290 -299 0
-290 -300 0
-291 -292 0
-291 -293 0
-291 -294 0
-291 -295 0
-291 -296 0
-291 -297 0
-291 -298 0
-291 -299 0
-291 -300 0
-292 -293 0
-292 -294 0
-292 -295 0
-292 -296 0
-292 -297 0
-292 -298 0
-292 -299 0
-292 -300 0
-293 -294 0
-293 -295 0
-293 -296 0
-293 -297 0
-293 -298 0
-293 -299 0
-293 -300 0
-294 -295 0
-294 -296 0
-294 -297 0
-294 -298 0
-294 -299 0
-294 -300 0
-295 -296 0
-295 -297 0
-295 -298 0
-295 -299 0
-295 -300 0
-296 -297 0
-296 -298 0
-296 -299 0
-296 -300 0
-297 -298 0
-297 -299 0
-297 -300 0
-298 -299 0
-298 -300 0
-299 -300 0
301 302 303 304 305 306 307 308 309 310 311 312 313 314 315 0
-301 -302 0
-301 -303 0
-301 -304 0
-301 -305 0
-301 -306 0
-301 -307 0
-301 -308 0
-301 -309 0
-301 -310 0
-301 -311 0
-301 -312 0
-301 -313 0
-301 -314 0
-301 -315 0
-302 -303 0
-302 -304 0
-302 -305 0
-302 -306 0
-302 -307 0
-302 -308 0
-302 -309 0
-302 -310 0
-302 -311 0
-302 -312 0
-302 -313 0
-302 -314 0
-302 -315 0
-303 -304 0
-303 -305 0
-303 -306 0
-303 -307 0
-303 -308 0
-303 -309 0
-303 -310 0
-303 -311 0
-303 -312 0
-303 -313 0
-303 -314 0
-303 -315 0
-304 -305 0
-304 -306 0
-304 -307 0
-304 -308 0
-304 -309 0
-304 -310 0
-304 -311 0
-304 -312 0
-304 -313 0
-304 -314 0
-304 -315 0
-305 -306 0
-305 -307 0
-305 -308 0
-305 -309 0
-305 -310 0
-305 -311 0
-305 -312 0
-305 -313 0
-305 -314 0
-305 -315 0
-306 -307 0
-306 -308 0
-306 -309 0
-306 -310 0
-306 -311 0
-306 -312 0
-306 -313 0
-306 -314 0
-306 -315 0
-307 -308 0
-307 -309 0
-307 -310 0
-307 -311 0
-307 -312 0
-307 -313 0
-307 -314 0
-307 -315 0
-308 -309 0
-308 -310 0
-308 -311 0
-308 -312 0
-308 -313 0
-308 -314 0
-308 -315 0
-309 -310 0
-309 -311 0
-309 -312 0
-309 -313 0
-309 -314 0
-309 -315 0
-310 -311 0
-310 -312 0
-310 -313 0
-310 -314 0
-310 -315 0
-311 -312 0
-311 -313 0
-311 -314 0
-311 -315 0
-312 -313 0
-312 -314 0
-312 -315 0
-313 -314 0
-313 -315 0
-314 -315 0
316 317 318 319 320 321 322 323 324 325 326 327 328 329 330 0
-316 -317 0
-316 -318 0
-316 -319 0
-316 -320 0
-316 -321 0
-316 -322 0
-316 -323 0
-316 -324 0
-316 -325 0
-316 -326 0
-316 -327 0
-316 -328 0
-316 -329 0
-316 -330 0
-317 -318 0
-317 -319 0
-317 -320 0
-317 -321 0
-317 -322 0
-317 -323 0
-317 -324 0
-317 -325 0
-317 -326 0
-317 -327 0
-317 -328 0
-317 -329 0
-317 -330 0
-318 -319 0
-318 -320 0
-318 -321 0
-318 -322 0
-318 -323 0
-318 -324 0
-318 -325 0
-318 -326 0
-318 -327 0
-318 -328 0
-318 -329 0
-318 -330 0
-319 -320 0
-319 -321 0
-319 -322 0
-319 -323 0
-319 -324 0
-319 -325 0
-319 -326 0
-319 -327 0
-319 -328 0
-319 -329 0
-319 -330 0
-320 -321 0
-320 -322 0
-320 -323 0
-320 -324 0
-320 -325 0
-320 -326 0
-320 -327 0
-320 -328 0
-320 -329 0
-320 -330 0
-321 -322 0
-321 -323 0
-321 -324 0
-321 -325 0
-321 -326 0
-321 -327 0
-321 -328 0
-321 -329 0
-321 -330 0
-322 -323 0
-322 -324 0
-322 -325 0
-322 -326 0
-322 -327 0
-322 -328 0
-322 -329 0
-322 -330 0
-323 -324 0
-323 -325 0
-323 -326 0
-323 -327 0
-323 -328 0
-323 -329 0
-323 -330 0
-324 -325 0
-324 -326 0
-324 -327 0
-324 -328 0
-324 -329 0
-324 -330 0
-325 -326 0
-325 -327 0
-325 -328 0
-325 -329 0
-325 -330 0
-326 -327 0
-326 -328 0
-326 -329 0
-326 -330 0
-327 -328 0
-327 -329 0
-327 -330 0
-328 -329 0
-328 -330 0
-329 -330 0
331 332 333 334 335 336 337 338 339 340 341 342 343 344 345 0
-331 -332 0
-331 -333 0
-331 -334 0
-331 -335 0
-331 -336 0
-331 -337 0
-331 -338 0
-331 -339 0
-331 -340 0
-331 -341 0
-331 -342 0
-331 -343 0
-331 -344 0
-331 -345 0
-332 -333 0
-332 -334 0
-332 -335 0
-332 -336 0
-332 -337 0
-332 -338 0
-332 -339 0
-332 -340 0
-332 -341 0
-332 -342 0
-332 -343 0
-332 -344 0
-332 -345 0
-333 -334 0
-333 -335 0
-333 -336 0
-333 -337 0
-333 -338 0
-333 -339 0
-333 -340 0
-333 -341 0
-333 -342 0
-333 -343 0
-333 -344 0
-333 -345 0
-334 -335 0
-334 -336 0
-334 -337 0
-334 -338 0
-334 -339 0
-334 -340 0
-334 -341 0
-334 -342 0
-334 -343 0
-334 -344 0
-334 -345 0
-335 -336 0
-335 -337 0
-335 -338 0
-335 -339 0
-335 -340 0
-335 -341 0
-335 -342 0
-335 -343 0
-335 -344 0
-335 -345 0
-336 -337 0
-336 -338 0
-336 -339 0
-336 -340 0
-336 -341 0
-336 -342 0
-336 -343 0
-336 -344 0
-336 -345 0
-337 -338 0
-337 -339 0
-337 -340 0
-337 -341 0
-337 -342 0
-337 -343 0
-337 -344 0
-337 -345 0
-338 -339 0
-338 -340 0
-338 -341 0
-338 -342 0
-338 -343 0
-338 -344 0
-338 -345 0
-339 -340 0
-339 -341 0
-339 -342 0
-339 -343 0
-339 -344 0
-339 -345 0
-340 -341 0
-340 -342 0
-340 -343 0
-340 -344 0
-340 -345 0
-341 -342 0
-341 -343 0
-341 -344 0
-341 -345 0
-342 -343 0
-342 -344 0
-342 -345 0
-343 -344 0
-343 -345 0
-344 -345 0
346 347 348 349 350 351 352 353 354 355 356 357 358 359 360 0
-346 -347 0
-346 -348 0
-346 -349 0
-346 -350 0
-346 -351 0
-346 -352 0
-346 -353 0
-346 -354 0
-346 -355 0
-346 -356 0
-346 -357 0
-346 -358 0
-346 -359 0
-346 -360 0
-347 -348 0
-347 -349 0
-347 -350 0
-347 -351 0
-347 -352 0
-347 -353 0
-347 -354 0
-347 -355 0
-347 -356 0
-347 -357 0
-347 -358 0
-347 -359 0
-347 -360 0
-348 -349 0
-348 -350 0
-348 -351 0
-348 -352 0
-348 -353 0
-348 -354 0
-348 -355 0
-348 -356 0
-348 -357 0
-348 -358 0
-348 -359 0
-348 -360 0
-349 -350 0
-349 -351 0
-349 -352 0
-349 -353 0
-349 -354 0
-349 -355 0
-349 -356 0
-349 -357 0
-349 -358 0
-349 -359 0
-349 -360 0
-350 -351 0
-350 -352 0
-350 -353 0
-350 -354 0
-350 -355 0
-350 -356 0
-350 -357 0
-350 -358 0
-350 -359 0
-350 -360 0
-351 -352 0
-351 -353 0
-351 -354 0
-351 -355 0
-351 -356 0
-351 -357 0
-351 -358 0
-351 -359 0
-351 -360 0
-352 -353 0
-352 -354 0
-352 -355 0
-352 -356 0
-352 -357 0
-352 -358 0
-352 -359 0
-352 -360 0
-353 -354 0
-353 -355 0
-353 -356 0
-353 -357 0
-353 -358 0
-353 -359 0
-353 -360 0
-354 -355 0
-354 -356 0
-354 -357 0
-354 -358 0
-354 -359 0
-354 -360 0
-355 -356 0
-355 -357 0
-355 -358 0
-355 -359 0
-355 -360 0
-356 -357 0
-356 -358 0
-356 -359 0
-356 -360 0
-357 -358 0
-357 -359 0
-357 -360 0
-358 -359 0
-358 -360 0
-359 -360 0
361 362 363 364 365 366 367 368 369 370 371 372 373 374 375 0
-361 -362 0
-361 -363 0
-361 -364 0
-361 -365 0
-361 -366 0
-361 -367 0
-361 -368 0
-361 -369 0
-361 -370 0
-361 -371 0
-361 -372 0
-361 -373 0
-361 -374 0
-361 -375 0
-362 -363 0
-362 -364 0
-362 -365 0
-362 -366 0
-362 -367 0
-362 -368 0
-362 -369 0
-362 -370 0
-362 -371 0
-362 -372 0
-362 -373 0
-362 -374 0
-362 -375 0
-363 -364 0
-363 -365 0
-363 -366 0
-363 -367 0
-363 -368 0
-363 -369 0
-363 -370 0
-363 -371 0
-363 -372 0
-363 -373 0
-363 -374 0
-363 -375 0
-364 -365 0
-364 -366 0
-364 -367 0
-364 -368 0
-364 -369 0
-364 -370 0
-364 -371 0
-364 -372 0
-364 -373 0
-364 -374 0
-364 -375 0
-365 -366 0
-365 -367 0
-365 -368 0
-365 -369 0
-365 -370 0
-365 -371 0
-365 -372 0
-365 -373 0
-365 -374 0
-365 -375 0
-366 -367 0
-366 -368 0
-366 -369 0
-366 -370 0
-366 -371 0
-366 -372 0
-366 -373 0
-366 -374 0
-366 -375 0
-367 -368 0
-367 -369 0
-367 -370 0
-367 -371 0
-367 -372 0
-367 -373 0
-367 -374 0
-367 -375 0
-368 -369 0
-368 -370 0
-368 -371 0
-368 -372 0
-368 -373 0
-368 -374 0
-368 -375 0
-369 -370 0
-369 -371 0
-369 -372 0
-369 -373 0
-369 -374 0
-369 -375 0
-370 -371 0
-370 -372 0
-370 -373 0
-370 -374 0
-370 -375 0
-371 -372 0
-371 -373 0
-371 -374 0
-371 -375 0
-372 -373 0
-372 -374 0
-372 -375 0
-373 -374 0
-373 -375 0
-374 -375 0
376 377 378 379 380 381 382 383 384 385 386 387 388 389 390 0
-376 -377 0
-376 -378 0
-376 -379 0
-376 -380 0
-376 -381 0
-376 -382 0
-376 -383 0
-376 -384 0
-376 -385 0
-376 -386 0
-376 -387 0
-376 -388 0
-376 -389 0
-376 -390 0
-377 -378 0
-377 -379 0
-377 -380 0
-377 -381 0
-377 -382 0
-377 -383 0
-377 -384 0
-377 -385 0
-377 -386 0
-377 -387 0
-377 -388 0
-377 -389 0
-377 -390 0
-378 -379 0
-378 -380 0
-378 -381 0
-378 -382 0
-378 -383 0
-378 -384 0
-378 -385 0
-378 -386 0
-378 -387 0
-378 -388 0
-378 -389 0
-378 -390 0
-379 -380 0
-379 -381 0
-379 -382 0
-379 -383 0
-379 -384 0
-379 -385 0
-379 -386 0
-379 -387 0
-379 -388 0
-379 -389 0
-379 -390 0
-380 -381 0
-380 -382 0
-380 -383 0
-380 -384 0
-380 -385 0
-380 -386 0
-380 -387 0
-380 -388 0
-380 -389 0
-380 -390 0
-381 -382 0
-381 -383 0
-381 -384 0
-381 -385 0
-381 -386 0
-381 -387 0
-381 -388 0
-381 -389 0
-381 -390 0
-382 -383 0
-382 -384 0
-382 -385 0
-382 -386 0
-382 -387 0
-382 -388 0
-382 -389 0
-382 -390 0
-383 -384 0
-383 -385 0
-383 -386 0
-383 -387 0
-383 -388 0
-383 -389 0
-383 -390 0
-384 -385 0
-384 -386 0
-384 -387 0
-384 -388 0
-384 -389 0
-384 -390 0
-385 -386 0
-385 -387 0
-385 -388 0
-385 -389 0
-385 -390 0
-386 -387 0
-386 -388 0
-386 -389 0
-386 -390 0
-387 -388 0
-387 -389 0
-387 -390 0
-388 -389 0
-388 -390 0
-389 -390 0
391 392 393 394 395 396 397 398 399 400 401 402 403 404 405 0
-391 -392 0
-391 -393 0
-391 -394 0
-391 -395 0
-391 -396 0
-391 -397 0
-391 -398 0
-391 -399 0
-391 -400 0
-391 -401 0
-391 -402 0
-391 -403 0
-391 -404 0
-391 -405 0
-392 -393 0
-392 -394 0
-392 -395 0
-392 -396 0
-392 -397 0
-392 -398 0
-392 -399 0
-392 -400 0
-392 -401 0
-392 -402 0
-392 -403 0
-392 -404 0
-392 -405 0
-393 -394 0
-393 -395 0
-393 -396 0
-393 -397 0
-393 -398 0
-393 -399 0
-393 -400 0
-393 -401 0
-393 -402 0
-393 -403 0
-393 -404 0
-393 -405 0
-394 -395 0
-394 -396 0
-394 -397 0
-394 -398 0
-394 -399 0
-394 -400 0
-394 -401 0
-394 -402 0
-394 -403 0
-394 -404 0
-394 -405 0
-395 -396 0
-395 -397 0
-395 -398 0
-395 -399 0
-395 -400 0
-395 -401 0
-395 -402 0
-395 -403 0
-395 -404 0
-395 -405 0
-396 -397 0
-396 -398 0
-396 -399 0
-396 -400 0
-396 -401 0
-396 -402 0
-396 -403 0
-396 -404 0
-396 -405 0
-397 -398 0
-397 -399 0
-397 -400 0
-397 -401 0
-397 -402 0
-397 -403 0
-397 -404 0
-397 -405 0
-398 -399 0
-398 -400 0
-398 -401 0
-398 -402 0
-398 -403 0
-398 -404 0
-398 -405 0
-399 -400 0
-399 -401 0
-399 -402 0
-399 -403 0
-399 -404 0
-399 -405 0
-400 -401 0
-400 -402 0
-400 -403 0
-400 -404 0
-400 -405 0
-401 -402 0
-401 -403 0
-401 -404 0
-401 -405 0
-402 -403 0
-402 -404 0
-402 -405 0
-403 -404 0
-403 -405 0
-404 -405 0
406 407 408 409 410 411 412 413 414 415 416 417 418 419 420 0
-406 -407 0
-406 -408 0
-406 -409 0
-406 -410 0
-406 -411 0
-406 -412 0
-406 -413 0
-406 -414 0
-406 -415 0
-406 -416 0
-406 -417 0
-406 -418 0
-406 -419 0
-406 -420 0
-407 -408 0
-407 -409 0
-407 -410 0
-407 -411 0
-407 -412 0
-407 -413 0
-407 -414 0
-407 -415 0
-407 -416 0
-407 -417 0
-407 -418 0
-407 -419 0
-407 -420 0
-408 -409 0
-408 -410 0
-408 -411 0
-408 -412 0
-408 -413 0
-408 -414 0
-408 -415 0
-408 -416 0
-408 -417 0
-408 -418 0
-408 -419 0
-408 -420 0
-409 -410 0
-409 -411 0
-409 -412 0
-409 -413 0
-409 -414 0
-409 -415 0
-409 -416 0
-409 -417 0
-409 -418 0
-409 -419 0
-409 -420 0
-410 -411 0
-410 -412 0
-410 -413 0
-410 -414 0
-410 -415 0
-410 -416 0
-410 -417 0
-410 -418 0
-410 -419 0
-410 -420 0
-411 -412 0
-411 -413 0
-411 -414 0
-411 -415 0
-411 -416 0
-411 -417 0
-411 -418 0
-411 -419 0
-411 -420 0
-412 -413 0
-412 -414 0
-412 -415 0
-412 -416 0
-412 -417 0
-412 -418 0
-412 -419 0
-412 -420 0
-413 -414 0
-413 -415 0
-413 -416 0
-413 -417 0
-413 -418 0
-413 -419 0
-413 -420 0
-414 -415 0
-414 -416 0
-414 -417 0
-414 -418 0
-414 -419 0
-414 -420 0
-415 -416 0
-415 -417 0
-415 -418 0
-415 -419 0
-415 -420 0
-416 -417 0
-416 -418 0
-416 -419 0
-416 -420 0
-417 -418 0
-417 -419 0
-417 -420 0
-418 -419 0
-418 -420 0
-419 -420 0
421 422 423 424 425 426 427 428 429 430 431 432 433 434 435 0
-421 -422 0
-421 -423 0
-421 -424 0
-421 -425 0
-421 -426 0
-421 -427 0
-421 -428 0
-421 -429 0
-421 -430 0
-421 -431 0
-421 -432 0
-421 -433 0
-421 -434 0
-421 -435 0
-422 -423 0
-422 -424 0
-422 -425 0
-422 -426 0
-422 -427 0
-422 -428 0
-422 -429 0
-422 -430 0
-422 -431 0
-422 -432 0
-422 -433 0
-422 -434 0
-422 -435 0
-423 -424 0
-423 -425 0
-423 -426 0
-423 -427 0
-423 -428 0
-423 -429 0
-423 -430 0
-423 -431 0
-423 -432 0
-423 -433 0
-423 -434 0
-423 -435 0
-424 -425 0
-424 -426 0
-424 -427 0
-424 -428 0
-424 -429 0
-424 -430 0
-424 -431 0
-424 -432 0
-424 -433 0
-424 -434 0
-424 -435 0
-425 -426 0
-425 -427 0
-425 -428 0
-425 -429 0
-425 -430 0
-425 -431 0
-425 -432 0
-425 -433 0
-425 -434 0
-425 -435 0
-426 -427 0
-426 -428 0
-426 -429 0
-426 -430 0
-426 -431 0
-426 -432 0
-426 -433 0
-426 -434 0
-426 -435 0
-427 -428 0
-427 -429 0
-427 -430 0
-427 -431 0
-427 -432 0
-427 -433 0
-427 -434 0
-427 -435 0
-428 -429 0
-428 -430 0
-428 -431 0
-428 -432 0
-428 -433 0
-428 -434 0
-428 -435 0
-429 -430 0
-429 -431 0
-429 -432 0
-429 -433 0
-429 -434 0
-429 -435 0
-430 -431 0
-430 -432 0
-430 -433 0
-430 -434 0
-430 -435 0
-431 -432 0
-431 -433 0
-431 -434 0
-431 -435 0
-432 -433 0
-432 -434 0
-432 -435 0
-433 -434 0
-433 -435 0
-434 -435 0
436 437 438 439 440 441 442 443 444 445 446 447 448 449 450 0
-436 -437 0
-436 -438 0
-436 -439 0
-436 -440 0
-436 -441 0
-436 -442 0
-436 -443 0
-436 -444 0
-436 -445 0
-436 -446 0
-436 -447 0
-436 -448 0
-436 -449 0
-436 -450 0
-437 -438 0
-437 -439 0
-437 -440 0
-437 -441 0
-437 -442 0
-437 -443 0
-437 -444 0
-437 -445 0
-437 -446 0
-437 -447 0
-437 -448 0
-437 -449 0
-437 -450 0
-438 -439 0
-438 -440 0
-438 -441 0
-438 -442 0
-438 -443 0
-438 -444 0
-438 -445 0
-438 -446 0
-438 -447 0
-438 -448 0
-438 -449 0
-438 -450 0
-439 -440 0
-439 -441 0
-439 -442 0
-439 -443 0
-439 -444 0
-439 -445 0
-439 -446 0
-439 -447 0
-439 -448 0
-439 -449 0
-439 -450 0
-440 -441 0
-440 -442 0
-440 -443 0
-440 -444 0
-440 -445 0
-440 -446 0
-440 -447 0
-440 -448 0
-440 -449 0
-440 -450 0
-441 -442 0
-441 -443 0
-441 -444 0
-441 -445 0
-441 -446 0
-441 -447 0
-441 -448 0
-441 -449 0
-441 -450 0
-442 -443 0
-442 -444 0
-442 -445 0
-442 -446 0
-442 -447 0
-442 -448 0
-442 -449 0
-442 -450 0
-443 -444 0
-443 -445 0
-443 -446 0
-443 -447 0
-443 -448 0
-443 -449 0
-443 -450 0
-444 -445 0
-444 -446 0
-444 -447 0
-444 -448 0
-444 -449 0
-444 -450 0
-445 -446 0
-445 -447 0
-445 -448 0
-445 -449 0
-445 -450 0
-446 -447 0
-446 -448 0
-446 -449 0
-446 -450 0
-447 -448 0
-447 -449 0
-447 -450 0
-448 -449 0
-448 -450 0
-449 -450 0
451 452 453 454 455 456 457 458 459 460 461 462 463 464 465 0
-451 -452 0
-451 -453 0
-451 -454 0
-451 -455 0
-451 -456 0
-451 -457 0
-451 -458 0
-451 -459 0
-451 -460 0
-451 -461 0
-451 -462 0
-451 -463 0
-451 -464 0
-451 -465 0
-452 -453 0
-452 -454 0
-452 -455 0
-452 -456 0
-452 -457 0
-452 -458 0
-452 -459 0
-452 -460 0
-452 -461 0
-452 -462 0
-452 -463 0
-452 -464 0
-452 -465 0
-453 -454 0
-453 -455 0
-453 -456 0
-453 -457 0
-453 -458 0
-453 -459 0
-453 -460 0
-453 -461 0
-453 -462 0
-453 -463 0
-453 -464 0
-453 -465 0
-454 -455 0
-454 -456 0
-454 -457 0
-454 -458 0
-454 -459 0
-454 -460 0
-454 -461 0
-454 -462 0
-454 -463 0
-454 -464 0
-454 -465 0
-455 -456 0
-455 -457 0
-455 -458 0
-455 -459 0
-455 -460 0
-455 -461 0
-455 -462 0
-455 -463 0
-455 -464 0
-455 -465 0
-456 -457 0
-456 -458 0
-456 -459 0
-456 -460 0
-456 -461 0
-456 -462 0
-456 -463 0
-456 -464 0
-456 -465 0
-457 -458 0
-457 -459 0
-457 -460 0
-457 -461 0
-457 -462 0
-457 -463 0
-457 -464 0
-457 -465 0
-458 -459 0
-458 -460 0
-458 -461 0
-458 -462 0
-458 -463 0
-458 -464 0
-458 -465 0
-459 -460 0
-459 -461 0
-459 -462 0
-459 -463 0
-459 -464 0
-459 -465 0
-460 -461 0
-460 -462 0
-460 -463 0
-460 -464 0
-460 -465 0
-461 -462 0
-461 -463 0
-461 -464 0
-461 -465 0
-462 -463 0
-462 -464 0
-462 -465 0
-463 -464 0
-463 -465 0
-464 -465 0
466 467 468 469 470 471 472 473 474 475 476 477 478 479 480 0
-466 -467 0
-466 -468 0
-466 -469 0
-466 -470 0
-466 -471 0
-466 -472 0
-466 -473 0
-466 -474 0
-466 -475 0
-466 -476 0
-466 -477 0
-466 -478 0
-466 -479 0
-466 -480 0
-467 -468 0
-467 -469 0
-467 -470 0
-467 -471 0
-467 -472 0
-467 -473 0
-467 -474 0
-467 -475 0
-467 -476 0
-467 -477 0
-467 -478 0
-467 -479 0
-467 -480 0
-468 -469 0
-468 -470 0
-468 -471 0
-468 -472 0
-468 -473 0
-468 -474 0
-468 -475 0
-468 -476 0
-468 -477 0
-468 -478 0
-468 -479 0
-468 -480 0
-469 -470 0
-469 -471 0
-469 -472 0
-469 -473 0
-469 -474 0
-469 -475 0
-469 -476 0
-469 -477 0
-469 -478 0
-469 -479 0
-469 -480 0
-470 -471 0
-470 -472 0
-470 -473 0
-470 -474 0
-470 -475 0
-470 -476 0
-470 -477 0
-470 -478 0
-470 -479 0
-470 -480 0
-471 -472 0
-471 -473 0
-471 -474 0
-471 -475 0
-471 -476 0
-471 -477 0
-471 -478 0
-471 -479 0
-471 -480 0
-472 -473 0
-472 -474 0
-472 -475 0
-472 -476 0
-472 -477 0
-472 -478 0
-472 -479 0
-472 -480 0
-473 -474 0
-473 -475 0
-473 -476 0
-473 -477 0
-473 -478 0
-473 -479 0
-473 -480 0
-474 -475 0
-474 -476 0
-474 -477 0
-474 -478 0
-474 -479 0
-474 -480 0
-475 -476 0
-475 -477 0
-475 -478 0
-475 -479 0
-475 -480 0
-476 -477 0
-476 -478 0
-476 -479 0
-476 -480 0
-477 -478 0
-477 -479 0
-477 -480 0
-478 -479 0
-478 -480 0
-479 -480 0
481 482 483 484 485 486 487 488 489 490 491 492 493 494 495 0
-481 -482 0
-481 -483 0
-481 -484 0
-481 -485 0
-481 -486 0
-481 -487 0
-481 -488 0
-481 -489 0
-481 -490 0
-481 -491 0
-481 -492 0
-481 -493 0
-481 -494 0
-481 -495 0
-482 -483 0
-482 -484 0
-482 -485 0
-482 -486 0
-482 -487 0
-482 -488 0
-482 -489 0
-482 -490 0
-482 -491 0
-482 -492 0
-482 -493 0
-482 -494 0
-482 -495 0
-483 -484 0
-483 -485 0
-483 -486 0
-483 -487 0
-483 -488 0
-483 -489 0
-483 -490 0
-483 -491 0
-483 -492 0
-483 -493 0
-483 -494 0
-483 -495 0
-484 -485 0
-484 -486 0
-484 -487 0
-484 -488 0
-484 -489 0
-484 -490 0
-484 -491 0
-484 -492 0
-484 -493 0
-484 -494 0
-484 -495 0
-485 -486 0
-485 -487 0
-485 -488 0
-485 -489 0
-485 -490 0
-485 -491 0
-485 -492 0
-485 -493 0
-485 -494 0
-485 -495 0
-486 -487 0
-486 -488 0
-486 -489 0
-486 -490 0
-486 -491 0
-486 -492 0
-486 -493 0
-486 -494 0
-486 -495 0
-487 -488 0
-487 -489 0
-487 -490 0
-487 -491 0
-487 -492 0
-487 -493 0
-487 -494 0
-487 -495 0
-488 -489 0
-488 -490 0
-488 -491 0
-488 -492 0
-488 -493 0
-488 -494 0
-488 -495 0
-489 -490 0
-489 -491 0
-489 -492 0
-489 -493 0
-489 -494 0
-489 -495 0
-490 -491 0
-490 -492 0
-490 -493 0
-490 -494 0
-490 -495 0
-491 -492 0
-491 -493 0
-491 -494 0
-491 -495 0
-492 -493 0
-492 -494 0
-492 -495 0
-493 -494 0
-493 -495 0
-494 -495 0
496 497 498 499 500 501 502 503 504 505 506 507 508 509 510 0
-496 -497 0
-496 -498 0
-496 -499 0
-496 -500 0
-496 -501 0
-496 -502 0
-496 -503 0
-496 -504 0
-496 -505 0
-496 -506 0
-496 -507 0
-496 -508 0
-496 -509 0
-496 -510 0
-497 -498 0
-497 -499 0
-497 -500 0
-497 -501 0
-497 -502 0
-497 -503 0
-497 -504 0
-497 -505 0
-497 -506 0
-497 -507 0
-497 -508 0
-497 -509 0
-497 -510 0
-498 -499 0
-498 -500 0
-498 -501 0
-498 -502 0
-498 -503 0
-498 -504 0
-498 -505 0
-498 -506 0
-498 -507 0
-498 -508 0
-498 -509 0
-498 -510 0
-499 -500 0
-499 -501 0
-499 -502 0
-499 -503 0
-499 -504 0
-499 -505 0
-499 -506 0
-499 -507 0
-499 -508 0
-499 -509 0
-499 -510 0
-500 -501 0
-500 -502 0
-500 -503 0
-500 -504 0
-500 -505 0
-500 -506 0
-500 -507 0
-500 -508 0
-500 -509 0
-500 -510 0
-501 -502 0
-501 -503 0
-501 -504 0
-501 -505 0
-501 -506 0
-501 -507 0
-501 -508 0
-501 -509 0
-501 -510 0
-502 -503 0
-502 -504 0
-502 -505 0
-502 -506 0
-502 -507 0
-502 -508 0
-502 -509 0
-502 -510 0
-503 -504 0
-503 -505 0
-503 -506 0
-503 -507 0
-503 -508 0
-503 -509 0
-503 -510 0
-504 -505 0
-504 -506 0
-504 -507 0
-504 -508 0
-504 -509 0
-504 -510 0
-505 -506 0
-505 -507 0
-505 -508 0
-505 -509 0
-505 -510 0
-506 -507 0
-506 -508 0
-506 -509 0
-506 -510 0
-507 -508 0
-507 -509 0
-507 -510 0
-508 -509 0
-508 -510 0
-509 -510 0
511 512 513 514 515 516 517 518 519 520 521 522 523 524 525 0
-511 -512 0
-511 -513 0
-511 -514 0
-511 -515 0
-511 -516 0
-511 -517 0
-511 -518 0
-511 -519 0
-511 -520 0
-511 -521 0
-511 -522 0
-511 -523 0
-511 -524 0
-511 -525 0
-512 -513 0
-512 -514 0
-512 -515 0
-512 -516 0
-512 -517 0
-512 -518 0
-512 -519 0
-512 -520 0
-512 -521 0
-512 -522 0
-512 -523 0
-512 -524 0
-512 -525 0
-513 -514 0
-513 -515 0
-513 -516 0
-513 -517 0
-513 -518 0
-513 -519 0
-513 -520 0
-513 -521 0
-513 -522 0
-513 -523 0
-513 -524 0
-513 -525 0
-514 -515 0
-514 -516 0
-514 -517 0
-514 -518 0
-514 -519 0
-514 -520 0
-514 -521 0
-514 -522 0
-514 -523 0
-514 -524 0
-514 -525 0
-515 -516 0
-515 -517 0
-515 -518 0
-515 -519 0
-515 -520 0
-515 -521 0
-515 -522 0
-515 -523 0
-515 -524 0
-515 -525 0
-516 -517 0
-516 -518 0
-516 -519 0
-516 -520 0
-516 -521 0
-516 -522 0
-516 -523 0
-516 -524 0
-516 -525 0
-517 -518 0
-517 -519 0
-517 -520 0
-517 -521 0
-517 -522 0
-517 -523 0
-517 -524 0
-517 -525 0
-518 -519 0
-518 -520 0
-518 -521 0
-518 -522 0
-518 -523 0
-518 -524 0
-518 -525 0
-519 -520 0
-519 -521 0
-519 -522 0
-519 -523 0
-519 -524 0
-519 -525 0
-520 -521 0
-520 -522 0
-520 -523 0
-520 -524 0
-520 -525 0
-521 -522 0
-521 -523 0
-521 -524 0
-521 -525 0
-522 -523 0
-522 -524 0
-522 -525 0
-523 -524 0
-523 -525 0
-524 -525 0
526 527 528 529 530 531 532 533 534 535 536 537 538 539 540 0
-526 -527 0
-526 -528 0
-526 -529 0
-526 -530 0
-526 -531 0
-526 -532 0
-526 -533 0
-526 -534 0
-526 -535 0
-526 -536 0
-526 -537 0
-526 -538 0
-526 -539 0
-526 -540 0
-527 -528 0
-527 -529 0
-527 -530 0
-527 -531 0
-527 -532 0
-527 -533 0
-527 -534 0
-527 -535 0
-527 -536 0
-527 -537 0
-527 -538 0
-527 -539 0
-527 -540 0
-528 -529 0
-528 -530 0
-528 -531 0
-528 -532 0
-528 -533 0
-528 -534 0
-528 -535 0
-528 -536 0
-528 -537 0
-528 -538 0
-528 -539 0
-528 -540 0
-529 -530 0
-529 -531 0
-529 -532 0
-529 -533 0
-529 -534 0
-529 -535 0
-529 -536 0
-529 -537 0
-529 -538 0
-529 -539 0
-529 -540 0
-530 -531 0
-530 -532 0
-530 -533 0
-530 -534 0
-530 -535 0
-530 -536 0
-530 -537 0
-530 -538 0
-530 -539 0
-530 -540 0
-531 -532 0
-531 -533 0
-531 -534 0
-531 -535 0
-531 -536 0
-531 -537 0
-531 -538 0
-531 -539 0
-531 -540 0
-532 -533 0
-532 -534 0
-532 -535 0
-532 -536 0
-532 -537 0
-532 -538 0
-532 -539 0
-532 -540 0
-533 -534 0
-533 -535 0
-533 -536 0
-533 -537 0
-533 -538 0
-533 -539 0
-533 -540 0
-534 -535 0
-534 -536 0
-534 -537 0
-534 -538 0
-534 -539 0
-534 -540 0
-535 -536 0
-535 -537 0
-535 -538 0
-535 -539 0
-535 -540 0
-536 -537 0
-536 -538 0
-536 -539 0
-536 -540 0
-537 -538 0
-537 -539 0
-537 -540 0
-538 -539 0
-538 -540 0
-539 -540 0
541 542 543 544 545 546 547 548 549 550 551 552 553 554 555 0
-541 -542 0
-541 -543 0
-541 -544 0
-541 -545 0
-541 -546 0
-541 -547 0
-541 -548 0
-541 -549 0
-541 -550 0
-541 -551 0
-541 -552 0
-541 -553 0
-541 -554 0
-541 -555 0
-542 -543 0
-542 -544 0
-542 -545 0
-542 -546 0
-542 -547 0
-542 -548 0
-542 -549 0
-542 -550 0
-542 -551 0
-542 -552 0
-542 -553 0
-542 -554 0
-542 -555 0
-543 -544 0
-543 -545 0
-543 -546 0
-543 -547 0
-543 -548 0
-543 -549 0
-543 -550 0
-543 -551 0
-543 -552 0
-543 -553 0
-543 -554 0
-543 -555 0
-544 -545 0
-544 -546 0
-544 -547 0
-544 -548 0
-544 -549 0
-544 -550 0
-544 -551 0
-544 -552 0
-544 -553 0
-544 -554 0
-544 -555 0
-545 -546 0
-545 -547 0
-545 -548 0
-545 -549 0
-545 -550 0
-545 -551 0
-545 -552 0
-545 -553 0
-545 -554 0
-545 -555 0
-546 -547 0
-546 -548 0
-546 -549 0
-546 -550 0
-546 -551 0
-546 -552 0
-546 -553 0
-546 -554 0
-546 -555 0
-547 -548 0
-547 -549 0
-547 -550 0
-547 -551 0
-547 -552 0
-547 -553 0
-547 -554 0
-547 -555 0
-548 -549 0
-548 -550 0
-548 -551 0
-548 -552 0
-548 -553 0
-548 -554 0
-548 -555 0
-549 -550 0
-549 -551 0
-549 -552 0
-549 -553 0
-549 -554 0
-549 -555 0
-550 -551 0
-550 -552 0
-550 -553 0
-550 -554 0
-550 -555 0
-551 -552 0
-551 -553 0
-551 -554 0
-551 -555 0
-552 -553 0
-552 -554 0
-552 -555 0
-553 -554 0
-553 -555 0
-554 -555 0
556 557 558 559 560 561 562 563 564 565 566 567 568 569 570 0
-556 -557 0
-556 -558 0
-556 -559 0
-556 -560 0
-556 -561 0
-556 -562 0
-556 -563 0
-556 -564 0
-556 -565 0
-556 -566 0
-556 -567 0
-556 -568 0
-556 -569 0
-556 -570 0
-557 -558 0
-557 -559 0
-557 -560 0
-557 -561 0
-557 -562 0
-557 -563 0
-557 -564 0
-557 -565 0
-557 -566 0
-557 -567 0
-557 -568 0
-557 -569 0
-557 -570 0
-558 -559 0
-558 -560 0
-558 -561 0
-558 -562 0
-558 -563 0
-558 -564 0
-558 -565 0
-558 -566 0
-558 -567 0
-558 -568 0
-558 -569 0
-558 -570 0
-559 -560 0
-559 -561 0
-559 -562 0
-559 -563 0
-559 -564 0
-559 -565 0
-559 -566 0
-559 -567 0
-559 -568 0
-559 -569 0
-559 -570 0
-560 -561 0
-560 -562 0
-560 -563 0
-560 -564 0
-560 -565 0
-560 -566 0
-560 -567 0
-560 -568 0
-560 -569 0
-560 -570 0
-561 -562 0
-561 -563 0
-561 -564 0
-561 -565 0
-561 -566 0
-561 -567 0
-561 -568 0
-561 -569 0
-561 -570 0
-562 -563 0
-562 -564 0
-562 -565 0
-562 -566 0
-562 -567 0
-562 -568 0
-562 -569 0
-562 -570 0
-563 -564 0
-563 -565 0
-563 -566 0
-563 -567 0
-563 -568 0
-563 -569 0
-563 -570 0
-564 -565 0
-564 -566 0
-564 -567 0
-564 -568 0
-564 -569 0
-564 -570 0
-565 -566 0
-565 -567 0
-565 -568 0
-565 -569 0
-565 -570 0
-566 -567 0
-566 -568 0
-566 -569 0
-566 -570 0
-567 -568 0
-567 -569 0
-567 -570 0
-568 -569 0
-568 -570 0
-569 -570 0
571 572 573 574 575 576 577 578 579 580 581 582 583 584 585 0
-571 -572 0
-571 -573 0
-571 -574 0
-571 -575 0
-571 -576 0
-571 -577 0
-571 -578 0
-571 -579 0
-571 -580 0
-571 -581 0
-571 -582 0
-571 -583 0
-571 -584 0
-571 -585 0
-572 -573 0
-572 -574 0
-572 -575 0
-572 -576 0
-572 -577 0
-572 -578 0
-572 -579 0
-572 -580 0
-572 -581 0
-572 -582 0
-572 -583 0
-572 -584 0
-572 -585 0
-573 -574 0
-573 -575 0
-573 -576 0
-573 -577 0
-573 -578 0
-573 -579 0
-573 -580 0
-573 -581 0
-573 -582 0
-573 -583 0
-573 -584 0
-573 -585 0
-574 -575 0
-574 -576 0
-574 -577 0
-574 -578 0
-574 -579 0
-574 -580 0
-574 -581 0
-574 -582 0
-574 -583 0
-574 -584 0
-574 -585 0
-575 -576 0
-575 -577 0
-575 -578 0
-575 -579 0
-575 -580 0
-575 -581 0
-575 -582 0
-575 -583 0
-575 -584 0
-575 -585 0
-576 -577 0
-576 -578 0
-576 -579 0
-576 -580 0
-576 -581 0
-576 -582 0
-576 -583 0
-576 -584 0
-576 -585 0
-577 -578 0
-577 -579 0
-577 -580 0
-577 -581 0
-577 -582 0
-577 -583 0
-577 -584 0
-577 -585 0
-578 -579 0
-578 -580 0
-578 -581 0
-578 -582 0
-578 -583 0
-578 -584 0
-578 -585 0
-579 -580 0
-579 -581 0
-579 -582 0
-579 -583 0
-579 -584 0
-579 -585 0
-580 -581 0
-580 -582 0
-580 -583 0
-580 -584 0
-580 -585 0
-581 -582 0
-581 -583 0
-581 -584 0
-581 -585 0
-582 -583 0
-582 -584 0
-582 -585 0
-583 -584 0
-583 -585 0
-584 -585 0
586 587 588 589 590 591 592 593 594 595 596 597 598 599 600 0
-586 -587 0
-586 -588 0
-586 -589 0
-586 -590 0
-586 -591 0
-586 -592 0
-586 -593 0
-586 -594 0
-586 -595 0
-586 -596 0
-586 -597 0
-586 -598 0
-586 -599 0
-586 -600 0
-587 -588 0
-587 -589 0
-587 -590 0
-587 -591 0
-587 -592 0
-587 -593 0
-587 -594 0
-587 -595 0
-587 -596 0
-587 -597 0
-587 -598 0
-587 -599 0
-587 -600 0
-588 -589 0
-588 -590 0
-588 -591 0
-588 -592 0
-588 -593 0
-588 -594 0
-588 -595 0
-588 -596 0
-588 -597 0
-588 -598 0
-588 -599 0
-588 -600 0
-589 -590 0
-589 -591 0
-589 -592 0
-589 -593 0
-589 -594 0
-589 -595 0
-589 -596 0
-589 -597 0
-589 -598 0
-589 -599 0
-589 -600 0
-590 -591 0
-590 -592 0
-590 -593 0
-590 -594 0
-590 -595 0
-590 -596 0
-590 -597 0
-590 -598 0
-590 -599 0
-590 -600 0
-591 -592 0
-591 -593 0
-591 -594 0
-591 -595 0
-591 -596 0
-591 -597 0
-591 -598 0
-591 -599 0
-591 -600 0
-592 -593 0
-592 -594 0
-592 -595 0
-592 -596 0
-592 -597 0
-592 -598 0
-592 -599 0
-592 -600 0
-593 -594 0
-593 -595 0
-593 -596 0
-593 -597 0
-593 -598 0
-593 -599 0
-593 -600 0
-594 -595 0
-594 -596 0
-594 -597 0
-594 -598 0
-594 -599 0
-594 -600 0
-595 -596 0
-595 -597 0
-595 -598 0
-595 -599 0
-595 -600 0
-596 -597 0
-596 -598 0
-596 -599 0
-596 -600 0
-597 -598 0
-597 -599 0
-597 -600 0
-598 -599 0
-598 -600 0
-599 -600 0
601 602 603 604 605 606 607 608 609 610 611 612 613 614 615 0
-601 -602 0
-601 -603 0
-601 -604 0
-601 -605 0
-601 -606 0
-601 -607 0
-601 -608 0
-601 -609 0
-601 -610 0
-601 -611 0
-601 -612 0
-601 -613 0
-601 -614 0
-601 -615 0
-602 -603 0
-602 -604 0
-602 -605 0
-602 -606 0
-602 -607 0
-602 -608 0
-602 -609 0
-602 -610 0
-602 -611 0
-602 -612 0
-602 -613 0
-602 -614 0
-602 -615 0
-603 -604 0
-603 -605 0
-603 -606 0
-603 -607 0
-603 -608 0
-603 -609 0
-603 -610 0
-603 -611 0
-603 -612 0
-603 -613 0
-603 -614 0
-603 -615 0
-604 -605 0
-604 -606 0
-604 -607 0
-604 -608 0
-604 -609 0
-604 -610 0
-604 -611 0
-604 -612 0
-604 -613 0
-604 -614 0
-604 -615 0
-605 -606 0
-605 -607 0
-605 -608 0
-605 -609 0
-605 -610 0
-605 -611 0
-605 -612 0
-605 -613 0
-605 -614 0
-605 -615 0
-606 -607 0
-606 -608 0
-606 -609 0
-606 -610 0
-606 -611 0
-606 -612 0
-606 -613 0
-606 -614 0
-606 -615 0
-607 -608 0
-607 -609 0
-607 -610 0
-607 -611 0
-607 -612 0
-607 -613 0
-607 -614 0
-607 -615 0
-608 -609 0
-608 -610 0
-608 -611 0
-608 -612 0
-608 -613 0
-608 -614 0
-608 -615 0
-609 -610 0
-609 -611 0
-609 -612 0
-609 -613 0
-609 -614 0
-609 -615 0
-610 -611 0
-610 -612 0
-610 -613 0
-610 -614 0
-610 -615 0
-611 -612 0
-611 -613 0
-611 -614 0
-611 -615 0
-612 -613 0
-612 -614 0
-612 -615 0
-613 -614 0
-613 -615 0
-614 -615 0
616 617 618 619 620 621 622 623 624 625 626 627 628 629 630 0
-616 -617 0
-616 -618 0
-616 -619 0
-616 -620 0
-616 -621 0
-616 -622 0
-616 -623 0
-616 -624 0
-616 -625 0
-616 -626 0
-616 -627 0
-616 -628 0
-616 -629 0
-616 -630 0
-617 -618 0
-617 -619 0
-617 -620 0
-617 -621 0
-617 -622 0
-617 -623 0
-617 -624 0
-617 -625 0
-617 -626 0
-617 -627 0
-617 -628 0
-617 -629 0
-617 -630 0
-618 -619 0
-618 -620 0
-618 -621 0
-618 -622 0
-618 -623 0
-618 -624 0
-618 -625 0
-618 -626 0
-618 -627 0
-618 -628 0
-618 -629 0
-618 -630 0
-619 -620 0
-619 -621 0
-619 -622 0
-619 -623 0
-619 -624 0
-619 -625 0
-619 -626 0
-619 -627 0
-619 -628 0
-619 -629 0
-619 -630 0
-620 -621 0
-620 -622 0
-620 -623 0
-620 -624 0
-620 -625 0
-620 -626 0
-620 -627 0
-620 -628 0
-620 -629 0
-620 -630 0
-621 -622 0
-621 -623 0
-621 -624 0
-621 -625 0
-621 -626 0
-621 -627 0
-621 -628 0
-621 -629 0
-621 -630 0
-622 -623 0
-622 -624 0
-622 -625 0
-622 -626 0
-622 -627 0
-622 -628 0
-622 -629 0
-622 -630 0
-623 -624 0
-623 -625 0
-623 -626 0
-623 -627 0
-623 -628 0
-623 -629 0
-623 -630 0
-624 -625 0
-624 -626 0
-624 -627 0
-624 -628 0
-624 -629 0
-624 -630 0
-625 -626 0
-625 -627 0
-625 -628 0
-625 -629 0
-625 -630 0
-626 -627 0
-626 -628 0
-626 -629 0
-626 -630 0
-627 -628 0
-627 -629 0
-627 -630 0
-628 -629 0
-628 -630 0
-629 -630 0
631 632 633 634 635 636 637 638 639 640 641 642 643 644 645 0
-631 -632 0
-631 -633 0
-631 -634 0
-631 -635 0
-631 -636 0
-631 -637 0
-631 -638 0
-631 -639 0
-631 -640 0
-631 -641 0
-631 -642 0
-631 -643 0
-631 -644 0
-631 -645 0
-632 -633 0
-632 -634 0
-632 -635 0
-632 -636 0
-632 -637 0
-632 -638 0
-632 -639 0
-632 -640 0
-632 -641 0
-632 -642 0
-632 -643 0
-632 -644 0
-632 -645 0
-633 -634 0
-633 -635 0
-633 -636 0
-633 -637 0
-633 -638 0
-633 -639 0
-633 -640 0
-633 -641 0
-633 -642 0
-633 -643 0
-633 -644 0
-633 -645 0
-634 -635 0
-634 -636 0
-634 -637 0
-634 -638 0
-634 -639 0
-634 -640 0
-634 -641 0
-634 -642 0
-634 -643 0
-634 -644 0
-634 -645 0
-635 -636 0
-635 -637 0
-635 -638 0
-635 -639 0
-635 -640 0
-635 -641 0
-635 -642 0
-635 -643 0
-635 -644 0
-635 -645 0
-636 -637 0
-636 -638 0
-636 -639 0
-636 -640 0
-636 -641 0
-636 -642 0
-636 -643 0
-636 -644 0
-636 -645 0
-637 -638 0
-637 -639 0
-637 -640 0
-637 -641 0
-637 -642 0
-637 -643 0
-637 -644 0
-637 -645 0
-638 -639 0
-638 -640 0
-638 -641 0
-638 -642 0
-638 -643 0
-638 -644 0
-638 -645 0
-639 -640 0
-639 -641 0
-639 -642 0
-639 -643 0
-639 -644 0
-639 -645 0
-640 -641 0
-640 -642 0
-640 -643 0
-640 -644 0
-640 -645 0
-641 -642 0
-641 -643 0
-641 -644 0
-641 -645 0
-642 -643 0
-642 -644 0
-642 -645 0
-643 -644 0
-643 -645 0
-644 -645 0
646 647 648 649 650 651 652 653 654 655 656 657 658 659 660 0
-646 -647 0
-646 -648 0
-646 -649 0
-646 -650 0
-646 -651 0
-646 -652 0
-646 -653 0
-646 -654 0
-646 -655 0
-646 -656 0
-646 -657 0
-646 -658 0
-646 -659 0
-646 -660 0
-647 -648 0
-647 -649 0
-647 -650 0
-647 -651 0
-647 -652 0
-647 -653 0
-647 -654 0
-647 -655 0
-647 -656 0
-647 -657 0
-647 -658 0
-647 -659 0
-647 -660 0
-648 -649 0
-648 -650 0
-648 -651 0
-648 -652 0
-648 -653 0
-648 -654 0
-648 -655 0
-648 -656 0
-648 -657 0
-648 -658 0
-648 -659 0
-648 -660 0
-649 -650 0
-649 -651 0
-649 -652 0
-649 -653 0
-649 -654 0
-649 -655 0
-649 -656 0
-649 -657 0
-649 -658 0
-649 -659 0
-649 -660 0
-650 -651 0
-650 -652 0
-650 -653 0
-650 -654 0
-650 -655 0
-650 -656 0
-650 -657 0
-650 -658 0
-650 -659 0
-650 -660 0
-651 -652 0
-651 -653 0
-651 -654 0
-651 -655 0
-651 -656 0
-651 -657 0
-651 -658 0
-651 -659 0
-651 -660 0
-652 -653 0
-652 -654 0
-652 -655 0
-652 -656 0
-652 -657 0
-652 -658 0
-652 -659 0
-652 -660 0
-653 -654 0
-653 -655 0
-653 -656 0
-653 -657 0
-653 -658 0
-653 -659 0
-653 -660 0
-654 -655 0
-654 -656 0
-654 -657 0
-654 -658 0
-654 -659 0
-654 -660 0
-655 -656 0
-655 -657 0
-655 -658 0
-655 -659 0
-655 -660 0
-656 -657 0
-656 -658 0
-656 -659 0
-656 -660 0
-657 -658 0
-657 -659 0
-657 -660 0
-658 -659 0
-658 -660 0
-659 -660 0
661 662 663 664 665 666 667 668 669 670 671 672 673 674 675 0
-661 -662 0
-661 -663 0
-661 -664 0
-661 -665 0
-661 -666 0
-661 -667 0
-661 -668 0
-661 -669 0
-661 -670 0
-661 -671 0
-661 -672 0
-661 -673 0
-661 -674 0
-661 -675 0
-662 -663 0
-662 -664 0
-662 -665 0
-662 -666 0
-662 -667 0
-662 -668 0
-662 -669 0
-662 -670 0
-662 -671 0
-662 -672 0
-662 -673 0
-662 -674 0
-662 -675 0
-663 -664 0
-663 -665 0
-663 -666 0
-663 -667 0
-663 -668 0
-663 -669 0
-663 -670 0
-663 -671 0
-663 -672 0
-663 -673 0
-663 -674 0
-663 -675 0
-664 -665 0
-664 -666 0
-664 -667 0
-664 -668 0
-664 -669 0
-664 -670 0
-664 -671 0
-664 -672 0
-664 -673 0
-664 -674 0
-664 -675 0
-665 -666 0
-665 -667 0
-665 -668 0
-665 -669 0
-665 -670 0
-665 -671 0
-665 -672 0
-665 -673 0
-665 -674 0
-665 -675 0
-666 -667 0
-666 -668 0
-666 -669 0
-666 -670 0
-666 -671 0
-666 -672 0
-666 -673 0
-666 -674 0
-666 -675 0
-667 -668 0
-667 -669 0
-667 -670 0
-667 -671 0
-667 -672 0
-667 -673 0
-667 -674 0
-667 -675 0
-668 -669 0
-668 -670 0
-668 -671 0
-668 -672 0
-668 -673 0
-668 -674 0
-668 -675 0
-669 -670 0
-669 -671 0
-669 -672 0
-669 -673 0
-669 -674 0
-669 -675 0
-670 -671 0
-670 -672 0
-670 -673 0
-670 -674 0
-670 -675 0
-671 -672 0
-671 -673 0
-671 -674 0
-671 -675 0
-672 -673 0
-672 -674 0
-672 -675 0
-673 -674 0
-673 -675 0
-674 -675 0
-1 -46 0
-1 -91 0
-1 -136 0
-1 -181 0
-1 -226 0
-1 -271 0
-1 -316 0
-1 -361 0
-1 -406 0
-1 -451 0
-1 -496 0
-1 -541 0
-1 -586 0
-1 -631 0
-46 -91 0
-46 -136 0
-46 -181 0
-46 -226 0
-46 -271 0
-46 -316 0
-46 -361 0
-46 -406 0
-46 -451 0
-46 -496 0
-46 -541 0
-46 -586 0
-46 -631 0
-91 -136 0
-91 -181 0
-91 -226 0
-91 -271 0
-91 -316 0
-91 -361 0
-91 -406 0
-91 -451 0
-91 -496 0
-91 -541 0
-91 -586 0
-91 -631 0
-136 -181 0
-136 -226 0
-136 -271 0
-136 -316 0
-136 -361 0
-136 -406 0
-136 -451 0
-136 -496 0
-136 -541 0
-136 -586 0
-136 -631 0
-181 -226 0
-181 -271 0
-181 -316 0
-181 -361 0
-181 -406 0
-181 -451 0
-181 -496 0
-181 -541 0
-181 -586 0
-181 -631 0
-226 -271 0
-226 -316 0
-226 -361 0
-226 -406 0
-226 -451 0
-226 -496 0
-226 -541 0
-226 -586 0
-226 -631 0
-271 -316 0
-271 -361 0
-271 -406 0
-271 -451 0
-271 -496 0
-271 -541 0
-271 -586 0
-271 -631 0
-316 -361 0
-316 -406 0
-316 -451 0
-316 -496 0
-316 -541 0
-316 -586 0
-316 -631 0
-361 -406 0
-361 -451 0
-361 -496 0
-361 -541 0
-361 -586 0
-361 -631 0
-406 -451 0
-406 -496 0
-406 -541 0
-406 -586 0
-406 -631 0
-451 -496 0
-451 -541 0
-451 -586 0
-451 -631 0
-496 -541 0
-496 -586 0
-496 -631 0
-541 -586 0
-541 -631 0
-586 -631 0
-2 -47 0
-2 -92 0
-2 -137 0
-2 -182 0
-2 -227 0
-2 -272 0
-2 -317 0
-2 -362 0
-2 -407 0
-2 -452 0
-2 -497 0
-2 -542 0
-2 -587 0
-2 -632 0
-47 -92 0
-47 -137 0
-47 -182 0
-47 -227 0
-47 -272 0
-47 -317 0
-47 -362 0
-47 -407 0
-47 -452 0
-47 -497 0
-47 -542 0
-47 -587 0
-47 -632 0
-92 -137 0
-92 -182 0
-92 -227 0
-92 -272 0
-92 -317 0
-92 -362 0
-92 -407 0
-92 -452 0
-92 -497 0
-92 -542 0
-92 -587 0
-92 -632 0
-137 -182 0
-137 -227 0
-137 -272 0
-137 -317 0
-137 -362 0
-137 -407 0
-137 -452 0
-137 -497 0
-137 -542 0
-137 -587 0
-137 -632 0
-182 -227 0
-182 -272 0
-182 -317 0
-182 -362 0
-182 -407 0
-182 -452 0
-182 -497 0
-182 -542 0
-182 -587 0
-182 -632 0
-227 -272 0
-227 -317 0
-227 -362 0
-227 -407 0
-227 -452 0
-227 -497 0
-227 -542 0
-227 -587 0
-227 -632 0
-272 -317 0
-272 -362 0
-272 -407 0
-272 -452 0
-272 -497 0
-272 -542 0
-272 -587 0
-272 -632 0
-317 -362 0
-317 -407 0
-317 -452 0
-317 -497 0
-317 -542 0
-317 -587 0
-317 -632 0
-362 -407 0
-362 -452 0
-362 -497 0
-362 -542 0
-362 -587 0
-362 -632 0
-407 -452 0
-407 -497 0
-407 -542 0
-407 -587 0
-407 -632 0
-452 -497 0
-452 -542 0
-452 -587 0
-452 -632 0
-497 -542 0
-497 -587 0
-497 -632 0
-542 -587 0
-542 -632 0
-587 -632 0
-3 -48 0
-3 -93 0
-3 -138 0
-3 -183 0
-3 -228 0
-3 -273 0
-3 -318 0
-3 -363 0
-3 -408 0
-3 -453 0
-3 -498 0
-3 -543 0
-3 -588 0
-3 -633 0
-48 -93 0
-48 -138 0
-48 -183 0
-48 -228 0
-48 -273 0
-48 -318 0
-48 -363 0
-48 -408 0
-48 -453 0
-48 -498 0
-48 -543 0
-48 -588 0
-48 -633 0
-93 -138 0
-93 -183 0
-93 -228 0
-93 -273 0
-93 -318 0
-93 -363 0
-93 -408 0
-93 -453 0
-93 -498 0
-93 -543 0
-93 -588 0
-93 -633 0
-138 -183 0
-138 -228 0
-138 -273 0
-138 -318 0
-138 -363 0
-138 -408 0
-138 -453 0
-138 -498 0
-138 -543 0
-138 -588 0
-138 -633 0
-183 -228 0
-183 -273 0
-183 -318 0
-183 -363 0
-183 -408 0
-183 -453 0
-183 -498 0
-183 -543 0
-183 -588 0
-183 -633 0
-228 -273 0
-228 -318 0
-228 -363 0
-228 -408 0
-228 -453 0
-228 -498 0
-228 -543 0
-228 -588 0
-228 -633 0
-273 -318 0
-273 -363 0
-273 -408 0
-273 -453 0
-273 -498 0
-273 -543 0
-273 -588 0
-273 -633 0
-318 -363 0
-318 -408 0
-318 -453 0
-318 -498 0
-318 -543 0
-318 -588 0
-318 -633 0
-363 -408 0
-363 -453 0
-363 -498 0
-363 -543 0
-363 -588 0
-363 -633 0
-408 -453 0
-408 -498 0
-408 -543 0
-408 -588 0
-408 -633 0
-453 -498 0
-453 -543 0
-453 -588 0
-453 -633 0
-498 -543 0
-498 -588 0
-498 -633 0
-543 -588 0
-543 -633 0
-588 -633 0
-4 -49 0
-4 -94 0
-4 -139 0
-4 -184 0
-4 -229 0
-4 -274 0
-4 -319 0
-4 -364 0
-4 -409 0
-4 -454 0
-4 -499 0
-4 -544 0
-4 -589 0
-4 -634 0
-49 -94 0
-49 -139 0
-49 -184 0
-49 -229 0
-49 -274 0
-49 -319 0
-49 -364 0
-49 -409 0
-49 -454 0
-49 -499 0
-49 -544 0
-49 -589 0
-49 -634 0
-94 -139 0
-94 -184 0
-94 -229 0
-94 -274 0
-94 -319 0
-94 -364 0
-94 -409 0
-94 -454 0
-94 -499 0
-94 -544 0
-94 -589 0
-94 -634 0
-139 -184 0
-139 -229 0
-139 -274 0
-139 -319 0
-139 -364 0
-139 -409 0
-139 -454 0
-139 -499 0
-139 -544 0
-139 -589 0
-139 -634 0
-184 -229 0
-184 -274 0
-184 -319 0
-184 -364 0
-184 -409 0
-184 -454 0
-184 -499 0
-184 -544 0
-184 -589 0
-184 -634 0
-229 -274 0
-229 -319 0
-229 -364 0
-229 -409 0
-229 -454 0
-229 -499 0
-229 -544 0
-229 -589 0
-229 -634 0
-274 -319 0
-274 -364 0
-274 -409 0
-274 -454 0
-274 -499 0
-274 -544 0
-274 -589 0
-274 -634 0
-319 -364 0
-319 -409 0
-319 -454 0
-319 -499 0
-319 -544 0
-319 -589 0
-319 -634 0
-364 -409 0
-364 -454 0
-364 -499 0
-364 -544 0
-364 -589 0
-364 -634 0
-409 -454 0
-409 -499 0
-409 -544 0
-409 -589 0
-409 -634 0
-454 -499 0
-454 -544 0
-454 -589 0
-454 -634 0
-499 -544 0
-499 -589 0
-499 -634 0
-544 -589 0
-544 -634 0
-589 -634 0
-5 -50 0
-5 -95 0
-5 -140 0
-5 -185 0
-5 -230 0
-5 -275 0
-5 -320 0
-5 -365 0
-5 -410 0
-5 -455 0
-5 -500 0
-5 -545 0
-5 -590 0
-5 -635 0
-50 -95 0
-50 -140 0
-50 -185 0
-50 -230 0
-50 -275 0
-50 -320 0
-50 -365 0
-50 -410 0
-50 -455 0
-50 -500 0
-50 -545 0
-50 -590 0
-50 -635 0
-95 -140 0
-95 -185 0
-95 -230 0
-95 -275 0
-95 -320 0
-95 -365 0
-95 -410 0
-95 -455 0
-95 -500 0
-95 -545 0
-95 -590 0
-95 -635 0
-140 -185 0
-140 -230 0
-140 -275 0
-140 -320 0
-140 -365 0
-140 -410 0
-140 -455 0
-140 -500 0
-140 -545 0
-140 -590 0
-140 -635 0
-185 -230 0
-185 -275 0
-185 -320 0
-185 -365 0
-185 -410 0
-185 -455 0
-185 -500 0
-185 -545 0
-185 -590 0
-185 -635 0
-230 -275 0
-230 -320 0
-230 -365 0
-230 -410 0
-230 -455 0
-230 -500 0
-230 -545 0
-230 -590 0
-230 -635 0
-275 -320 0
-275 -365 0
-275 -410 0
-275 -455 0
-275 -500 0
-275 -545 0
-275 -590 0
-275 -635 0
-320 -365 0
-320 -410 0
-320 -455 0
-320 -500 0
-320 -545 0
-320 -590 0
-320 -635 0
-365 -410 0
-365 -455 0
-365 -500 0
-365 -545 0
-365 -590 0
-365 -635 0
-410 -455 0
-410 -500 0
-410 -545 0
-410 -590 0
-410 -635 0
-455 -500 0
-455 -545 0
-455 -590 0
-455 -635 0
-500 -545 0
-500 -590 0
-500 -635 0
-545 -590 0
-545 -635 0
-590 -635 0
-6 -51 0
-6 -96 0
-6 -141 0
-6 -186 0
-6 -231 0
-6 -276 0
-6 -321 0
-6 -366 0
-6 -411 0
-6 -456 0
-6 -501 0
-6 -546 0
-6 -591 0
-6 -636 0
-51 -96 0
-51 -141 0
-51 -186 0
-51 -231 0
-51 -276 0
-51 -321 0
-51 -366 0
-51 -411 0
-51 -456 0
-51 -501 0
-51 -546 0
-51 -591 0
-51 -636 0
-96 -141 0
-96 -186 0
-96 -231 0
-96 -276 0
-96 -321 0
-96 -366 0
-96 -411 0
-96 -456 0
-96 -501 0
-96 -546 0
-96 -591 0
-96 -636 0
-141 -186 0
-141 -231 0
-141 -276 0
-141 -321 0
-141 -366 0
-141 -411 0
-141 -456 0
-141 -501 0
-141 -546 0
-141 -591 0
-141 -636 0
-186 -231 0
-186 -276 0
-186 -321 0
-186 -366 0
-186 -411 0
-186 -456 0
-186 -501 0
-186 -546 0
-186 -591 0
-186 -636 0
-231 -276 0
-231 -321 0
-231 -366 0
-231 -411 0
-231 -456 0
-231 -501 0
-231 -546 0
-231 -591 0
-231 -636 0
-276 -321 0
-276 -366 0
-276 -411 0
-276 -456 0
-276 -501 0
-276 -546 0
-276 -591 0
-276 -636 0
-321 -366 0
-321 -411 0
-321 -456 0
-321 -501 0
-321 -546 0
-321 -591 0
-321 -636 0
-366 -411 0
-366 -456 0
-366 -501 0
-366 -546 0
-366 -591 0
-366 -636 0
-411 -456 0
-411 -501 0
-411 -546 0
-411 -591 0
-411 -636 0
-456 -501 0
-456 -546 0
-456 -591 0
-456 -636 0
-501 -546 0
-501 -591 0
-501 -636 0
-546 -591 0
-546 -636 0
-591 -636 0
-7 -52 0
-7 -97 0
-7 -142 0
-7 -187 0
-7 -232 0
-7 -277 0
-7 -322 0
-7 -367 0
-7 -412 0
-7 -457 0
-7 -502 0
-7 -547 0
-7 -592 0
-7 -637 0
-52 -97 0
-52 -142 0
-52 -187 0
-52 -232 0
-52 -277 0
-52 -322 0
-52 -367 0
-52 -412 0
-52 -457 0
-52 -502 0
-52 -547 0
-52 -592 0
-52 -637 0
-97 -142 0
-97 -187 0
-97 -232 0
-97 -277 0
-97 -322 0
-97 -367 0
-97 -412 0
-97 -457 0
-97 -502 0
-97 -547 0
-97 -592 0
-97 -637 0
-142 -187 0
-142 -232 0
-142 -277 0
-142 -322 0
-142 -367 0
-142 -412 0
-142 -457 0
-142 -502 0
-142 -547 0
-142 -592 0
-142 -637 0
-187 -232 0
-187 -277 0
-187 -322 0
-187 -367 0
-187 -412 0
-187 -457 0
-187 -502 0
-187 -547 0
-187 -592 0
-187 -637 0
-232 -277 0
-232 -322 0
-232 -367 0
-232 -412 0
-232 -457 0
-232 -502 0
-232 -547 0
-232 -592 0
-232 -637 0
-277 -322 0
-277 -367 0
-277 -412 0
-277 -457 0
-277 -502 0
-277 -547 0
-277 -592 0
-277 -637 0
-322 -367 0
-322 -412 0
-322 -457 0
-322 -502 0
-322 -547 0
-322 -592 0
-322 -637 0
-367 -412 0
-367 -457 0
-367 -502 0
-367 -547 0
-367 -592 0
-367 -637 0
-412 -457 0
-412 -502 0
-412 -547 0
-412 -592 0
-412 -637 0
-457 -502 0
-457 -547 0
-457 -592 0
-457 -637 0
-502 -547 0
-502 -592 0
-502 -637 0
-547 -592 0
-547 -637 0
-592 -637 0
-8 -53 0
-8 -98 0
-8 -143 0
-8 -188 0
-8 -233 0
-8 -278 0
-8 -323 0
-8 -368 0
-8 -413 0
-8 -458 0
-8 -503 0
-8 -548 0
-8 -593 0
-8 -638 0
-53 -98 0
-53 -143 0
-53 -188 0
-53 -233 0
-53 -278 0
-53 -323 0
-53 -368 0
-53 -413 0
-53 -458 0
-53 -503 0
-53 -548 0
-53 -593 0
-53 -638 0
-98 -143 0
-98 -188 0
-98 -233 0
-98 -278 0
-98 -323 0
-98 -368 0
-98 -413 0
-98 -458 0
-98 -503 0
-98 -548 0
-98 -593 0
-98 -638 0
-143 -188 0
-143 -233 0
-143 -278 0
-143 -323 0
-143 -368 0
-143 -413 0
-143 -458 0
-143 -503 0
-143 -548 0
-143 -593 0
-143 -638 0
-188 -233 0
-188 -278 0
-188 -323 0
-188 -368 0
-188 -413 0
-188 -458 0
-188 -503 0
-188 -548 0
-188 -593 0
-188 -638 0
-233 -278 0
-233 -323 0
-233 -368 0
-233 -413 0
-233 -458 0
-233 -503 0
-233 -548 0
-233 -593 0
-233 -638 0
-278 -323 0
-278 -368 0
-278 -413 0
-278 -458 0
-278 -503 0
-278 -548 0
-278 -593 0
-278 -638 0
-323 -368 0
-323 -413 0
-323 -458 0
-323 -503 0
-323 -548 0
-323 -593 0
-323 -638 0
-368 -413 0
-368 -458 0
-368 -503 0
-368 -548 0
-368 -593 0
-368 -638 0
-413 -458 0
-413 -503 0
-413 -548 0
-413 -593 0
-413 -638 0
-458 -503 0
-458 -548 0
-458 -593 0
-458 -638 0
-503 -548 0
-503 -593 0
-503 -638 0
-548 -593 0
-548 -638 0
-593 -638 0
-9 -54 0
-9 -99 0
-9 -144 0
-9 -189 0
-9 -234 0
-9 -279 0
-9 -324 0
-9 -369 0
-9 -414 0
-9 -459 0
-9 -504 0
-9 -549 0
-9 -594 0
-9 -639 0
-54 -99 0
-54 -144 0
-54 -189 0
-54 -234 0
-54 -279 0
-54 -324 0
-54 -369 0
-54 -414 0
-54 -459 0
-54 -504 0
-54 -549 0
-54 -594 0
-54 -639 0
-99 -144 0
-99 -189 0
-99 -234 0
-99 -279 0
-99 -324 0
-99 -369 0
-99 -414 0
-99 -459 0
-99 -504 0
-99 -549 0
-99 -594 0
-99 -639 0
-144 -189 0
-144 -234 0
-144 -279 0
-144 -324 0
-144 -369 0
-144 -414 0
-144 -459 0
-144 -504 0
-144 -549 0
-144 -594 0
-144 -639 0
-189 -234 0
-189 -279 0
-189 -324 0
-189 -369 0
-189 -414 0
-189 -459 0
-189 -504 0
-189 -549 0
-189 -594 0
-189 -639 0
-234 -279 0
-234 -324 0
-234 -369 0
-234 -414 0
-234 -459 0
-234 -504 0
-234 -549 0
-234 -594 0
-234 -639 0
-279 -324 0
-279 -369 0
-279 -414 0
-279 -459 0
-279 -504 0
-279 -549 0
-279 -594 0
-279 -639 0
-324 -369 0
-324 -414 0
-324 -459 0
-324 -504 0
-324 -549 0
-324 -594 0
-324 -639 0
-369 -414 0
-369 -459 0
-369 -504 0
-369 -549 0
-369 -594 0
-369 -639 0
-414 -459 0
-414 -504 0
-414 -549 0
-414 -594 0
-414 -639 0
-459 -504 0
-459 -549 0
-459 -594 0
-459 -639 0
-504 -549 0
-504 -594 0
-504 -639 0
-549 -594 0
-549 -639 0
-594 -639 0
-10 -55 0
-10 -100 0
-10 -145 0
-10 -190 0
-10 -235 0
-10 -280 0
-10 -325 0
-10 -370 0
-10 -415 0
-10 -460 0
-10 -505 0
-10 -550 0
-10 -595 0
-10 -640 0
-55 -100 0
-55 -145 0
-55 -190 0
-55 -235 0
-55 -280 0
-55 -325 0
-55 -370 0
-55 -415 0
-55 -460 0
-55 -505 0
-55 -550 0
-55 -595 0
-55 -640 0
-100 -145 0
-100 -190 0
-100 -235 0
-100 -280 0
-100 -325 0
-100 -370 0
-100 -415 0
-100 -460 0
-100 -505 0
-100 -550 0
-100 -595 0
-100 -640 0
-145 -190 0
-145 -235 0
-145 -280 0
-145 -325 0
-145 -370 0
-145 -415 0
-145 -460 0
-145 -505 0
-145 -550 0
-145 -595 0
-145 -640 0
-190 -235 0
-190 -280 0
-190 -325 0
-190 -370 0
-190 -415 0
-190 -460 0
-190 -505 0
-190 -550 0
-190 -595 0
-190 -640 0
-235 -280 0
-235 -325 0
-235 -370 0
-235 -415 0
-235 -460 0
-235 -505 0
-235 -550 0
-235 -595 0
-235 -640 0
-280 -325 0
-280 -370 0
-280 -415 0
-280 -460 0
-280 -505 0
-280 -550 0
-280 -595 0
-280 -640 0
-325 -370 0
-325 -415 0
-325 -460 0
-325 -505 0
-325 -550 0
-325 -595 0
-325 -640 0
-370 -415 0
-370 -460 0
-370 -505 0
-370 -550 0
-370 -595 0
-370 -640 0
-415 -460 0
-415 -505 0
-415 -550 0
-415 -595 0
-415 -640 0
-460 -505 0
-460 -550 0
-460 -595 0
-460 -640 0
-505 -550 0
-505 -595 0
-505 -640 0
-550 -595 0
-550 -640 0
-595 -640 0
-11 -56 0
-11 -101 0
-11 -146 0
-11 -191 0
-11 -236 0
-11 -281 0
-11 -326 0
-11 -371 0
-11 -416 0
-11 -461 0
-11 -506 0
-11 -551 0
-11 -596 0
-11 -641 0
-56 -101 0
-56 -146 0
-56 -191 0
-56 -236 0
-56 -281 0
-56 -326 0
-56 -371 0
-56 -416 0
-56 -461 0
-56 -506 0
-56 -551 0
-56 -596 0
-56 -641 0
-101 -146 0
-101 -191 0
-101 -236 0
-101 -281 0
-101 -326 0
-101 -371 0
-101 -416 0
-101 -461 0
-101 -506 0
-101 -551 0
-101 -596 0
-101 -641 0
-146 -191 0
-146 -236 0
-146 -281 0
-146 -326 0
-146 -371 0
-146 -416 0
-146 -461 0
-146 -506 0
-146 -551 0
-146 -596 0
-146 -641 0
-191 -236 0
-191 -281 0
-191 -326 0
-191 -371 0
-191 -416 0
-191 -461 0
-191 -506 0
-191 -551 0
-191 -596 0
-191 -641 0
-236 -281 0
-236 -326 0
-236 -371 0
-236 -416 0
-236 -461 0
-236 -506 0
-236 -551 0
-236 -596 0
-236 -641 0
-281 -326 0
-281 -371 0
-281 -416 0
-281 -461 0
-281 -506 0
-281 -551 0
-281 -596 0
-281 -641 0
-326 -371 0
-326 -416 0
-326 -461 0
-326 -506 0
-326 -551 0
-326 -596 0
-326 -641 0
-371 -416 0
-371 -461 0
-371 -506 0
-371 -551 0
-371 -596 0
-371 -641 0
-416 -461 0
-416 -506 0
-416 -551 0
-416 -596 0
-416 -641 0
-461 -506 0
-461 -551 0
-461 -596 0
-461 -641 0
-506 -551 0
-506 -596 0
-506 -641 0
-551 -596 0
-551 -641 0
-596 -641 0
-12 -57 0
-12 -102 0
-12 -147 0
-12 -192 0
-12 -237 0
-12 -282 0
-12 -327 0
-12 -372 0
-12 -417 0
-12 -462 0
-12 -507 0
-12 -552 0
-12 -597 0
-12 -642 0
-57 -102 0
-57 -147 0
-57 -192 0
-57 -237 0
-57 -282 0
-57 -327 0
-57 -372 0
-57 -417 0
-57 -462 0
-57 -507 0
-57 -552 0
-57 -597 0
-57 -642 0
-102 -147 0
-102 -192 0
-102 -237 0
-102 -282 0
-102 -327 0
-102 -372 0
-102 -417 0
-102 -462 0
-102 -507 0
-102 -552 0
-102 -597 0
-102 -642 0
-147 -192 0
-147 -237 0
-147 -282 0
-147 -327 0
-147 -372 0
-147 -417 0
-147 -462 0
-147 -507 0
-147 -552 0
-147 -597 0
-147 -642 0
-192 -237 0
-192 -282 0
-192 -327 0
-192 -372 0
-192 -417 0
-192 -462 0
-192 -507 0
-192 -552 0
-192 -597 0
-192 -642 0
-237 -282 0
-237 -327 0
-237 -372 0
-237 -417 0
-237 -462 0
-237 -507 0
-237 -552 0
-237 -597 0
-237 -642 0
-282 -327 0
-282 -372 0
-282 -417 0
-282 -462 0
-282 -507 0
-282 -552 0
-282 -597 0
-282 -642 0
-327 -372 0
-327 -417 0
-327 -462 0
-327 -507 0
-327 -552 0
-327 -597 0
-327 -642 0
-372 -417 0
-372 -462 0
-372 -507 0
-372 -552 0
-372 -597 0
-372 -642 0
-417 -462 0
-417 -507 0
-417 -552 0
-417 -597 0
-417 -642 0
-462 -507 0
-462 -552 0
-462 -597 0
-462 -642 0
-507 -552 0
-507 -597 0
-507 -642 0
-552 -597 0
-552 -642 0
-597 -642 0
-13 -58 0
-13 -103 0
-13 -148 0
-13 -193 0
-13 -238 0
-13 -283 0
-13 -328 0
-13 -373 0
-13 -418 0
-13 -463 0
-13 -508 0
-13 -553 0
-13 -598 0
-13 -643 0
-58 -103 0
-58 -148 0
-58 -193 0
-58 -238 0
-58 -283 0
-58 -328 0
-58 -373 0
-58 -418 0
-58 -463 0
-58 -508 0
-58 -553 0
-58 -598 0
-58 -643 0
-103 -148 0
-103 -193 0
-103 -238 0
-103 -283 0
-103 -328 0
-103 -373 0
-103 -418 0
-103 -463 0
-103 -508 0
-103 -553 0
-103 -598 0
-103 -643 0
-148 -193 0
-148 -238 0
-148 -283 0
-148 -328 0
-148 -373 0
-148 -418 0
-148 -463 0
-148 -508 0
-148 -553 0
-148 -598 0
-148 -643 0
-193 -238 0
-193 -283 0
-193 -328 0
-193 -373 0
-193 -418 0
-193 -463 0
-193 -508 0
-193 -553 0
-193 -598 0
-193 -643 0
-238 -283 0
-238 -328 0
-238 -373 0
-238 -418 0
-238 -463 0
-238 -508 0
-238 -553 0
-238 -598 0
-238 -643 0
-283 -328 0
-283 -373 0
-283 -418 0
-283 -463 0
-283 -508 0
-283 -553 0
-283 -598 0
-283 -643 0
-328 -373 0
-328 -418 0
-328 -463 0
-328 -508 0
-328 -553 0
-328 -598 0
-328 -643 0
-373 -418 0
-373 -463 0
-373 -508 0
-373 -553 0
-373 -598 0
-373 -643 0
-418 -463 0
-418 -508 0
-418 -553 0
-418 -598 0
-418 -643 0
-463 -508 0
-463 -553 0
-463 -598 0
-463 -643 0
-508 -553 0
-508 -598 0
-508 -643 0
-553 -598 0
-553 -643 0
-598 -643 0
-14 -59 0
-14 -104 0
-14 -149 0
-14 -194 0
-14 -239 0
-14 -284 0
-14 -329 0
-14 -374 0
-14 -419 0
-14 -464 0
-14 -509 0
-14 -554 0
-14 -599 0
-14 -644 0
-59 -104 0
-59 -149 0
-59 -194 0
-59 -239 0
-59 -284 0
-59 -329 0
-59 -374 0
-59 -419 0
-59 -464 0
-59 -509 0
-59 -554 0
-59 -599 0
-59 -644 0
-104 -149 0
-104 -194 0
-104 -239 0
-104 -284 0
-104 -329 0
-104 -374 0
-104 -419 0
-104 -464 0
-104 -509 0
-104 -554 0
-104 -599 0
-104 -644 0
-149 -194 0
-149 -239 0
-149 -284 0
-149 -329 0
-149 -374 0
-149 -419 0
-149 -464 0
-149 -509 0
-149 -554 0
-149 -599 0
-149 -644 0
-194 -239 0
-194 -284 0
-194 -329 0
-194 -374 0
-194 -419 0
-194 -464 0
-194 -509 0
-194 -554 0
-194 -599 0
-194 -644 0
-239 -284 0
-239 -329 0
-239 -374 0
-239 -419 0
-239 -464 0
-239 -509 0
-239 -554 0
-239 -599 0
-239 -644 0
-284 -329 0
-284 -374 0
-284 -419 0
-284 -464 0
-284 -509 0
-284 -554 0
-284 -599 0
-284 -644 0
-329 -374 0
-329 -419 0
-329 -464 0
-329 -509 0
-329 -554 0
-329 -599 0
-329 -644 0
-374 -419 0
-374 -464 0
-374 -509 0
-374 -554 0
-374 -599 0
-374 -644 0
-419 -464 0
-419 -509 0
-419 -554 0
-419 -599 0
-419 -644 0
-464 -509 0
-464 -554 0
-464 -599 0
-464 -644 0
-509 -554 0
-509 -599 0
-509 -644 0
-554 -599 0
-554 -644 0
-599 -644 0
-15 -60 0
-15 -105 0
-15 -150 0
-15 -195 0
-15 -240 0
-15 -285 0
-15 -330 0
-15 -375 0
-15 -420 0
-15 -465 0
-15 -510 0
-15 -555 0
-15 -600 0
-15 -645 0
-60 -105 0
-60 -150 0
-60 -195 0
-60 -240 0
-60 -285 0
-60 -330 0
-60 -375 0
-60 -420 0
-60 -465 0
-60 -510 0
-60 -555 0
-60 -600 0
-60 -645 0
-105 -150 0
-105 -195 0
-105 -240 0
-105 -285 0
-105 -330 0
-105 -375 0
-105 -420 0
-105 -465 0
-105 -510 0
-105 -555 0
-105 -600 0
-105 -645 0
-150 -195 0
-150 -240 0
-150 -285 0
-150 -330 0
-150 -375 0
-150 -420 0
-150 -465 0
-150 -510 0
-150 -555 0
-150 -600 0
-150 -645 0
-195 -240 0
-195 -285 0
-195 -330 0
-195 -375 0
-195 -420 0
-195 -465 0
-195 -510 0
-195 -555 0
-195 -600 0
-195 -645 0
-240 -285 0
-240 -330 0
-240 -375 0
-240 -420 0
-240 -465 0
-240 -510 0
-240 -555 0
-240 -600 0
-240 -645 0
-285 -330 0
-285 -375 0
-285 -420 0
-285 -465 0
-285 -510 0
-285 -555 0
-285 -600 0
-285 -645 0
-330 -375 0
-330 -420 0
-330 -465 0
-330 -510 0
-330 -555 0
-330 -600 0
-330 -645 0
-375 -420 0
-375 -465 0
-375 -510 0
-375 -555 0
-375 -600 0
-375 -645 0
-420 -465 0
-420 -510 0
-420 -555 0
-420 -600 0
-420 -645 0
-465 -510 0
-465 -555 0
-465 -600 0
-465 -645 0
-510 -555 0
-510 -600 0
-510 -645 0
-555 -600 0
-555 -645 0
-600 -645 0
676 0
-1 676 0
-2 676 0
-3 676 0
-4 676 0
-5 676 0
-6 676 0
-7 676 0
-8 676 0
-9 676 0
-10 676 0
-11 676 0
-12 676 0
-13 676 0
-14 676 0
-15 676 0
-46 676 0
-47 676 0
-48 676 0
-49 676 0
-50 676 0
-51 676 0
-52 676 0
-53 676 0
-54 676 0
-55 676 0
-56 676 0
-57 676 0
-58 676 0
-59 676 0
-60 676 0
-91 676 0
-92 676 0
-93 676 0
-94 676 0
-95 676 0
-96 676 0
-97 676 0
-98 676 0
-99 676 0
-100 676 0
-101 676 0
-102 676 0
-103 676 0
-104 676 0
-105 676 0
-136 676 0
-137 676 0
-138 676 0
-139 676 0
-140 676 0
-141 676 0
-142 676 0
-143 676 0
-144 676 0
-145 676 0
-146 676 0
-147 676 0
-148 676 0
-149 676 0
-150 676 0
-181 676 0
-182 676 0
-183 676 0
-184 676 0
-185 676 0
-186 676 0
-187 676 0
-188 676 0
-189 676 0
-190 676 0
-191 676 0
-192 676 0
-193 676 0
-194 676 0
-195 676 0
-226 676 0
-227 676 0
-228 676 0
-229 676 0
-230 676 0
-231 676 0
-232 676 0
-233 676 0
-234 676 0
-235 676 0
-236 676 0
-237 676 0
-238 676 0
-239 676 0
-240 676 0
-271 676 0
-272 676 0
-273 676 0
-274 676 0
-275 676 0
-276 676 0
-277 676 0
-278 676 0
-279 676 0
-280 676 0
-281 676 0
-282 676 0
-283 676 0
-284 676 0
-285 676 0
-316 676 0
-317 676 0
-318 676 0
-319 676 0
-320 676 0
-321 676 0
-322 676 0
-323 676 0
-324 676 0
-325 676 0
-326 676 0
-327 676 0
-328 676 0
-329 676 0
-330 676 0
-361 676 0
-362 676 0
-363 676 0
-364 676 0
-365 676 0
-366 676 0
-367 676 0
-368 676 0
-369 676 0
-370 676 0
-371 676 0
-372 676 0
-373 676 0
-374 676 0
-375 676 0
-406 676 0
-407 676 0
-408 676 0
-409 676 0
-410 676 0
-411 676 0
-412 676 0
-413 676 0
-414 676 0
-415 676 0
-416 676 0
-417 676 0
-418 676 0
-419 676 0
-420 676 0
-451 676 0
-452 676 0
-453 676 0
-454 676 0
-455 676 0
-456 676 0
-457 676 0
-458 676 0
-459 676 0
-460 676 0
-461 676 0
-462 676 0
-463 676 0
-464 676 0
-465 676 0
-496 676 0
-497 676 0
-498 676 0
-499 676 0
-500 676 0
-501 676 0
-502 676 0
-503 676 0
-504 676 0
-505 676 0
-506 676 0
-507 676 0
-508 676 0
-509 676 0
-510 676 0
-541 676 0
-542 676 0
-543 676 0
-544 676 0
-545 676 0
-546 676 0
-547 676 0
-548 676 0
-549 676 0
-550 676 0
-551 676 0
-552 676 0
-553 676 0
-554 676 0
-555 676 0
-586 676 0
-587 676 0
-588 676 0
-589 676 0
-590 676 0
-591 676 0
-592 676 0
-593 676 0
-594 676 0
-595 676 0
-596 676 0
-597 676 0
-598 676 0
-599 676 0
-600 676 0
-631 676 0
-632 676 0
-633 676 0
-634 676 0
-635 676 0
-636 676 0
-637 676 0
-638 676 0
-639 676 0
-640 676 0
-641 676 0
-642 676 0
-643 676 0
-644 676 0
-645 676 0
-16 -61 0
-16 -106 0
-16 -151 0
-16 -196 0
-16 -241 0
-16 -286 0
-16 -331 0
-16 -376 0
-16 -421 0
-61 -106 0
-61 -151 0
-61 -196 0
-61 -241 0
-61 -286 0
-61 -331 0
-61 -376 0
-61 -421 0
-106 -151 0
-106 -196 0
-106 -241 0
-106 -286 0
-106 -331 0
-106 -376 0
-106 -421 0
-151 -196 0
-151 -241 0
-151 -286 0
-151 -331 0
-151 -376 0
-151 -421 0
-196 -241 0
-196 -286 0
-196 -331 0
-196 -376 0
-196 -421 0
-241 -286 0
-241 -331 0
-241 -376 0
-241 -421 0
-286 -331 0
-286 -376 0
-286 -421 0
-331 -376 0
-331 -421 0
-376 -421 0
-17 -62 0
-17 -107 0
-17 -152 0
-17 -197 0
-17 -242 0
-17 -287 0
-17 -332 0
-17 -377 0
-17 -422 0
-62 -107 0
-62 -152 0
-62 -197 0
-62 -242 0
-62 -287 0
-62 -332 0
-62 -377 0
-62 -422 0
-107 -152 0
-107 -197 0
-107 -242 0
-107 -287 0
-107 -332 0
-107 -377 0
-107 -422 0
-152 -197 0
-152 -242 0
-152 -287 0
-152 -332 0
-152 -377 0
-152 -422 0
-197 -242 0
-197 -287 0
-197 -332 0
-197 -377 0
-197 -422 0
-242 -287 0
-242 -332 0
-242 -377 0
-242 -422 0
-287 -332 0
-287 -377 0
-287 -422 0
-332 -377 0
-332 -422 0
-377 -422 0
-18 -63 0
-18 -108 0
-18 -153 0
-18 -198 0
-18 -243 0
-18 -288 0
-18 -333 0
-18 -378 0
-18 -423 0
-63 -108 0
-63 -153 0
-63 -198 0
-63 -243 0
-63 -288 0
-63 -333 0
-63 -378 0
-63 -423 0
-108 -153 0
-108 -198 0
-108 -243 0
-108 -288 0
-108 -333 0
-108 -378 0
-108 -423 0
-153 -198 0
-153 -243 0
-153 -288 0
-153 -333 0
-153 -378 0
-153 -423 0
-198 -243 0
-198 -288 0
-198 -333 0
-198 -378 0
-198 -423 0
-243 -288 0
-243 -333 0
-243 -378 0
-243 -423 0
-288 -333 0
-288 -378 0
-288 -423 0
-333 -378 0
-333 -423 0
-378 -423 0
-19 -64 0
-19 -109 0
-19 -154 0
-19 -199 0
-19 -244 0
-19 -289 0
-19 -334 0
-19 -379 0
-19 -424 0
-64 -109 0
-64 -154 0
-64 -199 0
-64 -244 0
-64 -289 0
-64 -334 0
-64 -379 0
-64 -424 0
-109 -154 0
-109 -199 0
-109 -244 0
-109 -289 0
-109 -334 0
-109 -379 0
-109 -424 0
-154 -199 0
-154 -244 0
-154 -289 0
-154 -334 0
-154 -379 0
-154 -424 0
-199 -244 0
-199 -289 0
-199 -334 0
-199 -379 0
-199 -424 0
-244 -289 0
-244 -334 0
-244 -379 0
-244 -424 0
-289 -334 0
-289 -379 0
-289 -424 0
-334 -379 0
-334 -424 0
-379 -424 0
-20 -65 0
-20 -110 0
-20 -155 0
-20 -200 0
-20 -245 0
-20 -290 0
-20 -335 0
-20 -380 0
-20 -425 0
-65 -110 0
-65 -155 0
-65 -200 0
-65 -245 0
-65 -290 0
-65 -335 0
-65 -380 0
-65 -425 0
-110 -155 0
-110 -200 0
-110 -245 0
-110 -290 0
-110 -335 0
-110 -380 0
-110 -425 0
-155 -200 0
-155 -245 0
-155 -290 0
-155 -335 0
-155 -380 0
-155 -425 0
-200 -245 0
-200 -290 0
-200 -335 0
-200 -380 0
-200 -425 0
-245 -290 0
-245 -335 0
-245 -380 0
-245 -425 0
-290 -335 0
-290 -380 0
-290 -425 0
-335 -380 0
-335 -425 0
-380 -425 0
-21 -66 0
-21 -111 0
-21 -156 0
-21 -201 0
-21 -246 0
-21 -291 0
-21 -336 0
-21 -381 0
-21 -426 0
-66 -111 0
-66 -156 0
-66 -201 0
-66 -246 0
-66 -291 0
-66 -336 0
-66 -381 0
-66 -426 0
-111 -156 0
-111 -201 0
-111 -246 0
-111 -291 0
-111 -336 0
-111 -381 0
-111 -426 0
-156 -201 0
-156 -246 0
-156 -291 0
-156 -336 0
-156 -381 0
-156 -426 0
-201 -246 0
-201 -291 0
-201 -336 0
-201 -381 0
-201 -426 0
-246 -291 0
-246 -336 0
-246 -381 0
-246 -426 0
-291 -336 0
-291 -381 0
-291 -426 0
-336 -381 0
-336 -426 0
-381 -426 0
-22 -67 0
-22 -112 0
-22 -157 0
-22 -202 0
-22 -247 0
-22 -292 0
-22 -337 0
-22 -382 0
-22 -427 0
-67 -112 0
-67 -157 0
-67 -202 0
-67 -247 0
-67 -292 0
-67 -337 0
-67 -382 0
-67 -427 0
-112 -157 0
-112 -202 0
-112 -247 0
-112 -292 0
-112 -337 0
-112 -382 0
-112 -427 0
-157 -202 0
-157 -247 0
-157 -292 0
-157 -337 0
-157 -382 0
-157 -427 0
-202 -247 0
-202 -292 0
-202 -337 0
-202 -382 0
-202 -427 0
-247 -292 0
-247 -337 0
-247 -382 0
-247 -427 0
-292 -337 0
-292 -382 0
-292 -427 0
-337 -382 0
-337 -427 0
-382 -427 0
-23 -68 0
-23 -113 0
-23 -158 0
-23 -203 0
-23 -248 0
-23 -293 0
-23 -338 0
-23 -383 0
-23 -428 0
-68 -113 0
-68 -158 0
-68 -203 0
-68 -248 0
-68 -293 0
-68 -338 0
-68 -383 0
-68 -428 0
-113 -158 0
-113 -203 0
-113 -248 0
-113 -293 0
-113 -338 0
-113 -383 0
-113 -428 0
-158 -203 0
-158 -248 0
-158 -293 0
-158 -338 0
-158 -383 0
-158 -428 0
-203 -248 0
-203 -293 0
-203 -338 0
-203 -383 0
-203 -428 0
-248 -293 0
-248 -338 0
-248 -383 0
-248 -428 0
-293 -338 0
-293 -383 0
-293 -428 0
-338 -383 0
-338 -428 0
-383 -428 0
-24 -69 0
-24 -114 0
-24 -159 0
-24 -204 0
-24 -249 0
-24 -294 0
-24 -339 0
-24 -384 0
-24 -429 0
-69 -114 0
-69 -159 0
-69 -204 0
-69 -249 0
-69 -294 0
-69 -339 0
-69 -384 0
-69 -429 0
-114 -159 0
-114 -204 0
-114 -249 0
-114 -294 0
-114 -339 0
-114 -384 0
-114 -429 0
-159 -204 0
-159 -249 0
-159 -294 0
-159 -339 0
-159 -384 0
-159 -429 0
-204 -249 0
-204 -294 0
-204 -339 0
-204 -384 0
-204 -429 0
-249 -294 0
-249 -339 0
-249 -384 0
-249 -429 0
-294 -339 0
-294 -384 0
-294 -429 0
-339 -384 0
-339 -429 0
-384 -429 0
-25 -70 0
-25 -115 0
-25 -160 0
-25 -205 0
-25 -250 0
-25 -295 0
-25 -340 0
-25 -385 0
-25 -430 0
-70 -115 0
-70 -160 0
-70 -205 0
-70 -250 0
-70 -295 0
-70 -340 0
-70 -385 0
-70 -430 0
-115 -160 0
-115 -205 0
-115 -250 0
-115 -295 0
-115 -340 0
-115 -385 0
-115 -430 0
-160 -205 0
-160 -250 0
-160 -295 0
-160 -340 0
-160 -385 0
-160 -430 0
-205 -250 0
-205 -295 0
-205 -340 0
-205 -385 0
-205 -430 0
-250 -295 0
-250 -340 0
-250 -385 0
-250 -430 0
-295 -340 0
-295 -385 0
-295 -430 0
-340 -385 0
-340 -430 0
-385 -430 0
-26 -71 0
-26 -116 0
-26 -161 0
-26 -206 0
-26 -251 0
-26 -296 0
-26 -341 0
-26 -386 0
-26 -431 0
-71 -116 0
-71 -161 0
-71 -206 0
-71 -251 0
-71 -296 0
-71 -341 0
-71 -386 0
-71 -431 0
-116 -161 0
-116 -206 0
-116 -251 0
-116 -296 0
-116 -341 0
-116 -386 0
-116 -431 0
-161 -206 0
-161 -251 0
-161 -296 0
-161 -341 0
-161 -386 0
-161 -431 0
-206 -251 0
-206 -296 0
-206 -341 0
-206 -386 0
-206 -431 0
-251 -296 0
-251 -341 0
-251 -386 0
-251 -431 0
-296 -341 0
-296 -386 0
-296 -431 0
-341 -386 0
-341 -431 0
-386 -431 0
-27 -72 0
-27 -117 0
-27 -162 0
-27 -207 0
-27 -252 0
-27 -297 0
-27 -342 0
-27 -387 0
-27 -432 0
-72 -117 0
-72 -162 0
-72 -207 0
-72 -252 0
-72 -297 0
-72 -342 0
-72 -387 0
-72 -432 0
-117 -162 0
-117 -207 0
-117 -252 0
-117 -297 0
-117 -342 0
-117 -387 0
-117 -432 0
-162 -207 0
-162 -252 0
-162 -297 0
-162 -342 0
-162 -387 0
-162 -432 0
-207 -252 0
-207 -297 0
-207 -342 0
-207 -387 0
-207 -432 0
-252 -297 0
-252 -342 0
-252 -387 0
-252 -432 0
-297 -342 0
-297 -387 0
-297 -432 0
-342 -387 0
-342 -432 0
-387 -432 0
-28 -73 0
-28 -118 0
-28 -163 0
-28 -208 0
-28 -253 0
-28 -298 0
-28 -343 0
-28 -388 0
-28 -433 0
-73 -118 0
-73 -163 0
-73 -208 0
-73 -253 0
-73 -298 0
-73 -343 0
-73 -388 0
-73 -433 0
-118 -163 0
-118 -208 0
-118 -253 0
-118 -298 0
-118 -343 0
-118 -388 0
-118 -433 0
-163 -208 0
-163 -253 0
-163 -298 0
-163 -343 0
-163 -388 0
-163 -433 0
-208 -253 0
-208 -298 0
-208 -343 0
-208 -388 0
-208 -433 0
-253 -298 0
-253 -343 0
-253 -388 0
-253 -433 0
-298 -343 0
-298 -388 0
-298 -433 0
-343 -388 0
-343 -433 0
-388 -433 0
-29 -74 0
-29 -119 0
-29 -164 0
-29 -209 0
-29 -254 0
-29 -299 0
-29 -344 0
-29 -389 0
-29 -434 0
-74 -119 0
-74 -164 0
-74 -209 0
-74 -254 0
-74 -299 0
-74 -344 0
-74 -389 0
-74 -434 0
-119 -164 0
-119 -209 0
-119 -254 0
-119 -299 0
-119 -344 0
-119 -389 0
-119 -434 0
-164 -209 0
-164 -254 0
-164 -299 0
-164 -344 0
-164 -389 0
-164 -434 0
-209 -254 0
-209 -299 0
-209 -344 0
-209 -389 0
-209 -434 0
-254 -299 0
-254 -344 0
-254 -389 0
-254 -434 0
-299 -344 0
-299 -389 0
-299 -434 0
-344 -389 0
-344 -434 0
-389 -434 0
-30 -75 0
-30 -120 0
-30 -165 0
-30 -210 0
-30 -255 0
-30 -300 0
-30 -345 0
-30 -390 0
-30 -435 0
-75 -120 0
-75 -165 0
-75 -210 0
-75 -255 0
-75 -300 0
-75 -345 0
-75 -390 0
-75 -435 0
-120 -165 0
-120 -210 0
-120 -255 0
-120 -300 0
-120 -345 0
-120 -390 0
-120 -435 0
-165 -210 0
-165 -255 0
-165 -300 0
-165 -345 0
-165 -390 0
-165 -435 0
-210 -255 0
-210 -300 0
-210 -345 0
-210 -390 0
-210 -435 0
-255 -300 0
-255 -345 0
-255 -390 0
-255 -435 0
-300 -345 0
-300 -390 0
-300 -435 0
-345 -390 0
-345 -435 0
-390 -435 0
677 678 679 680 681 682 0
-677 -678 0
-677 -679 0
-677 -680 0
-677 -681 0
-677 -682 0
-678 -679 0
-678 -680 0
-678 -681 0
-678 -682 0
-679 -680 0
-679 -681 0
-679 -682 0
-680 -681 0
-680 -682 0
-681 -682 0
-16 677 0
-17 677 678 0
-18 677 678 679 0
-19 677 678 679 680 0
-20 677 678 679 680 681 0
-21 677 678 679 680 681 682 0
-22 677 678 679 680 681 682 0
-23 677 678 679 680 681 682 0
-24 677 678 679 680 681 682 0
-25 677 678 679 680 681 682 0
-26 678 679 680 681 682 0
-27 679 680 681 682 0
-28 680 681 682 0
-29 681 682 0
-30 682 0
-61 677 0
-62 677 678 0
-63 677 678 679 0
-64 677 678 679 680 0
-65 677 678 679 680 681 0
-66 677 678 679 680 681 682 0
-67 677 678 679 680 681 682 0
-68 677 678 679 680 681 682 0
-69 677 678 679 680 681 682 0
-70 677 678 679 680 681 682 0
-71 678 679 680 681 682 0
-72 679 680 681 682 0
-73 680 681 682 0
-74 681 682 0
-75 682 0
-106 677 0
-107 677 678 0
-108 677 678 679 0
-109 677 678 679 680 0
-110 677 678 679 680 681 0
-111 677 678 679 680 681 682 0
-112 677 678 679 680 681 682 0
-113 677 678 679 680 681 682 0
-114 677 678 679 680 681 682 0
-115 677 678 679 680 681 682 0
-116 678 679 680 681 682 0
-117 679 680 681 682 0
-118 680 681 682 0
-119 681 682 0
-120 682 0
-151 677 0
-152 677 678 0
-153 677 678 679 0
-154 677 678 679 680 0
-155 677 678 679 680 681 0
-156 677 678 679 680 681 682 0
-157 677 678 679 680 681 682 0
-158 677 678 679 680 681 682 0
-159 677 678 679 680 681 682 0
-160 677 678 679 680 681 682 0
-161 678 679 680 681 682 0
-162 679 680 681 682 0
-163 680 681 682 0
-164 681 682 0
-165 682 0
-196 677 0
-197 677 678 0
-198 677 678 679 0
-199 677 678 679 680 0
-200 677 678 679 680 681 0
-201 677 678 679 680 681 682 0
-202 677 678 679 680 681 682 0
-203 677 678 679 680 681 682 0
-204 677 678 679 680 681 682 0
-205 677 678 679 680 681 682 0
-206 678 679 680 681 682 0
-207 679 680 681 682 0
-208 680 681 682 0
-209 681 682 0
-210 682 0
-241 677 0
-242 677 678 0
-243 677 678 679 0
-244 677 678 679 680 0
-245 677 678 679 680 681 0
-246 677 678 679 680 681 682 0
-247 677 678 679 680 681 682 0
-248 677 678 679 680 681 682 0
-249 677 678 679 680 681 682 0
-250 677 678 679 680 681 682 0
-251 678 679 680 681 682 0
-252 679 680 681 682 0
-253 680 681 682 0
-254 681 682 0
-255 682 0
-286 677 0
-287 677 678 0
-288 677 678 679 0
-289 677 678 679 680 0
-290 677 678 679 680 681 0
-291 677 678 679 680 681 682 0
-292 677 678 679 680 681 682 0
-293 677 678 679 680 681 682 0
-294 677 678 679 680 681 682 0
-295 677 678 679 680 681 682 0
-296 678 679 680 681 682 0
-297 679 680 681 682 0
-298 680 681 682 0
-299 681 682 0
-300 682 0
-331 677 0
-332 677 678 0
-333 677 678 679 0
-334 677 678 679 680 0
-335 677 678 679 680 681 0
-336 677 678 679 680 681 682 0
-337 677 678 679 680 681 682 0
-338 677 678 679 680 681 682 0
-339 677 678 679 680 681 682 0
-340 677 678 679 680 681 682 0
-341 678 679 680 681 682 0
-342 679 680 681 682 0
-343 680 681 682 0
-344 681 682 0
-345 682 0
-376 677 0
-377 677 678 0
-378 677 678 679 0
-379 677 678 679 680 0
-380 677 678 679 680 681 0
-381 677 678 679 680 681 682 0
-382 677 678 679 680 681 682 0
-383 677 678 679 680 681 682 0
-384 677 678 679 680 681 682 0
-385 677 678 679 680 681 682 0
-386 678 679 680 681 682 0
-387 679 680 681 682 0
-388 680 681 682 0
-389 681 682 0
-390 682 0
-421 677 0
-422 677 678 0
-423 677 678 679 0
-424 677 678 679 680 0
-425 677 678 679 680 681 0
-426 677 678 679 680 681 682 0
-427 677 678 679 680 681 682 0
-428 677 678 679 680 681 682 0
-429 677 678 679 680 681 682 0
-430 677 678 679 680 681 682 0
-431 678 679 680 681 682 0
-432 679 680 681 682 0
-433 680 681 682 0
-434 681 682 0
-435 682 0
-677 -26 0
-677 -27 0
-677 -28 0
-677 -29 0
-677 -30 0
-677 -71 0
-677 -72 0
-677 -73 0
-677 -74 0
-677 -75 0
-677 -116 0
-677 -117 0
-677 -118 0
-677 -119 0
-677 -120 0
-677 -161 0
-677 -162 0
-677 -163 0
-677 -164 0
-677 -165 0
-677 -206 0
-677 -207 0
-677 -208 0
-677 -209 0
-677 -210 0
-677 -251 0
-677 -252 0
-677 -253 0
-677 -254 0
-677 -255 0
-677 -296 0
-677 -297 0
-677 -298 0
-677 -299 0
-677 -300 0
-677 -341 0
-677 -342 0
-677 -343 0
-677 -344 0
-677 -345 0
-677 -386 0
-677 -387 0
-677 -388 0
-677 -389 0
-677 -390 0
-677 -431 0
-677 -432 0
-677 -433 0
-677 -434 0
-677 -435 0
-678 -16 0
-678 -27 0
-678 -28 0
-678 -29 0
-678 -30 0
-678 -61 0
-678 -72 0
-678 -73 0
-678 -74 0
-678 -75 0
-678 -106 0
-678 -117 0
-678 -118 0
-678 -119 0
-678 -120 0
-678 -151 0
-678 -162 0
-678 -163 0
-678 -164 0
-678 -165 0
-678 -196 0
-678 -207 0
-678 -208 0
-678 -209 0
-678 -210 0
-678 -241 0
-678 -252 0
-678 -253 0
-678 -254 0
-678 -255 0
-678 -286 0
-678 -297 0
-678 -298 0
-678 -299 0
-678 -300 0
-678 -331 0
-678 -342 0
-678 -343 0
-678 -344 0
-678 -345 0
-678 -376 0
-678 -387 0
-678 -388 0
-678 -389 0
-678 -390 0
-678 -421 0
-678 -432 0
-678 -433 0
-678 -434 0
-678 -435 0
-679 -16 0
-679 -17 0
-679 -28 0
-679 -29 0
-679 -30 0
-679 -61 0
-679 -62 0
-679 -73 0
-679 -74 0
-679 -75 0
-679 -106 0
-679 -107 0
-679 -118 0
-679 -119 0
-679 -120 0
-679 -151 0
-679 -152 0
-679 -163 0
-679 -164 0
-679 -165 0
-679 -196 0
-679 -197 0
-679 -208 0
-679 -209 0
-679 -210 0
-679 -241 0
-679 -242 0
-679 -253 0
-679 -254 0
-679 -255 0
-679 -286 0
-679 -287 0
-679 -298 0
-679 -299 0
-679 -300 0
-679 -331 0
-679 -332 0
-679 -343 0
-679 -344 0
-679 -345 0
-679 -376 0
-679 -377 0
-679 -388 0
-679 -389 0
-679 -390 0
-679 -421 0
-679 -422 0
-679 -433 0
-679 -434 0
-679 -435 0
-680 -16 0
-680 -17 0
-680 -18 0
-680 -29 0
-680 -30 0
-680 -61 0
-680 -62 0
-680 -63 0
-680 -74 0
-680 -75 0
-680 -106 0
-680 -107 0
-680 -108 0
-680 -119 0
-680 -120 0
-680 -151 0
-680 -152 0
-680 -153 0
-680 -164 0
-680 -165 0
-680 -196 0
-680 -197 0
-680 -198 0
-680 -209 0
-680 -210 0
-680 -241 0
-680 -242 0
-680 -243 0
-680 -254 0
-680 -255 0
-680 -286 0
-680 -287 0
-680 -288 0
-680 -299 0
-680 -300 0
-680 -331 0
-680 -332 0
-680 -333 0
-680 -344 0
-680 -345 0
-680 -376 0
-680 -377 0
-680 -378 0
-680 -389 0
-680 -390 0
-680 -421 0
-680 -422 0
-680 -423 0
-680 -434 0
-680 -435 0
-681 -16 0
-681 -17 0
-681 -18 0
-681 -19 0
-681 -30 0
-681 -61 0
-681 -62 0
-681 -63 0
-681 -64 0
-681 -75 0
-681 -106 0
-681 -107 0
-681 -108 0
-681 -109 0
-681 -120 0
-681 -151 0
-681 -152 0
-681 -153 0
-681 -154 0
-681 -165 0
-681 -196 0
-681 -197 0
-681 -198 0
-681 -199 0
-681 -210 0
-681 -241 0
-681 -242 0
-681 -243 0
-681 -244 0
-681 -255 0
-681 -286 0
-681 -287 0
-681 -288 0
-681 -289 0
-681 -300 0
-681 -331 0
-681 -332 0
-681 -333 0
-681 -334 0
-681 -345 0
-681 -376 0
-681 -377 0
-681 -378 0
-681 -379 0
-681 -390 0
-681 -421 0
-681 -422 0
-681 -423 0
-681 -424 0
-681 -435 0
-682 -16 0
-682 -17 0
-682 -18 0
-682 -19 0
-682 -20 0
-682 -61 0
-682 -62 0
-682 -63 0
-682 -64 0
-682 -65 0
-682 -106 0
-682 -107 0
-682 -108 0
-682 -109 0
-682 -110 0
-682 -151 0
-682 -152 0
-682 -153 0
-682 -154 0
-682 -155 0
-682 -196 0
-682 -197 0
-682 -198 0
-682 -199 0
-682 -200 0
-682 -241 0
-682 -242 0
-682 -243 0
-682 -244 0
-682 -245 0
-682 -286 0
-682 -287 0
-682 -288 0
-682 -289 0
-682 -290 0
-682 -331 0
-682 -332 0
-682 -333 0
-682 -334 0
-682 -335 0
-682 -376 0
-682 -377 0
-682 -378 0
-682 -379 0
-682 -380 0
-682 -421 0
-682 -422 0
-682 -423 0
-682 -424 0
-682 -425 0
-31 -76 0
-31 -121 0
-31 -166 0
-31 -211 0
-31 -466 0
-31 -511 0
-31 -556 0
-31 -601 0
-31 -646 0
-76 -121 0
-76 -166 0
-76 -211 0
-76 -466 0
-76 -511 0
-76 -556 0
-76 -601 0
-76 -646 0
-121 -166 0
-121 -211 0
-121 -466 0
-121 -511 0
-121 -556 0
-121 -601 0
-121 -646 0
-166 -211 0
-166 -466 0
-166 -511 0
-166 -556 0
-166 -601 0
-166 -646 0
-211 -466 0
-211 -511 0
-211 -556 0
-211 -601 0
-211 -646 0
-466 -511 0
-466 -556 0
-466 -601 0
-466 -646 0
-511 -556 0
-511 -601 0
-511 -646 0
-556 -601 0
-556 -646 0
-601 -646 0
-32 -77 0
-32 -122 0
-32 -167 0
-32 -212 0
-32 -467 0
-32 -512 0
-32 -557 0
-32 -602 0
-32 -647 0
-77 -122 0
-77 -167 0
-77 -212 0
-77 -467 0
-77 -512 0
-77 -557 0
-77 -602 0
-77 -647 0
-122 -167 0
-122 -212 0
-122 -467 0
-122 -512 0
-122 -557 0
-122 -602 0
-122 -647 0
-167 -212 0
-167 -467 0
-167 -512 0
-167 -557 0
-167 -602 0
-167 -647 0
-212 -467 0
-212 -512 0
-212 -557 0
-212 -602 0
-212 -647 0
-467 -512 0
-467 -557 0
-467 -602 0
-467 -647 0
-512 -557 0
-512 -602 0
-512 -647 0
-557 -602 0
-557 -647 0
-602 -647 0
-33 -78 0
-33 -123 0
-33 -168 0
-33 -213 0
-33 -468 0
-33 -513 0
-33 -558 0
-33 -603 0
-33 -648 0
-78 -123 0
-78 -168 0
-78 -213 0
-78 -468 0
-78 -513 0
-78 -558 0
-78 -603 0
-78 -648 0
-123 -168 0
-123 -213 0
-123 -468 0
-123 -513 0
-123 -558 0
-123 -603 0
-123 -648 0
-168 -213 0
-168 -468 0
-168 -513 0
-168 -558 0
-168 -603 0
-168 -648 0
-213 -468 0
-213 -513 0
-213 -558 0
-213 -603 0
-213 -648 0
-468 -513 0
-468 -558 0
-468 -603 0
-468 -648 0
-513 -558 0
-513 -603 0
-513 -648 0
-558 -603 0
-558 -648 0
-603 -648 0
-34 -79 0
-34 -124 0
-34 -169 0
-34 -214 0
-34 -469 0
-34 -514 0
-34 -559 0
-34 -604 0
-34 -649 0
-79 -124 0
-79 -169 0
-79 -214 0
-79 -469 0
-79 -514 0
-79 -559 0
-79 -604 0
-79 -649 0
-124 -169 0
-124 -214 0
-124 -469 0
-124 -514 0
-124 -559 0
-124 -604 0
-124 -649 0
-169 -214 0
-169 -469 0
-169 -514 0
-169 -559 0
-169 -604 0
-169 -649 0
-214 -469 0
-214 -514 0
-214 -559 0
-214 -604 0
-214 -649 0
-469 -514 0
-469 -559 0
-469 -604 0
-469 -649 0
-514 -559 0
-514 -604 0
-514 -649 0
-559 -604 0
-559 -649 0
-604 -649 0
-35 -80 0
-35 -125 0
-35 -170 0
-35 -215 0
-35 -470 0
-35 -515 0
-35 -560 0
-35 -605 0
-35 -650 0
-80 -125 0
-80 -170 0
-80 -215 0
-80 -470 0
-80 -515 0
-80 -560 0
-80 -605 0
-80 -650 0
-125 -170 0
-125 -215 0
-125 -470 0
-125 -515 0
-125 -560 0
-125 -605 0
-125 -650 0
-170 -215 0
-170 -470 0
-170 -515 0
-170 -560 0
-170 -605 0
-170 -650 0
-215 -470 0
-215 -515 0
-215 -560 0
-215 -605 0
-215 -650 0
-470 -515 0
-470 -560 0
-470 -605 0
-470 -650 0
-515 -560 0
-515 -605 0
-515 -650 0
-560 -605 0
-560 -650 0
-605 -650 0
-36 -81 0
-36 -126 0
-36 -171 0
-36 -216 0
-36 -471 0
-36 -516 0
-36 -561 0
-36 -606 0
-36 -651 0
-81 -126 0
-81 -171 0
-81 -216 0
-81 -471 0
-81 -516 0
-81 -561 0
-81 -606 0
-81 -651 0
-126 -171 0
-126 -216 0
-126 -471 0
-126 -516 0
-126 -561 0
-126 -606 0
-126 -651 0
-171 -216 0
-171 -471 0
-171 -516 0
-171 -561 0
-171 -606 0
-171 -651 0
-216 -471 0
-216 -516 0
-216 -561 0
-216 -606 0
-216 -651 0
-471 -516 0
-471 -561 0
-471 -606 0
-471 -651 0
-516 -561 0
-516 -606 0
-516 -651 0
-561 -606 0
-561 -651 0
-606 -651 0
-37 -82 0
-37 -127 0
-37 -172 0
-37 -217 0
-37 -472 0
-37 -517 0
-37 -562 0
-37 -607 0
-37 -652 0
-82 -127 0
-82 -172 0
-82 -217 0
-82 -472 0
-82 -517 0
-82 -562 0
-82 -607 0
-82 -652 0
-127 -172 0
-127 -217 0
-127 -472 0
-127 -517 0
-127 -562 0
-127 -607 0
-127 -652 0
-172 -217 0
-172 -472 0
-172 -517 0
-172 -562 0
-172 -607 0
-172 -652 0
-217 -472 0
-217 -517 0
-217 -562 0
-217 -607 0
-217 -652 0
-472 -517 0
-472 -562 0
-472 -607 0
-472 -652 0
-517 -562 0
-517 -607 0
-517 -652 0
-562 -607 0
-562 -652 0
-607 -652 0
-38 -83 0
-38 -128 0
-38 -173 0
-38 -218 0
-38 -473 0
-38 -518 0
-38 -563 0
-38 -608 0
-38 -653 0
-83 -128 0
-83 -173 0
-83 -218 0
-83 -473 0
-83 -518 0
-83 -563 0
-83 -608 0
-83 -653 0
-128 -173 0
-128 -218 0
-128 -473 0
-128 -518 0
-128 -563 0
-128 -608 0
-128 -653 0
-173 -218 0
-173 -473 0
-173 -518 0
-173 -563 0
-173 -608 0
-173 -653 0
-218 -473 0
-218 -518 0
-218 -563 0
-218 -608 0
-218 -653 0
-473 -518 0
-473 -563 0
-473 -608 0
-473 -653 0
-518 -563 0
-518 -608 0
-518 -653 0
-563 -608 0
-563 -653 0
-608 -653 0
-39 -84 0
-39 -129 0
-39 -174 0
-39 -219 0
-39 -474 0
-39 -519 0
-39 -564 0
-39 -609 0
-39 -654 0
-84 -129 0
-84 -174 0
-84 -219 0
-84 -474 0
-84 -519 0
-84 -564 0
-84 -609 0
-84 -654 0
-129 -174 0
-129 -219 0
-129 -474 0
-129 -519 0
-129 -564 0
-129 -609 0
-129 -654 0
-174 -219 0
-174 -474 0
-174 -519 0
-174 -564 0
-174 -609 0
-174 -654 0
-219 -474 0
-219 -519 0
-219 -564 0
-219 -609 0
-219 -654 0
-474 -519 0
-474 -564 0
-474 -609 0
-474 -654 0
-519 -564 0
-519 -609 0
-519 -654 0
-564 -609 0
-564 -654 0
-609 -654 0
-40 -85 0
-40 -130 0
-40 -175 0
-40 -220 0
-40 -475 0
-40 -520 0
-40 -565 0
-40 -610 0
-40 -655 0
-85 -130 0
-85 -175 0
-85 -220 0
-85 -475 0
-85 -520 0
-85 -565 0
-85 -610 0
-85 -655 0
-130 -175 0
-130 -220 0
-130 -475 0
-130 -520 0
-130 -565 0
-130 -610 0
-130 -655 0
-175 -220 0
-175 -475 0
-175 -520 0
-175 -565 0
-175 -610 0
-175 -655 0
-220 -475 0
-220 -520 0
-220 -565 0
-220 -610 0
-220 -655 0
-475 -520 0
-475 -565 0
-475 -610 0
-475 -655 0
-520 -565 0
-520 -610 0
-520 -655 0
-565 -610 0
-565 -655 0
-610 -655 0
-41 -86 0
-41 -131 0
-41 -176 0
-41 -221 0
-41 -476 0
-41 -521 0
-41 -566 0
-41 -611 0
-41 -656 0
-86 -131 0
-86 -176 0
-86 -221 0
-86 -476 0
-86 -521 0
-86 -566 0
-86 -611 0
-86 -656 0
-131 -176 0
-131 -221 0
-131 -476 0
-131 -521 0
-131 -566 0
-131 -611 0
-131 -656 0
-176 -221 0
-176 -476 0
-176 -521 0
-176 -566 0
-176 -611 0
-176 -656 0
-221 -476 0
-221 -521 0
-221 -566 0
-221 -611 0
-221 -656 0
-476 -521 0
-476 -566 0
-476 -611 0
-476 -656 0
-521 -566 0
-521 -611 0
-521 -656 0
-566 -611 0
-566 -656 0
-611 -656 0
-42 -87 0
-42 -132 0
-42 -177 0
-42 -222 0
-42 -477 0
-42 -522 0
-42 -567 0
-42 -612 0
-42 -657 0
-87 -132 0
-87 -177 0
-87 -222 0
-87 -477 0
-87 -522 0
-87 -567 0
-87 -612 0
-87 -657 0
-132 -177 0
-132 -222 0
-132 -477 0
-132 -522 0
-132 -567 0
-132 -612 0
-132 -657 0
-177 -222 0
-177 -477 0
-177 -522 0
-177 -567 0
-177 -612 0
-177 -657 0
-222 -477 0
-222 -522 0
-222 -567 0
-222 -612 0
-222 -657 0
-477 -522 0
-477 -567 0
-477 -612 0
-477 -657 0
-522 -567 0
-522 -612 0
-522 -657 0
-567 -612 0
-567 -657 0
-612 -657 0
-43 -88 0
-43 -133 0
-43 -178 0
-43 -223 0
-43 -478 0
-43 -523 0
-43 -568 0
-43 -613 0
-43 -658 0
-88 -133 0
-88 -178 0
-88 -223 0
-88 -478 0
-88 -523 0
-88 -568 0
-88 -613 0
-88 -658 0
-133 -178 0
-133 -223 0
-133 -478 0
-133 -523 0
-133 -568 0
-133 -613 0
-133 -658 0
-178 -223 0
-178 -478 0
-178 -523 0
-178 -568 0
-178 -613 0
-178 -658 0
-223 -478 0
-223 -523 0
-223 -568 0
-223 -613 0
-223 -658 0
-478 -523 0
-478 -568 0
-478 -613 0
-478 -658 0
-523 -568 0
-523 -613 0
-523 -658 0
-568 -613 0
-568 -658 0
-613 -658 0
-44 -89 0
-44 -134 0
-44 -179 0
-44 -224 0
-44 -479 0
-44 -524 0
-44 -569 0
-44 -614 0
-44 -659 0
-89 -134 0
-89 -179 0
-89 -224 0
-89 -479 0
-89 -524 0
-89 -569 0
-89 -614 0
-89 -659 0
-134 -179 0
-134 -224 0
-134 -479 0
-134 -524 0
-134 -569 0
-134 -614 0
-134 -659 0
-179 -224 0
-179 -479 0
-179 -524 0
-179 -569 0
-179 -614 0
-179 -659 0
-224 -479 0
-224 -524 0
-224 -569 0
-224 -614 0
-224 -659 0
-479 -524 0
-479 -569 0
-479 -614 0
-479 -659 0
-524 -569 0
-524 -614 0
-524 -659 0
-569 -614 0
-569 -659 0
-614 -659 0
-45 -90 0
-45 -135 0
-45 -180 0
-45 -225 0
-45 -480 0
-45 -525 0
-45 -570 0
-45 -615 0
-45 -660 0
-90 -135 0
-90 -180 0
-90 -225 0
-90 -480 0
-90 -525 0
-90 -570 0
-90 -615 0
-90 -660 0
-135 -180 0
-135 -225 0
-135 -480 0
-135 -525 0
-135 -570 0
-135 -615 0
-135 -660 0
-180 -225 0
-180 -480 0
-180 -525 0
-180 -570 0
-180 -615 0
-180 -660 0
-225 -480 0
-225 -525 0
-225 -570 0
-225 -615 0
-225 -660 0
-480 -525 0
-480 -570 0
-480 -615 0
-480 -660 0
-525 -570 0
-525 -615 0
-525 -660 0
-570 -615 0
-570 -660 0
-615 -660 0
683 684 685 686 687 688 0
-683 -684 0
-683 -685 0
-683 -686 0
-683 -687 0
-683 -688 0
-684 -685 0
-684 -686 0
-684 -687 0
-684 -688 0
-685 -686 0
-685 -687 0
-685 -688 0
-686 -687 0
-686 -688 0
-687 -688 0
-31 683 0
-32 683 684 0
-33 683 684 685 0
-34 683 684 685 686 0
-35 683 684 685 686 687 0
-36 683 684 685 686 687 688 0
-37 683 684 685 686 687 688 0
-38 683 684 685 686 687 688 0
-39 683 684 685 686 687 688 0
-40 683 684 685 686 687 688 0
-41 684 685 686 687 688 0
-42 685 686 687 688 0
-43 686 687 688 0
-44 687 688 0
-45 688 0
-76 683 0
-77 683 684 0
-78 683 684 685 0
-79 683 684 685 686 0
-80 683 684 685 686 687 0
-81 683 684 685 686 687 688 0
-82 683 684 685 686 687 688 0
-83 683 684 685 686 687 688 0
-84 683 684 685 686 687 688 0
-85 683 684 685 686 687 688 0
-86 684 685 686 687 688 0
-87 685 686 687 688 0
-88 686 687 688 0
-89 687 688 0
-90 688 0
-121 683 0
-122 683 684 0
-123 683 684 685 0
-124 683 684 685 686 0
-125 683 684 685 686 687 0
-126 683 684 685 686 687 688 0
-127 683 684 685 686 687 688 0
-128 683 684 685 686 687 688 0
-129 683 684 685 686 687 688 0
-130 683 684 685 686 687 688 0
-131 684 685 686 687 688 0
-132 685 686 687 688 0
-133 686 687 688 0
-134 687 688 0
-135 688 0
-166 683 0
-167 683 684 0
-168 683 684 685 0
-169 683 684 685 686 0
-170 683 684 685 686 687 0
-171 683 684 685 686 687 688 0
-172 683 684 685 686 687 688 0
-173 683 684 685 686 687 688 0
-174 683 684 685 686 687 688 0
-175 683 684 685 686 687 688 0
-176 684 685 686 687 688 0
-177 685 686 687 688 0
-178 686 687 688 0
-179 687 688 0
-180 688 0
-211 683 0
-212 683 684 0
-213 683 684 685 0
-214 683 684 685 686 0
-215 683 684 685 686 687 0
-216 683 684 685 686 687 688 0
-217 683 684 685 686 687 688 0
-218 683 684 685 686 687 688 0
-219 683 684 685 686 687 688 0
-220 683 684 685 686 687 688 0
-221 684 685 686 687 688 0
-222 685 686 687 688 0
-223 686 687 688 0
-224 687 688 0
-225 688 0
-466 683 0
-467 683 684 0
-468 683 684 685 0
-469 683 684 685 686 0
-470 683 684 685 686 687 0
-471 683 684 685 686 687 688 0
-472 683 684 685 686 687 688 0
-473 683 684 685 686 687 688 0
-474 683 684 685 686 687 688 0
-475 683 684 685 686 687 688 0
-476 684 685 686 687 688 0
-477 685 686 687 688 0
-478 686 687 688 0
-479 687 688 0
-480 688 0
-511 683 0
-512 683 684 0
-513 683 684 685 0
-514 683 684 685 686 0
-515 683 684 685 686 687 0
-516 683 684 685 686 687 688 0
-517 683 684 685 686 687 688 0
-518 683 684 685 686 687 688 0
-519 683 684 685 686 687 688 0
-520 683 684 685 686 687 688 0
-521 684 685 686 687 688 0
-522 685 686 687 688 0
-523 686 687 688 0
-524 687 688 0
-525 688 0
-556 683 0
-557 683 684 0
-558 683 684 685 0
-559 683 684 685 686 0
-560 683 684 685 686 687 0
-561 683 684 685 686 687 688 0
-562 683 684 685 686 687 688 0
-563 683 684 685 686 687 688 0
-564 683 684 685 686 687 688 0
-565 683 684 685 686 687 688 0
-566 684 685 686 687 688 0
-567 685 686 687 688 0
-568 686 687 688 0
-569 687 688 0
-570 688 0
-601 683 0
-602 683 684 0
-603 683 684 685 0
-604 683 684 685 686 0
-605 683 684 685 686 687 0
-606 683 684 685 686 687 688 0
-607 683 684 685 686 687 688 0
-608 683 684 685 686 687 688 0
-609 683 684 685 686 687 688 0
-610 683 684 685 686 687 688 0
-611 684 685 686 687 688 0
-612 685 686 687 688 0
-613 686 687 688 0
-614 687 688 0
-615 688 0
-646 683 0
-647 683 684 0
-648 683 684 685 0
-649 683 684 685 686 0
-650 683 684 685 686 687 0
-651 683 684 685 686 687 688 0
-652 683 684 685 686 687 688 0
-653 683 684 685 686 687 688 0
-654 683 684 685 686 687 688 0
-655 683 684 685 686 687 688 0
-656 684 685 686 687 688 0
-657 685 686 687 688 0
-658 686 687 688 0
-659 687 688 0
-660 688 0
-683 -41 0
-683 -42 0
-683 -43 0
-683 -44 0
-683 -45 0
-683 -86 0
-683 -87 0
-683 -88 0
-683 -89 0
-683 -90 0
-683 -131 0
-683 -132 0
-683 -133 0
-683 -134 0
-683 -135 0
-683 -176 0
-683 -177 0
-683 -178 0
-683 -179 0
-683 -180 0
-683 -221 0
-683 -222 0
-683 -223 0
-683 -224 0
-683 -225 0
-683 -476 0
-683 -477 0
-683 -478 0
-683 -479 0
-683 -480 0
-683 -521 0
-683 -522 0
-683 -523 0
-683 -524 0
-683 -525 0
-683 -566 0
-683 -567 0
-683 -568 0
-683 -569 0
-683 -570 0
-683 -611 0
-683 -612 0
-683 -613 0
-683 -614 0
-683 -615 0
-683 -656 0
-683 -657 0
-683 -658 0
-683 -659 0
-683 -660 0
-684 -31 0
-684 -42 0
-684 -43 0
-684 -44 0
-684 -45 0
-684 -76 0
-684 -87 0
-684 -88 0
-684 -89 0
-684 -90 0
-684 -121 0
-684 -132 0
-684 -133 0
-684 -134 0
-684 -135 0
-684 -166 0
-684 -177 0
-684 -178 0
-684 -179 0
-684 -180 0
-684 -211 0
-684 -222 0
-684 -223 0
-684 -224 0
-684 -225 0
-684 -466 0
-684 -477 0
-684 -478 0
-684 -479 0
-684 -480 0
-684 -511 0
-684 -522 0
-684 -523 0
-684 -524 0
-684 -525 0
-684 -556 0
-684 -567 0
-684 -568 0
-684 -569 0
-684 -570 0
-684 -601 0
-684 -612 0
-684 -613 0
-684 -614 0
-684 -615 0
-684 -646 0
-684 -657 0
-684 -658 0
-684 -659 0
-684 -660 0
-685 -31 0
-685 -32 0
-685 -43 0
-685 -44 0
-685 -45 0
-685 -76 0
-685 -77 0
-685 -88 0
-685 -89 0
-685 -90 0
-685 -121 0
-685 -122 0
-685 -133 0
-685 -134 0
-685 -135 0
-685 -166 0
-685 -167 0
-685 -178 0
-685 -179 0
-685 -180 0
-685 -211 0
-685 -212 0
-685 -223 0
-685 -224 0
-685 -225 0
-685 -466 0
-685 -467 0
-685 -478 0
-685 -479 0
-685 -480 0
-685 -511 0
-685 -512 0
-685 -523 0
-685 -524 0
-685 -525 0
-685 -556 0
-685 -557 0
-685 -568 0
-685 -569 0
-685 -570 0
-685 -601 0
-685 -602 0
-685 -613 0
-685 -614 0
-685 -615 0
-685 -646 0
-685 -647 0
-685 -658 0
-685 -659 0
-685 -660 0
-686 -31 0
-686 -32 0
-686 -33 0
-686 -44 0
-686 -45 0
-686 -76 0
-686 -77 0
-686 -78 0
-686 -89 0
-686 -90 0
-686 -121 0
-686 -122 0
-686 -123 0
-686 -134 0
-686 -135 0
-686 -166 0
-686 -167 0
-686 -168 0
-686 -179 0
-686 -180 0
-686 -211 0
-686 -212 0
-686 -213 0
-686 -224 0
-686 -225 0
-686 -466 0
-686 -467 0
-686 -468 0
-686 -479 0
-686 -480 0
-686 -511 0
-686 -512 0
-686 -513 0
-686 -524 0
-686 -525 0
-686 -556 0
-686 -557 0
-686 -558 0
-686 -569 0
-686 -570 0
-686 -601 0
-686 -602 0
-686 -603 0
-686 -614 0
-686 -615 0
-686 -646 0
-686 -647 0
-686 -648 0
-686 -659 0
-686 -660 0
-687 -31 0
-687 -32 0
-687 -33 0
-687 -34 0
-687 -45 0
-687 -76 0
-687 -77 0
-687 -78 0
-687 -79 0
-687 -90 0
-687 -121 0
-687 -122 0
-687 -123 0
-687 -124 0
-687 -135 0
-687 -166 0
-687 -167 0
-687 -168 0
-687 -169 0
-687 -180 0
-687 -211 0
-687 -212 0
-687 -213 0
-687 -214 0
-687 -225 0
-687 -466 0
-687 -467 0
-687 -468 0
-687 -469 0
-687 -480 0
-687 -511 0
-687 -512 0
-687 -513 0
-687 -514 0
-687 -525 0
-687 -556 0
-687 -557 0
-687 -558 0
-687 -559 0
-687 -570 0
-687 -601 0
-687 -602 0
-687 -603 0
-687 -604 0
-687 -615 0
-687 -646 0
-687 -647 0
-687 -648 0
-687 -649 0
-687 -660 0
-688 -31 0
-688 -32 0
-688 -33 0
-688 -34 0
-688 -35 0
-688 -76 0
-688 -77 0
-688 -78 0
-688 -79 0
-688 -80 0
-688 -121 0
-688 -122 0
-688 -123 0
-688 -124 0
-688 -125 0
-688 -166 0
-688 -167 0
-688 -168 0
-688 -169 0
-688 -170 0
-688 -211 0
-688 -212 0
-688 -213 0
-688 -214 0
-688 -215 0
-688 -466 0
-688 -467 0
-688 -468 0
-688 -469 0
-688 -470 0
-688 -511 0
-688 -512 0
-688 -513 0
-688 -514 0
-688 -515 0
-688 -556 0
-688 -557 0
-688 -558 0
-688 -559 0
-688 -560 0
-688 -601 0
-688 -602 0
-688 -603 0
-688 -604 0
-688 -605 0
-688 -646 0
-688 -647 0
-688 -648 0
-688 -649 0
-688 -650 0
-256 -301 0
-256 -346 0
-256 -391 0
-256 -436 0
-256 -481 0
-256 -526 0
-256 -571 0
-256 -616 0
-256 -661 0
-301 -346 0
-301 -391 0
-301 -436 0
-301 -481 0
-301 -526 0
-301 -571 0
-301 -616 0
-301 -661 0
-346 -391 0
-346 -436 0
-346 -481 0
-346 -526 0
-346 -571 0
-346 -616 0
-346 -661 0
-391 -436 0
-391 -481 0
-391 -526 0
-391 -571 0
-391 -616 0
-391 -661 0
-436 -481 0
-436 -526 0
-436 -571 0
-436 -616 0
-436 -661 0
-481 -526 0
-481 -571 0
-481 -616 0
-481 -661 0
-526 -571 0
-526 -616 0
-526 -661 0
-571 -616 0
-571 -661 0
-616 -661 0
-257 -302 0
-257 -347 0
-257 -392 0
-257 -437 0
-257 -482 0
-257 -527 0
-257 -572 0
-257 -617 0
-257 -662 0
-302 -347 0
-302 -392 0
-302 -437 0
-302 -482 0
-302 -527 0
-302 -572 0
-302 -617 0
-302 -662 0
-347 -392 0
-347 -437 0
-347 -482 0
-347 -527 0
-347 -572 0
-347 -617 0
-347 -662 0
-392 -437 0
-392 -482 0
-392 -527 0
-392 -572 0
-392 -617 0
-392 -662 0
-437 -482 0
-437 -527 0
-437 -572 0
-437 -617 0
-437 -662 0
-482 -527 0
-482 -572 0
-482 -617 0
-482 -662 0
-527 -572 0
-527 -617 0
-527 -662 0
-572 -617 0
-572 -662 0
-617 -662 0
-258 -303 0
-258 -348 0
-258 -393 0
-258 -438 0
-258 -483 0
-258 -528 0
-258 -573 0
-258 -618 0
-258 -663 0
-303 -348 0
-303 -393 0
-303 -438 0
-303 -483 0
-303 -528 0
-303 -573 0
-303 -618 0
-303 -663 0
-348 -393 0
-348 -438 0
-348 -483 0
-348 -528 0
-348 -573 0
-348 -618 0
-348 -663 0
-393 -438 0
-393 -483 0
-393 -528 0
-393 -573 0
-393 -618 0
-393 -663 0
-438 -483 0
-438 -528 0
-438 -573 0
-438 -618 0
-438 -663 0
-483 -528 0
-483 -573 0
-483 -618 0
-483 -663 0
-528 -573 0
-528 -618 0
-528 -663 0
-573 -618 0
-573 -663 0
-618 -663 0
-259 -304 0
-259 -349 0
-259 -394 0
-259 -439 0
-259 -484 0
-259 -529 0
-259 -574 0
-259 -619 0
-259 -664 0
-304 -349 0
-304 -394 0
-304 -439 0
-304 -484 0
-304 -529 0
-304 -574 0
-304 -619 0
-304 -664 0
-349 -394 0
-349 -439 0
-349 -484 0
-349 -529 0
-349 -574 0
-349 -619 0
-349 -664 0
-394 -439 0
-394 -484 0
-394 -529 0
-394 -574 0
-394 -619 0
-394 -664 0
-439 -484 0
-439 -529 0
-439 -574 0
-439 -619 0
-439 -664 0
-484 -529 0
-484 -574 0
-484 -619 0
-484 -664 0
-529 -574 0
-529 -619 0
-529 -664 0
-574 -619 0
-574 -664 0
-619 -664 0
-260 -305 0
-260 -350 0
-260 -395 0
-260 -440 0
-260 -485 0
-260 -530 0
-260 -575 0
-260 -620 0
-260 -665 0
-305 -350 0
-305 -395 0
-305 -440 0
-305 -485 0
-305 -530 0
-305 -575 0
-305 -620 0
-305 -665 0
-350 -395 0
-350 -440 0
-350 -485 0
-350 -530 0
-350 -575 0
-350 -620 0
-350 -665 0
-395 -440 0
-395 -485 0
-395 -530 0
-395 -575 0
-395 -620 0
-395 -665 0
-440 -485 0
-440 -530 0
-440 -575 0
-440 -620 0
-440 -665 0
-485 -530 0
-485 -575 0
-485 -620 0
-485 -665 0
-530 -575 0
-530 -620 0
-530 -665 0
-575 -620 0
-575 -665 0
-620 -665 0
-261 -306 0
-261 -351 0
-261 -396 0
-261 -441 0
-261 -486 0
-261 -531 0
-261 -576 0
-261 -621 0
-261 -666 0
-306 -351 0
-306 -396 0
-306 -441 0
-306 -486 0
-306 -531 0
-306 -576 0
-306 -621 0
-306 -666 0
-351 -396 0
-351 -441 0
-351 -486 0
-351 -531 0
-351 -576 0
-351 -621 0
-351 -666 0
-396 -441 0
-396 -486 0
-396 -531 0
-396 -576 0
-396 -621 0
-396 -666 0
-441 -486 0
-441 -531 0
-441 -576 0
-441 -621 0
-441 -666 0
-486 -531 0
-486 -576 0
-486 -621 0
-486 -666 0
-531 -576 0
-531 -621 0
-531 -666 0
-576 -621 0
-576 -666 0
-621 -666 0
-262 -307 0
-262 -352 0
-262 -397 0
-262 -442 0
-262 -487 0
-262 -532 0
-262 -577 0
-262 -622 0
-262 -667 0
-307 -352 0
-307 -397 0
-307 -442 0
-307 -487 0
-307 -532 0
-307 -577 0
-307 -622 0
-307 -667 0
-352 -397 0
-352 -442 0
-352 -487 0
-352 -532 0
-352 -577 0
-352 -622 0
-352 -667 0
-397 -442 0
-397 -487 0
-397 -532 0
-397 -577 0
-397 -622 0
-397 -667 0
-442 -487 0
-442 -532 0
-442 -577 0
-442 -622 0
-442 -667 0
-487 -532 0
-487 -577 0
-487 -622 0
-487 -667 0
-532 -577 0
-532 -622 0
-532 -667 0
-577 -622 0
-577 -667 0
-622 -667 0
-263 -308 0
-263 -353 0
-263 -398 0
-263 -443 0
-263 -488 0
-263 -533 0
-263 -578 0
-263 -623 0
-263 -668 0
-308 -353 0
-308 -398 0
-308 -443 0
-308 -488 0
-308 -533 0
-308 -578 0
-308 -623 0
-308 -668 0
-353 -398 0
-353 -443 0
-353 -488 0
-353 -533 0
-353 -578 0
-353 -623 0
-353 -668 0
-398 -443 0
-398 -488 0
-398 -533 0
-398 -578 0
-398 -623 0
-398 -668 0
-443 -488 0
-443 -533 0
-443 -578 0
-443 -623 0
-443 -668 0
-488 -533 0
-488 -578 0
-488 -623 0
-488 -668 0
-533 -578 0
-533 -623 0
-533 -668 0
-578 -623 0
-578 -668 0
-623 -668 0
-264 -309 0
-264 -354 0
-264 -399 0
-264 -444 0
-264 -489 0
-264 -534 0
-264 -579 0
-264 -624 0
-264 -669 0
-309 -354 0
-309 -399 0
-309 -444 0
-309 -489 0
-309 -534 0
-309 -579 0
-309 -624 0
-309 -669 0
-354 -399 0
-354 -444 0
-354 -489 0
-354 -534 0
-354 -579 0
-354 -624 0
-354 -669 0
-399 -444 0
-399 -489 0
-399 -534 0
-399 -579 0
-399 -624 0
-399 -669 0
-444 -489 0
-444 -534 0
-444 -579 0
-444 -624 0
-444 -669 0
-489 -534 0
-489 -579 0
-489 -624 0
-489 -669 0
-534 -579 0
-534 -624 0
-534 -669 0
-579 -624 0
-579 -669 0
-624 -669 0
-265 -310 0
-265 -355 0
-265 -400 0
-265 -445 0
-265 -490 0
-265 -535 0
-265 -580 0
-265 -625 0
-265 -670 0
-310 -355 0
-310 -400 0
-310 -445 0
-310 -490 0
-310 -535 0
-310 -580 0
-310 -625 0
-310 -670 0
-355 -400 0
-355 -445 0
-355 -490 0
-355 -535 0
-355 -580 0
-355 -625 0
-355 -670 0
-400 -445 0
-400 -490 0
-400 -535 0
-400 -580 0
-400 -625 0
-400 -670 0
-445 -490 0
-445 -535 0
-445 -580 0
-445 -625 0
-445 -670 0
-490 -535 0
-490 -580 0
-490 -625 0
-490 -670 0
-535 -580 0
-535 -625 0
-535 -670 0
-580 -625 0
-580 -670 0
-625 -670 0
-266 -311 0
-266 -356 0
-266 -401 0
-266 -446 0
-266 -491 0
-266 -536 0
-266 -581 0
-266 -626 0
-266 -671 0
-311 -356 0
-311 -401 0
-311 -446 0
-311 -491 0
-311 -536 0
-311 -581 0
-311 -626 0
-311 -671 0
-356 -401 0
-356 -446 0
-356 -491 0
-356 -536 0
-356 -581 0
-356 -626 0
-356 -671 0
-401 -446 0
-401 -491 0
-401 -536 0
-401 -581 0
-401 -626 0
-401 -671 0
-446 -491 0
-446 -536 0
-446 -581 0
-446 -626 0
-446 -671 0
-491 -536 0
-491 -581 0
-491 -626 0
-491 -671 0
-536 -581 0
-536 -626 0
-536 -671 0
-581 -626 0
-581 -671 0
-626 -671 0
-267 -312 0
-267 -357 0
-267 -402 0
-267 -447 0
-267 -492 0
-267 -537 0
-267 -582 0
-267 -627 0
-267 -672 0
-312 -357 0
-312 -402 0
-312 -447 0
-312 -492 0
-312 -537 0
-312 -582 0
-312 -627 0
-312 -672 0
-357 -402 0
-357 -447 0
-357 -492 0
-357 -537 0
-357 -582 0
-357 -627 0
-357 -672 0
-402 -447 0
-402 -492 0
-402 -537 0
-402 -582 0
-402 -627 0
-402 -672 0
-447 -492 0
-447 -537 0
-447 -582 0
-447 -627 0
-447 -672 0
-492 -537 0
-492 -582 0
-492 -627 0
-492 -672 0
-537 -582 0
-537 -627 0
-537 -672 0
-582 -627 0
-582 -672 0
-627 -672 0
-268 -313 0
-268 -358 0
-268 -403 0
-268 -448 0
-268 -493 0
-268 -538 0
-268 -583 0
-268 -628 0
-268 -673 0
-313 -358 0
-313 -403 0
-313 -448 0
-313 -493 0
-313 -538 0
-313 -583 0
-313 -628 0
-313 -673 0
-358 -403 0
-358 -448 0
-358 -493 0
-358 -538 0
-358 -583 0
-358 -628 0
-358 -673 0
-403 -448 0
-403 -493 0
-403 -538 0
-403 -583 0
-403 -628 0
-403 -673 0
-448 -493 0
-448 -538 0
-448 -583 0
-448 -628 0
-448 -673 0
-493 -538 0
-493 -583 0
-493 -628 0
-493 -673 0
-538 -583 0
-538 -628 0
-538 -673 0
-583 -628 0
-583 -673 0
-628 -673 0
-269 -314 0
-269 -359 0
-269 -404 0
-269 -449 0
-269 -494 0
-269 -539 0
-269 -584 0
-269 -629 0
-269 -674 0
-314 -359 0
-314 -404 0
-314 -449 0
-314 -494 0
-314 -539 0
-314 -584 0
-314 -629 0
-314 -674 0
-359 -404 0
-359 -449 0
-359 -494 0
-359 -539 0
-359 -584 0
-359 -629 0
-359 -674 0
-404 -449 0
-404 -494 0
-404 -539 0
-404 -584 0
-404 -629 0
-404 -674 0
-449 -494 0
-449 -539 0
-449 -584 0
-449 -629 0
-449 -674 0
-494 -539 0
-494 -584 0
-494 -629 0
-494 -674 0
-539 -584 0
-539 -629 0
-539 -674 0
-584 -629 0
-584 -674 0
-629 -674 0
-270 -315 0
-270 -360 0
-270 -405 0
-270 -450 0
-270 -495 0
-270 -540 0
-270 -585 0
-270 -630 0
-270 -675 0
-315 -360 0
-315 -405 0
-315 -450 0
-315 -495 0
-315 -540 0
-315 -585 0
-315 -630 0
-315 -675 0
-360 -405 0
-360 -450 0
-360 -495 0
-360 -540 0
-360 -585 0
-360 -630 0
-360 -675 0
-405 -450 0
-405 -495 0
-405 -540 0
-405 -585 0
-405 -630 0
-405 -675 0
-450 -495 0
-450 -540 0
-450 -585 0
-450 -630 0
-450 -675 0
-495 -540 0
-495 -585 0
-495 -630 0
-495 -675 0
-540 -585 0
-540 -630 0
-540 -675 0
-585 -630 0
-585 -675 0
-630 -675 0
689 690 691 692 693 694 0
-689 -690 0
-689 -691 0
-689 -692 0
-689 -693 0
-689 -694 0
-690 -691 0
-690 -692 0
-690 -693 0
-690 -694 0
-691 -692 0
-691 -693 0
-691 -694 0
-692 -693 0
-692 -694 0
-693 -694 0
-256 689 0
-257 689 690 0
-258 689 690 691 0
-259 689 690 691 692 0
-260 689 690 691 692 693 0
-261 689 690 691 692 693 694 0
-262 689 690 691 692 693 694 0
-263 689 690 691 692 693 694 0
-264 689 690 691 692 693 694 0
-265 689 690 691 692 693 694 0
-266 690 691 692 693 694 0
-267 691 692 693 694 0
-268 692 693 694 0
-269 693 694 0
-270 694 0
-301 689 0
-302 689 690 0
-303 689 690 691 0
-304 689 690 691 692 0
-305 689 690 691 692 693 0
-306 689 690 691 692 693 694 0
-307 689 690 691 692 693 694 0
-308 689 690 691 692 693 694 0
-309 689 690 691 692 693 694 0
-310 689 690 691 692 693 694 0
-311 690 691 692 693 694 0
-312 691 692 693 694 0
-313 692 693 694 0
-314 693 694 0
-315 694 0
-346 689 0
-347 689 690 0
-348 689 690 691 0
-349 689 690 691 692 0
-350 689 690 691 692 693 0
-351 689 690 691 692 693 694 0
-352 689 690 691 692 693 694 0
-353 689 690 691 692 693 694 0
-354 689 690 691 692 693 694 0
-355 689 690 691 692 693 694 0
-356 690 691 692 693 694 0
-357 691 692 693 694 0
-358 692 693 694 0
-359 693 694 0
-360 694 0
-391 689 0
-392 689 690 0
-393 689 690 691 0
-394 689 690 691 692 0
-395 689 690 691 692 693 0
-396 689 690 691 692 693 694 0
-397 689 690 691 692 693 694 0
-398 689 690 691 692 693 694 0
-399 689 690 691 692 693 694 0
-400 689 690 691 692 693 694 0
-401 690 691 692 693 694 0
-402 691 692 693 694 0
-403 692 693 694 0
-404 693 694 0
-405 694 0
-436 689 0
-437 689 690 0
-438 689 690 691 0
-439 689 690 691 692 0
-440 689 690 691 692 693 0
-441 689 690 691 692 693 694 0
-442 689 690 691 692 693 694 0
-443 689 690 691 692 693 694 0
-444 689 690 691 692 693 694 0
-445 689 690 691 692 693 694 0
-446 690 691 692 693 694 0
-447 691 692 693 694 0
-448 692 693 694 0
-449 693 694 0
-450 694 0
-481 689 0
-482 689 690 0
-483 689 690 691 0
-484 689 690 691 692 0
-485 689 690 691 692 693 0
-486 689 690 691 692 693 694 0
-487 689 690 691 692 693 694 0
-488 689 690 691 692 693 694 0
-489 689 690 691 692 693 694 0
-490 689 690 691 692 693 694 0
-491 690 691 692 693 694 0
-492 691 692 693 694 0
-493 692 693 694 0
-494 693 694 0
-495 694 0
-526 689 0
-527 689 690 0
-528 689 690 691 0
-529 689 690 691 692 0
-530 689 690 691 692 693 0
-531 689 690 691 692 693 694 0
-532 689 690 691 692 693 694 0
-533 689 690 691 692 693 694 0
-534 689 690 691 692 693 694 0
-535 689 690 691 692 693 694 0
-536 690 691 692 693 694 0
-537 691 692 693 694 0
-538 692 693 694 0
-539 693 694 0
-540 694 0
-571 689 0
-572 689 690 0
-573 689 690 691 0
-574 689 690 691 692 0
-575 689 690 691 692 693 0
-576 689 690 691 692 693 694 0
-577 689 690 691 692 693 694 0
-578 689 690 691 692 693 694 0
-579 689 690 691 692 693 694 0
-580 689 690 691 692 693 694 0
-581 690 691 692 693 694 0
-582 691 692 693 694 0
-583 692 693 694 0
-584 693 694 0
-585 694 0
-616 689 0
-617 689 690 0
-618 689 690 691 0
-619 689 690 691 692 0
-620 689 690 691 692 693 0
-621 689 690 691 692 693 694 0
-622 689 690 691 692 693 694 0
-623 689 690 691 692 693 694 0
-624 689 690 691 692 693 694 0
-625 689 690 691 692 693 694 0
-626 690 691 692 693 694 0
-627 691 692 693 694 0
-628 692 693 694 0
-629 693 694 0
-630 694 0
-661 689 0
-662 689 690 0
-663 689 690 691 0
-664 689 690 691 692 0
-665 689 690 691 692 693 0
-666 689 690 691 692 693 694 0
-667 689 690 691 692 693 694 0
-668 689 690 691 692 693 694 0
-669 689 690 691 692 693 694 0
-670 689 690 691 692 693 694 0
-671 690 691 692 693 694 0
-672 691 692 693 694 0
-673 692 693 694 0
-674 693 694 0
-675 694 0
-689 -266 0
-689 -267 0
-689 -268 0
-689 -269 0
-689 -270 0
-689 -311 0
-689 -312 0
-689 -313 0
-689 -314 0
-689 -315 0
-689 -356 0
-689 -357 0
-689 -358 0
-689 -359 0
-689 -360 0
-689 -401 0
-689 -402 0
-689 -403 0
-689 -404 0
-689 -405 0
-689 -446 0
-689 -447 0
-689 -448 0
-689 -449 0
-689 -450 0
-689 -491 0
-689 -492 0
-689 -493 0
-689 -494 0
-689 -495 0
-689 -536 0
-689 -537 0
-689 -538 0
-689 -539 0
-689 -540 0
-689 -581 0
-689 -582 0
-689 -583 0
-689 -584 0
-689 -585 0
-689 -626 0
-689 -627 0
-689 -628 0
-689 -629 0
-689 -630 0
-689 -671 0
-689 -672 0
-689 -673 0
-689 -674 0
-689 -675 0
-690 -256 0
-690 -267 0
-690 -268 0
-690 -269 0
-690 -270 0
-690 -301 0
-690 -312 0
-690 -313 0
-690 -314 0
-690 -315 0
-690 -346 0
-690 -357 0
-690 -358 0
-690 -359 0
-690 -360 0
-690 -391 0
-690 -402 0
-690 -403 0
-690 -404 0
-690 -405 0
-690 -436 0
-690 -447 0
-690 -448 0
-690 -449 0
-690 -450 0
-690 -481 0
-690 -492 0
-690 -493 0
-690 -494 0
-690 -495 0
-690 -526 0
-690 -537 0
-690 -538 0
-690 -539 0
-690 -540 0
-690 -571 0
-690 -582 0
-690 -583 0
-690 -584 0
-690 -585 0
-690 -616 0
-690 -627 0
-690 -628 0
-690 -629 0
-690 -630 0
-690 -661 0
-690 -672 0
-690 -673 0
-690 -674 0
-690 -675 0
-691 -256 0
-691 -257 0
-691 -268 0
-691 -269 0
-691 -270 0
-691 -301 0
-691 -302 0
-691 -313 0
-691 -314 0
-691 -315 0
-691 -346 0
-691 -347 0
-691 -358 0
-691 -359 0
-691 -360 0
-691 -391 0
-691 -392 0
-691 -403 0
-691 -404 0
-691 -405 0
-691 -436 0
-691 -437 0
-691 -448 0
-691 -449 0
-691 -450 0
-691 -481 0
-691 -482 0
-691 -493 0
-691 -494 0
-691 -495 0
-691 -526 0
-691 -527 0
-691 -538 0
-691 -539 0
-691 -540 0
-691 -571 0
-691 -572 0
-691 -583 0
-691 -584 0
-691 -585 0
-691 -616 0
-691 -617 0
-691 -628 0
-691 -629 0
-691 -630 0
-691 -661 0
-691 -662 0
-691 -673 0
-691 -674 0
-691 -675 0
-692 -256 0
-692 -257 0
-692 -258 0
-692 -269 0
-692 -270 0
-692 -301 0
-692 -302 0
-692 -303 0
-692 -314 0
-692 -315 0
-692 -346 0
-692 -347 0
-692 -348 0
-692 -359 0
-692 -360 0
-692 -391 0
-692 -392 0
-692 -393 0
-692 -404 0
-692 -405 0
-692 -436 0
-692 -437 0
-692 -438 0
-692 -449 0
-692 -450 0
-692 -481 0
-692 -482 0
-692 -483 0
-692 -494 0
-692 -495 0
-692 -526 0
-692 -527 0
-692 -528 0
-692 -539 0
-692 -540 0
-692 -571 0
-692 -572 0
-692 -573 0
-692 -584 0
-692 -585 0
-692 -616 0
-692 -617 0
-692 -618 0
-692 -629 0
-692 -630 0
-692 -661 0
-692 -662 0
-692 -663 0
-692 -674 0
-692 -675 0
-693 -256 0
-693 -257 0
-693 -258 0
-693 -259 0
-693 -270 0
-693 -301 0
-693 -302 0
-693 -303 0
-693 -304 0
-693 -315 0
-693 -346 0
-693 -347 0
-693 -348 0
-693 -349 0
-693 -360 0
-693 -391 0
-693 -392 0
-693 -393 0
-693 -394 0
-693 -405 0
-693 -436 0
-693 -437 0
-693 -438 0
-693 -439 0
-693 -450 0
-693 -481 0
-693 -482 0
-693 -483 0
-693 -484 0
-693 -495 0
-693 -526 0
-693 -527 0
-693 -528 0
-693 -529 0
-693 -540 0
-693 -571 0
-693 -572 0
-693 -573 0
-693 -574 0
-693 -585 0
-693 -616 0
-693 -617 0
-693 -618 0
-693 -619 0
-693 -630 0
-693 -661 0
-693 -662 0
-693 -663 0
-693 -664 0
-693 -675 0
-694 -256 0
-694 -257 0
-694 -258 0
-694 -259 0
-694 -260 0
-694 -301 0
-694 -302 0
-694 -303 0
-694 -304 0
-694 -305 0
-694 -346 0
-694 -347 0
-694 -348 0
-694 -349 0
-694 -350 0
-694 -391 0
-694 -392 0
-694 -393 0
-694 -394 0
-694 -395 0
-694 -436 0
-694 -437 0
-694 -438 0
-694 -439 0
-694 -440 0
-694 -481 0
-694 -482 0
-694 -483 0
-694 -484 0
-694 -485 0
-694 -526 0
-694 -527 0
-694 -528 0
-694 -529 0
-694 -530 0
-694 -571 0
-694 -572 0
-694 -573 0
-694 -574 0
-694 -575 0
-694 -616 0
-694 -617 0
-694 -618 0
-694 -619 0
-694 -620 0
-694 -661 0
-694 -662 0
-694 -663 0
-694 -664 0
-694 -665 0
-1 -16 0
-1 -31 0
-16 -31 0
-2 -17 0
-2 -32 0
-17 -32 0
-3 -18 0
-3 -33 0
-18 -33 0
-4 -19 0
-4 -34 0
-19 -34 0
-5 -20 0
-5 -35 0
-20 -35 0
-6 -21 0
-6 -36 0
-21 -36 0
-7 -22 0
-7 -37 0
-22 -37 0
-8 -23 0
-8 -38 0
-23 -38 0
-9 -24 0
-9 -39 0
-24 -39 0
-10 -25 0
-10 -40 0
-25 -40 0
-11 -26 0
-11 -41 0
-26 -41 0
-12 -27 0
-12 -42 0
-27 -42 0
-13 -28 0
-13 -43 0
-28 -43 0
-14 -29 0
-14 -44 0
-29 -44 0
-15 -30 0
-15 -45 0
-30 -45 0
695 696 697 698 699 700 701 702 703 704 705 706 707 0
-695 -696 0
-695 -697 0
-695 -698 0
-695 -699 0
-695 -700 0
-695 -701 0
-695 -702 0
-695 -703 0
-695 -704 0
-695 -705 0
-695 -706 0
-695 -707 0
-696 -697 0
-696 -698 0
-696 -699 0
-696 -700 0
-696 -701 0
-696 -702 0
-696 -703 0
-696 -704 0
-696 -705 0
-696 -706 0
-696 -707 0
-697 -698 0
-697 -699 0
-697 -700 0
-697 -701 0
-697 -702 0
-697 -703 0
-697 -704 0
-697 -705 0
-697 -706 0
-697 -707 0
-698 -699 0
-698 -700 0
-698 -701 0
-698 -702 0
-698 -703 0
-698 -704 0
-698 -705 0
-698 -706 0
-698 -707 0
-699 -700 0
-699 -701 0
-699 -702 0
-699 -703 0
-699 -704 0
-699 -705 0
-699 -706 0
-699 -707 0
-700 -701 0
-700 -702 0
-700 -703 0
-700 -704 0
-700 -705 0
-700 -706 0
-700 -707 0
-701 -702 0
-701 -703 0
-701 -704 0
-701 -705 0
-701 -706 0
-701 -707 0
-702 -703 0
-702 -704 0
-702 -705 0
-702 -706 0
-702 -707 0
-703 -704 0
-703 -705 0
-703 -706 0
-703 -707 0
-704 -705 0
-704 -706 0
-704 -707 0
-705 -706 0
-705 -707 0
-706 -707 0
-1 695 0
-2 695 696 0
-3 695 696 697 0
-4 696 697 698 0
-5 697 698 699 0
-6 698 699 700 0
-7 699 700 701 0
-8 700 701 702 0
-9 701 702 703 0
-10 702 703 704 0
-11 703 704 705 0
-12 704 705 706 0
-13 705 706 707 0
-14 706 707 0
-15 707 0
-16 695 0
-17 695 696 0
-18 695 696 697 0
-19 696 697 698 0
-20 697 698 699 0
-21 698 699 700 0
-22 699 700 701 0
-23 700 701 702 0
-24 701 702 703 0
-25 702 703 704 0
-26 703 704 705 0
-27 704 705 706 0
-28 705 706 707 0
-29 706 707 0
-30 707 0
-31 695 0
-32 695 696 0
-33 695 696 697 0
-34 696 697 698 0
-35 697 698 699 0
-36 698 699 700 0
-37 699 700 701 0
-38 700 701 702 0
-39 701 702 703 0
-40 702 703 704 0
-41 703 704 705 0
-42 704 705 706 0
-43 705 706 707 0
-44 706 707 0
-45 707 0
-695 -4 0
-695 -5 0
-695 -6 0
-695 -7 0
-695 -8 0
-695 -9 0
-695 -10 0
-695 -11 0
-695 -12 0
-695 -13 0
-695 -14 0
-695 -15 0
-695 -19 0
-695 -20 0
-695 -21 0
-695 -22 0
-695 -23 0
-695 -24 0
-695 -25 0
-695 -26 0
-695 -27 0
-695 -28 0
-695 -29 0
-695 -30 0
-695 -34 0
-695 -35 0
-695 -36 0
-695 -37 0
-695 -38 0
-695 -39 0
-695 -40 0
-695 -41 0
-695 -42 0
-695 -43 0
-695 -44 0
-695 -45 0
-696 -1 0
-696 -5 0
-696 -6 0
-696 -7 0
-696 -8 0
-696 -9 0
-696 -10 0
-696 -11 0
-696 -12 0
-696 -13 0
-696 -14 0
-696 -15 0
-696 -16 0
-696 -20 0
-696 -21 0
-696 -22 0
-696 -23 0
-696 -24 0
-696 -25 0
-696 -26 0
-696 -27 0
-696 -28 0
-696 -29 0
-696 -30 0
-696 -31 0
-696 -35 0
-696 -36 0
-696 -37 0
-696 -38 0
-696 -39 0
-696 -40 0
-696 -41 0
-696 -42 0
-696 -43 0
-696 -44 0
-696 -45 0
-697 -1 0
-697 -2 0
-697 -6 0
-697 -7 0
-697 -8 0
-697 -9 0
-697 -10 0
-697 -11 0
-697 -12 0
-697 -13 0
-697 -14 0
-697 -15 0
-697 -16 0
-697 -17 0
-697 -21 0
-697 -22 0
-697 -23 0
-697 -24 0
-697 -25 0
-697 -26 0
-697 -27 0
-697 -28 0
-697 -29 0
-697 -30 0
-697 -31 0
-697 -32 0
-697 -36 0
-697 -37 0
-697 -38 0
-697 -39 0
-697 -40 0
-697 -41 0
-697 -42 0
-697 -43 0
-697 -44 0
-697 -45 0
-698 -1 0
-698 -2 0
-698 -3 0
-698 -7 0
-698 -8 0
-698 -9 0
-698 -10 0
-698 -11 0
-698 -12 0
-698 -13 0
-698 -14 0
-698 -15 0
-698 -16 0
-698 -17 0
-698 -18 0
-698 -22 0
-698 -23 0
-698 -24 0
-698 -25 0
-698 -26 0
-698 -27 0
-698 -28 0
-698 -29 0
-698 -30 0
-698 -31 0
-698 -32 0
-698 -33 0
-698 -37 0
-698 -38 0
-698 -39 0
-698 -40 0
-698 -41 0
-698 -42 0
-698 -43 0
-698 -44 0
-698 -45 0
-699 -1 0
-699 -2 0
-699 -3 0
-699 -4 0
-699 -8 0
-699 -9 0
-699 -10 0
-699 -11 0
-699 -12 0
-699 -13 0
-699 -14 0
-699 -15 0
-699 -16 0
-699 -17 0
-699 -18 0
-699 -19 0
-699 -23 0
-699 -24 0
-699 -25 0
-699 -26 0
-699 -27 0
-699 -28 0
-699 -29 0
-699 -30 0
-699 -31 0
-699 -32 0
-699 -33 0
-699 -34 0
-699 -38 0
-699 -39 0
-699 -40 0
-699 -41 0
-699 -42 0
-699 -43 0
-699 -44 0
-699 -45 0
-700 -1 0
-700 -2 0
-700 -3 0
-700 -4 0
-700 -5 0
-700 -9 0
-700 -10 0
-700 -11 0
-700 -12 0
-700 -13 0
-700 -14 0
-700 -15 0
-700 -16 0
-700 -17 0
-700 -18 0
-700 -19 0
-700 -20 0
-700 -24 0
-700 -25 0
-700 -26 0
-700 -27 0
-700 -28 0
-700 -29 0
-700 -30 0
-700 -31 0
-700 -32 0
-700 -33 0
-700 -34 0
-700 -35 0
-700 -39 0
-700 -40 0
-700 -41 0
-700 -42 0
-700 -43 0
-700 -44 0
-700 -45 0
-701 -1 0
-701 -2 0
-701 -3 0
-701 -4 0
-701 -5 0
-701 -6 0
-701 -10 0
-701 -11 0
-701 -12 0
-701 -13 0
-701 -14 0
-701 -15 0
-701 -16 0
-701 -17 0
-701 -18 0
-701 -19 0
-701 -20 0
-701 -21 0
-701 -25 0
-701 -26 0
-701 -27 0
-701 -28 0
-701 -29 0
-701 -30 0
-701 -31 0
-701 -32 0
-701 -33 0
-701 -34 0
-701 -35 0
-701 -36 0
-701 -40 0
-701 -41 0
-701 -42 0
-701 -43 0
-701 -44 0
-701 -45 0
-702 -1 0
-702 -2 0
-702 -3 0
-702 -4 0
-702 -5 0
-702 -6 0
-702 -7 0
-702 -11 0
-702 -12 0
-702 -13 0
-702 -14 0
-702 -15 0
-702 -16 0
-702 -17 0
-702 -18 0
-702 -19 0
-702 -20 0
-702 -21 0
-702 -22 0
-702 -26 0
-702 -27 0
-702 -28 0
-702 -29 0
-702 -30 0
-702 -31 0
-702 -32 0
-702 -33 0
-702 -34 0
-702 -35 0
-702 -36 0
-702 -37 0
-702 -41 0
-702 -42 0
-702 -43 0
-702 -44 0
-702 -45 0
-703 -1 0
-703 -2 0
-703 -3 0
-703 -4 0
-703 -5 0
-703 -6 0
-703 -7 0
-703 -8 0
-703 -12 0
-703 -13 0
-703 -14 0
-703 -15 0
-703 -16 0
-703 -17 0
-703 -18 0
-703 -19 0
-703 -20 0
-703 -21 0
-703 -22 0
-703 -23 0
-703 -27 0
-703 -28 0
-703 -29 0
-703 -30 0
-703 -31 0
-703 -32 0
-703 -33 0
-703 -34 0
-703 -35 0
-703 -36 0
-703 -37 0
-703 -38 0
-703 -42 0
-703 -43 0
-703 -44 0
-703 -45 0
-704 -1 0
-704 -2 0
-704 -3 0
-704 -4 0
-704 -5 0
-704 -6 0
-704 -7 0
-704 -8 0
-704 -9 0
-704 -13 0
-704 -14 0
-704 -15 0
-704 -16 0
-704 -17 0
-704 -18 0
-704 -19 0
-704 -20 0
-704 -21 0
-704 -22 0
-704 -23 0
-704 -24 0
-704 -28 0
-704 -29 0
-704 -30 0
-704 -31 0
-704 -32 0
-704 -33 0
-704 -34 0
-704 -35 0
-704 -36 0
-704 -37 0
-704 -38 0
-704 -39 0
-704 -43 0
-704 -44 0
-704 -45 0
-705 -1 0
-705 -2 0
-705 -3 0
-705 -4 0
-705 -5 0
-705 -6 0
-705 -7 0
-705 -8 0
-705 -9 0
-705 -10 0
-705 -14 0
-705 -15 0
-705 -16 0
-705 -17 0
-705 -18 0
-705 -19 0
-705 -20 0
-705 -21 0
-705 -22 0
-705 -23 0
-705 -24 0
-705 -25 0
-705 -29 0
-705 -30 0
-705 -31 0
-705 -32 0
-705 -33 0
-705 -34 0
-705 -35 0
-705 -36 0
-705 -37 0
-705 -38 0
-705 -39 0
-705 -40 0
-705 -44 0
-705 -45 0
-706 -1 0
-706 -2 0
-706 -3 0
-706 -4 0
-706 -5 0
-706 -6 0
-706 -7 0
-706 -8 0
-706 -9 0
-706 -10 0
-706 -11 0
-706 -15 0
-706 -16 0
-706 -17 0
-706 -18 0
-706 -19 0
-706 -20 0
-706 -21 0
-706 -22 0
-706 -23 0
-706 -24 0
-706 -25 0
-706 -26 0
-706 -30 0
-706 -31 0
-706 -32 0
-706 -33 0
-706 -34 0
-706 -35 0
-706 -36 0
-706 -37 0
-706 -38 0
-706 -39 0
-706 -40 0
-706 -41 0
-706 -45 0
-707 -1 0
-707 -2 0
-707 -3 0
-707 -4 0
-707 -5 0
-707 -6 0
-707 -7 0
-707 -8 0
-707 -9 0
-707 -10 0
-707 -11 0
-707 -12 0
-707 -16 0
-707 -17 0
-707 -18 0
-707 -19 0
-707 -20 0
-707 -21 0
-707 -22 0
-707 -23 0
-707 -24 0
-707 -25 0
-707 -26 0
-707 -27 0
-707 -31 0
-707 -32 0
-707 -33 0
-707 -34 0
-707 -35 0
-707 -36 0
-707 -37 0
-707 -38 0
-707 -39 0
-707 -40 0
-707 -41 0
-707 -42 0
-46 -61 0
-46 -76 0
-61 -76 0
-47 -62 0
-47 -77 0
-62 -77 0
-48 -63 0
-48 -78 0
-63 -78 0
-49 -64 0
-49 -79 0
-64 -79 0
-50 -65 0
-50 -80 0
-65 -80 0
-51 -66 0
-51 -81 0
-66 -81 0
-52 -67 0
-52 -82 0
-67 -82 0
-53 -68 0
-53 -83 0
-68 -83 0
-54 -69 0
-54 -84 0
-69 -84 0
-55 -70 0
-55 -85 0
-70 -85 0
-56 -71 0
-56 -86 0
-71 -86 0
-57 -72 0
-57 -87 0
-72 -87 0
-58 -73 0
-58 -88 0
-73 -88 0
-59 -74 0
-59 -89 0
-74 -89 0
-60 -75 0
-60 -90 0
-75 -90 0
708 709 710 711 712 713 714 715 716 717 718 719 720 0
-708 -709 0
-708 -710 0
-708 -711 0
-708 -712 0
-708 -713 0
-708 -714 0
-708 -715 0
-708 -716 0
-708 -717 0
-708 -718 0
-708 -719 0
-708 -720 0
-709 -710 0
-709 -711 0
-709 -712 0
-709 -713 0
-709 -714 0
-709 -715 0
-709 -716 0
-709 -717 0
-709 -718 0
-709 -719 0
-709 -720 0
-710 -711 0
-710 -712 0
-710 -713 0
-710 -714 0
-710 -715 0
-710 -716 0
-710 -717 0
-710 -718 0
-710 -719 0
-710 -720 0
-711 -712 0
-711 -713 0
-711 -714 0
-711 -715 0
-711 -716 0
-711 -717 0
-711 -718 0
-711 -719 0
-711 -720 0
-712 -713 0
-712 -714 0
-712 -715 0
-712 -716 0
-712 -717 0
-712 -718 0
-712 -719 0
-712 -720 0
-713 -714 0
-713 -715 0
-713 -716 0
-713 -717 0
-713 -718 0
-713 -719 0
-713 -720 0
-714 -715 0
-714 -716 0
-714 -717 0
-714 -718 0
-714 -719 0
-714 -720 0
-715 -716 0
-715 -717 0
-715 -718 0
-715 -719 0
-715 -720 0
-716 -717 0
-716 -718 0
-716 -719 0
-716 -720 0
-717 -718 0
-717 -719 0
-717 -720 0
-718 -719 0
-718 -720 0
-719 -720 0
-46 708 0
-47 708 709 0
-48 708 709 710 0
-49 709 710 711 0
-50 710 711 712 0
-51 711 712 713 0
-52 712 713 714 0
-53 713 714 715 0
-54 714 715 716 0
-55 715 716 717 0
-56 716 717 718 0
-57 717 718 719 0
-58 718 719 720 0
-59 719 720 0
-60 720 0
-61 708 0
-62 708 709 0
-63 708 709 710 0
-64 709 710 711 0
-65 710 711 712 0
-66 711 712 713 0
-67 712 713 714 0
-68 713 714 715 0
-69 714 715 716 0
-70 715 716 717 0
-71 716 717 718 0
-72 717 718 719 0
-73 718 719 720 0
-74 719 720 0
-75 720 0
-76 708 0
-77 708 709 0
-78 708 709 710 0
-79 709 710 711 0
-80 710 711 712 0
-81 711 712 713 0
-82 712 713 714 0
-83 713 714 715 0
-84 714 715 716 0
-85 715 716 717 0
-86 716 717 718 0
-87 717 718 719 0
-88 718 719 720 0
-89 719 720 0
-90 720 0
-708 -49 0
-708 -50 0
-708 -51 0
-708 -52 0
-708 -53 0
-708 -54 0
-708 -55 0
-708 -56 0
-708 -57 0
-708 -58 0
-708 -59 0
-708 -60 0
-708 -64 0
-708 -65 0
-708 -66 0
-708 -67 0
-708 -68 0
-708 -69 0
-708 -70 0
-708 -71 0
-708 -72 0
-708 -73 0
-708 -74 0
-708 -75 0
-708 -79 0
-708 -80 0
-708 -81 0
-708 -82 0
-708 -83 0
-708 -84 0
-708 -85 0
-708 -86 0
-708 -87 0
-708 -88 0
-708 -89 0
-708 -90 0
-709 -46 0
-709 -50 0
-709 -51 0
-709 -52 0
-709 -53 0
-709 -54 0
-709 -55 0
-709 -56 0
-709 -57 0
-709 -58 0
-709 -59 0
-709 -60 0
-709 -61 0
-709 -65 0
-709 -66 0
-709 -67 0
-709 -68 0
-709 -69 0
-709 -70 0
-709 -71 0
-709 -72 0
-709 -73 0
-709 -74 0
-709 -75 0
-709 -76 0
-709 -80 0
-709 -81 0
-709 -82 0
-709 -83 0
-709 -84 0
-709 -85 0
-709 -86 0
-709 -87 0
-709 -88 0
-709 -89 0
-709 -90 0
-710 -46 0
-710 -47 0
-710 -51 0
-710 -52 0
-710 -53 0
-710 -54 0
-710 -55 0
-710 -56 0
-710 -57 0
-710 -58 0
-710 -59 0
-710 -60 0
-710 -61 0
-710 -62 0
-710 -66 0
-710 -67 0
-710 -68 0
-710 -69 0
-710 -70 0
-710 -71 0
-710 -72 0
-710 -73 0
-710 -74 0
-710 -75 0
-710 -76 0
-710 -77 0
-710 -81 0
-710 -82 0
-710 -83 0
-710 -84 0
-710 -85 0
-710 -86 0
-710 -87 0
-710 -88 0
-710 -89 0
-710 -90 0
-711 -46 0
-711 -47 0
-711 -48 0
-711 -52 0
-711 -53 0
-711 -54 0
-711 -55 0
-711 -56 0
-711 -57 0
-711 -58 0
-711 -59 0
-711 -60 0
-711 -61 0
-711 -62 0
-711 -63 0
-711 -67 0
-711 -68 0
-711 -69 0
-711 -70 0
-711 -71 0
-711 -72 0
-711 -73 0
-711 -74 0
-711 -75 0
-711 -76 0
-711 -77 0
-711 -78 0
-711 -82 0
-711 -83 0
-711 -84 0
-711 -85 0
-711 -86 0
-711 -87 0
-711 -88 0
-711 -89 0
-711 -90 0
-712 -46 0
-712 -47 0
-712 -48 0
-712 -49 0
-712 -53 0
-712 -54 0
-712 -55 0
-712 -56 0
-712 -57 0
-712 -58 0
-712 -59 0
-712 -60 0
-712 -61 0
-712 -62 0
-712 -63 0
-712 -64 0
-712 -68 0
-712 -69 0
-712 -70 0
-712 -71 0
-712 -72 0
-712 -73 0
-712 -74 0
-712 -75 0
-712 -76 0
-712 -77 0
-712 -78 0
-712 -79 0
-712 -83 0
-712 -84 0
-712 -85 0
-712 -86 0
-712 -87 0
-712 -88 0
-712 -89 0
-712 -90 0
-713 -46 0
-713 -47 0
-713 -48 0
-713 -49 0
-713 -50 0
-713 -54 0
-713 -55 0
-713 -56 0
-713 -57 0
-713 -58 0
-713 -59 0
-713 -60 0
-713 -61 0
-713 -62 0
-713 -63 0
-713 -64 0
-713 -65 0
-713 -69 0
-713 -70 0
-713 -71 0
-713 -72 0
-713 -73 0
-713 -74 0
-713 -75 0
-713 -76 0
-713 -77 0
-713 -78 0
-713 -79 0
-713 -80 0
-713 -84 0
-713 -85 0
-713 -86 0
-713 -87 0
-713 -88 0
-713 -89 0
-713 -90 0
-714 -46 0
-714 -47 0
-714 -48 0
-714 -49 0
-714 -50 0
-714 -51 0
-714 -55 0
-714 -56 0
-714 -57 0
-714 -58 0
-714 -59 0
-714 -60 0
-714 -61 0
-714 -62 0
-714 -63 0
-714 -64 0
-714 -65 0
-714 -66 0
-714 -70 0
-714 -71 0
-714 -72 0
-714 -73 0
-714 -74 0
-714 -75 0
-714 -76 0
-714 -77 0
-714 -78 0
-714 -79 0
-714 -80 0
-714 -81 0
-714 -85 0
-714 -86 0
-714 -87 0
-714 -88 0
-714 -89 0
-714 -90 0
-715 -46 0
-715 -47 0
-715 -48 0
-715 -49 0
-715 -50 0
-715 -51 0
-715 -52 0
-715 -56 0
-715 -57 0
-715 -58 0
-715 -59 0
-715 -60 0
-715 -61 0
-715 -62 0
-715 -63 0
-715 -64 0
-715 -65 0
-715 -66 0
-715 -67 0
-715 -71 0
-715 -72 0
-715 -73 0
-715 -74 0
-715 -75 0
-715 -76 0
-715 -77 0
-715 -78 0
-715 -79 0
-715 -80 0
-715 -81 0
-715 -82 0
-715 -86 0
-715 -87 0
-715 -88 0
-715 -89 0
-715 -90 0
-716 -46 0
-716 -47 0
-716 -48 0
-716 -49 0
-716 -50 0
-716 -51 0
-716 -52 0
-716 -53 0
-716 -57 0
-716 -58 0
-716 -59 0
-716 -60 0
-716 -61 0
-716 -62 0
-716 -63 0
-716 -64 0
-716 -65 0
-716 -66 0
-716 -67 0
-716 -68 0
-716 -72 0
-716 -73 0
-716 -74 0
-716 -75 0
-716 -76 0
-716 -77 0
-716 -78 0
-716 -79 0
-716 -80 0
-716 -81 0
-716 -82 0
-716 -83 0
-716 -87 0
-716 -88 0
-716 -89 0
-716 -90 0
-717 -46 0
-717 -47 0
-717 -48 0
-717 -49 0
-717 -50 0
-717 -51 0
-717 -52 0
-717 -53 0
-717 -54 0
-717 -58 0
-717 -59 0
-717 -60 0
-717 -61 0
-717 -62 0
-717 -63 0
-717 -64 0
-717 -65 0
-717 -66 0
-717 -67 0
-717 -68 0
-717 -69 0
-717 -73 0
-717 -74 0
-717 -75 0
-717 -76 0
-717 -77 0
-717 -78 0
-717 -79 0
-717 -80 0
-717 -81 0
-717 -82 0
-717 -83 0
-717 -84 0
-717 -88 0
-717 -89 0
-717 -90 0
-718 -46 0
-718 -47 0
-718 -48 0
-718 -49 0
-718 -50 0
-718 -51 0
-718 -52 0
-718 -53 0
-718 -54 0
-718 -55 0
-718 -59 0
-718 -60 0
-718 -61 0
-718 -62 0
-718 -63 0
-718 -64 0
-718 -65 0
-718 -66 0
-718 -67 0
-718 -68 0
-718 -69 0
-718 -70 0
-718 -74 0
-718 -75 0
-718 -76 0
-718 -77 0
-718 -78 0
-718 -79 0
-718 -80 0
-718 -81 0
-718 -82 0
-718 -83 0
-718 -84 0
-718 -85 0
-718 -89 0
-718 -90 0
-719 -46 0
-719 -47 0
-719 -48 0
-719 -49 0
-719 -50 0
-719 -51 0
-719 -52 0
-719 -53 0
-719 -54 0
-719 -55 0
-719 -56 0
-719 -60 0
-719 -61 0
-719 -62 0
-719 -63 0
-719 -64 0
-719 -65 0
-719 -66 0
-719 -67 0
-719 -68 0
-719 -69 0
-719 -70 0
-719 -71 0
-719 -75 0
-719 -76 0
-719 -77 0
-719 -78 0
-719 -79 0
-719 -80 0
-719 -81 0
-719 -82 0
-719 -83 0
-719 -84 0
-719 -85 0
-719 -86 0
-719 -90 0
-720 -46 0
-720 -47 0
-720 -48 0
-720 -49 0
-720 -50 0
-720 -51 0
-720 -52 0
-720 -53 0
-720 -54 0
-720 -55 0
-720 -56 0
-720 -57 0
-720 -61 0
-720 -62 0
-720 -63 0
-720 -64 0
-720 -65 0
-720 -66 0
-720 -67 0
-720 -68 0
-720 -69 0
-720 -70 0
-720 -71 0
-720 -72 0
-720 -76 0
-720 -77 0
-720 -78 0
-720 -79 0
-720 -80 0
-720 -81 0
-720 -82 0
-720 -83 0
-720 -84 0
-720 -85 0
-720 -86 0
-720 -87 0
-91 -106 0
-91 -121 0
-106 -121 0
-92 -107 0
-92 -122 0
-107 -122 0
-93 -108 0
-93 -123 0
-108 -123 0
-94 -109 0
-94 -124 0
-109 -124 0
-95 -110 0
-95 -125 0
-110 -125 0
-96 -111 0
-96 -126 0
-111 -126 0
-97 -112 0
-97 -127 0
-112 -127 0
-98 -113 0
-98 -128 0
-113 -128 0
-99 -114 0
-99 -129 0
-114 -129 0
-100 -115 0
-100 -130 0
-115 -130 0
-101 -116 0
-101 -131 0
-116 -131 0
-102 -117 0
-102 -132 0
-117 -132 0
-103 -118 0
-103 -133 0
-118 -133 0
-104 -119 0
-104 -134 0
-119 -134 0
-105 -120 0
-105 -135 0
-120 -135 0
721 722 723 724 725 726 727 728 729 730 731 732 733 0
-721 -722 0
-721 -723 0
-721 -724 0
-721 -725 0
-721 -726 0
-721 -727 0
-721 -728 0
-721 -729 0
-721 -730 0
-721 -731 0
-721 -732 0
-721 -733 0
-722 -723 0
-722 -724 0
-722 -725 0
-722 -726 0
-722 -727 0
-722 -728 0
-722 -729 0
-722 -730 0
-722 -731 0
-722 -732 0
-722 -733 0
-723 -724 0
-723 -725 0
-723 -726 0
-723 -727 0
-723 -728 0
-723 -729 0
-723 -730 0
-723 -731 0
-723 -732 0
-723 -733 0
-724 -725 0
-724 -726 0
-724 -727 0
-724 -728 0
-724 -729 0
-724 -730 0
-724 -731 0
-724 -732 0
-724 -733 0
-725 -726 0
-725 -727 0
-725 -728 0
-725 -729 0
-725 -730 0
-725 -731 0
-725 -732 0
-725 -733 0
-726 -727 0
-726 -728 0
-726 -729 0
-726 -730 0
-726 -731 0
-726 -732 0
-726 -733 0
-727 -728 0
-727 -729 0
-727 -730 0
-727 -731 0
-727 -732 0
-727 -733 0
-728 -729 0
-728 -730 0
-728 -731 0
-728 -732 0
-728 -733 0
-729 -730 0
-729 -731 0
-729 -732 0
-729 -733 0
-730 -731 0
-730 -732 0
-730 -733 0
-731 -732 0
-731 -733 0
-732 -733 0
-91 721 0
-92 721 722 0
-93 721 722 723 0
-94 722 723 724 0
-95 723 724 725 0
-96 724 725 726 0
-97 725 726 727 0
-98 726 727 728 0
-99 727 728 729 0
-100 728 729 730 0
-101 729 730 731 0
-102 730 731 732 0
-103 731 732 733 0
-104 732 733 0
-105 733 0
-106 721 0
-107 721 722 0
-108 721 722 723 0
-109 722 723 724 0
-110 723 724 725 0
-111 724 725 726 0
-112 725 726 727 0
-113 726 727 728 0
-114 727 728 729 0
-115 728 729 730 0
-116 729 730 731 0
-117 730 731 732 0
-118 731 732 733 0
-119 732 733 0
-120 733 0
-121 721 0
-122 721 722 0
-123 721 722 723 0
-124 722 723 724 0
-125 723 724 725 0
-126 724 725 726 0
-127 725 726 727 0
-128 726 727 728 0
-129 727 728 729 0
-130 728 729 730 0
-131 729 730 731 0
-132 730 731 732 0
-133 731 732 733 0
-134 732 733 0
-135 733 0
-721 -94 0
-721 -95 0
-721 -96 0
-721 -97 0
-721 -98 0
-721 -99 0
-721 -100 0
-721 -101 0
-721 -102 0
-721 -103 0
-721 -104 0
-721 -105 0
-721 -109 0
-721 -110 0
-721 -111 0
-721 -112 0
-721 -113 0
-721 -114 0
-721 -115 0
-721 -116 0
-721 -117 0
-721 -118 0
-721 -119 0
-721 -120 0
-721 -124 0
-721 -125 0
-721 -126 0
-721 -127 0
-721 -128 0
-721 -129 0
-721 -130 0
-721 -131 0
-721 -132 0
-721 -133 0
-721 -134 0
-721 -135 0
-722 -91 0
-722 -95 0
-722 -96 0
-722 -97 0
-722 -98 0
-722 -99 0
-722 -100 0
-722 -101 0
-722 -102 0
-722 -103 0
-722 -104 0
-722 -105 0
-722 -106 0
-722 -110 0
-722 -111 0
-722 -112 0
-722 -113 0
-722 -114 0
-722 -115 0
-722 -116 0
-722 -117 0
-722 -118 0
-722 -119 0
-722 -120 0
-722 -121 0
-722 -125 0
-722 -126 0
-722 -127 0
-722 -128 0
-722 -129 0
-722 -130 0
-722 -131 0
-722 -132 0
-722 -133 0
-722 -134 0
-722 -135 0
-723 -91 0
-723 -92 0
-723 -96 0
-723 -97 0
-723 -98 0
-723 -99 0
-723 -100 0
-723 -101 0
-723 -102 0
-723 -103 0
-723 -104 0
-723 -105 0
-723 -106 0
-723 -107 0
-723 -111 0
-723 -112 0
-723 -113 0
-723 -114 0
-723 -115 0
-723 -116 0
-723 -117 0
-723 -118 0
-723 -119 0
-723 -120 0
-723 -121 0
-723 -122 0
-723 -126 0
-723 -127 0
-723 -128 0
-723 -129 0
-723 -130 0
-723 -131 0
-723 -132 0
-723 -133 0
-723 -134 0
-723 -135 0
-724 -91 0
-724 -92 0
-724 -93 0
-724 -97 0
-724 -98 0
-724 -99 0
-724 -100 0
-724 -101 0
-724 -102 0
-724 -103 0
-724 -104 0
-724 -105 0
-724 -106 0
-724 -107 0
-724 -108 0
-724 -112 0
-724 -113 0
-724 -114 0
-724 -115 0
-724 -116 0
-724 -117 0
-724 -118 0
-724 -119 0
-724 -120 0
-724 -121 0
-724 -122 0
-724 -123 0
-724 -127 0
-724 -128 0
-724 -129 0
-724 -130 0
-724 -131 0
-724 -132 0
-724 -133 0
-724 -134 0
-724 -135 0
-725 -91 0
-725 -92 0
-725 -93 0
-725 -94 0
-725 -98 0
-725 -99 0
-725 -100 0
-725 -101 0
-725 -102 0
-725 -103 0
-725 -104 0
-725 -105 0
-725 -106 0
-725 -107 0
-725 -108 0
-725 -109 0
-725 -113 0
-725 -114 0
-725 -115 0
-725 -116 0
-725 -117 0
-725 -118 0
-725 -119 0
-725 -120 0
-725 -121 0
-725 -122 0
-725 -123 0
-725 -124 0
-725 -128 0
-725 -129 0
-725 -130 0
-725 -131 0
-725 -132 0
-725 -133 0
-725 -134 0
-725 -135 0
-726 -91 0
-726 -92 0
-726 -93 0
-726 -94 0
-726 -95 0
-726 -99 0
-726 -100 0
-726 -101 0
-726 -102 0
-726 -103 0
-726 -104 0
-726 -105 0
-726 -106 0
-726 -107 0
-726 -108 0
-726 -109 0
-726 -110 0
-726 -114 0
-726 -115 0
-726 -116 0
-726 -117 0
-726 -118 0
-726 -119 0
-726 -120 0
-726 -121 0
-726 -122 0
-726 -123 0
-726 -124 0
-726 -125 0
-726 -129 0
-726 -130 0
-726 -131 0
-726 -132 0
-726 -133 0
-726 -134 0
-726 -135 0
-727 -91 0
-727 -92 0
-727 -93 0
-727 -94 0
-727 -95 0
-727 -96 0
-727 -100 0
-727 -101 0
-727 -102 0
-727 -103 0
-727 -104 0
-727 -105 0
-727 -106 0
-727 -107 0
-727 -108 0
-727 -109 0
-727 -110 0
-727 -111 0
-727 -115 0
-727 -116 0
-727 -117 0
-727 -118 0
-727 -119 0
-727 -120 0
-727 -121 0
-727 -122 0
-727 -123 0
-727 -124 0
-727 -125 0
-727 -126 0
-727 -130 0
-727 -131 0
-727 -132 0
-727 -133 0
-727 -134 0
-727 -135 0
-728 -91 0
-728 -92 0
-728 -93 0
-728 -94 0
-728 -95 0
-728 -96 0
-728 -97 0
-728 -101 0
-728 -102 0
-728 -103 0
-728 -104 0
-728 -105 0
-728 -106 0
-728 -107 0
-728 -108 0
-728 -109 0
-728 -110 0
-728 -111 0
-728 -112 0
-728 -116 0
-728 -117 0
-728 -118 0
-728 -119 0
-728 -120 0
-728 -121 0
-728 -122 0
-728 -123 0
-728 -124 0
-728 -125 0
-728 -126 0
-728 -127 0
-728 -131 0
-728 -132 0
-728 -133 0
-728 -134 0
-728 -135 0
-729 -91 0
-729 -92 0
-729 -93 0
-729 -94 0
-729 -95 0
-729 -96 0
-729 -97 0
-729 -98 0
-729 -102 0
-729 -103 0
-729 -104 0
-729 -105 0
-729 -106 0
-729 -107 0
-729 -108 0
-729 -109 0
-729 -110 0
-729 -111 0
-729 -112 0
-729 -113 0
-729 -117 0
-729 -118 0
-729 -119 0
-729 -120 0
-729 -121 0
-729 -122 0
-729 -123 0
-729 -124 0
-729 -125 0
-729 -126 0
-729 -127 0
-729 -128 0
-729 -132 0
-729 -133 0
-729 -134 0
-729 -135 0
-730 -91 0
-730 -92 0
-730 -93 0
-730 -94 0
-730 -95 0
-730 -96 0
-730 -97 0
-730 -98 0
-730 -99 0
-730 -103 0
-730 -104 0
-730 -105 0
-730 -106 0
-730 -107 0
-730 -108 0
-730 -109 0
-730 -110 0
-730 -111 0
-730 -112 0
-730 -113 0
-730 -114 0
-730 -118 0
-730 -119 0
-730 -120 0
-730 -121 0
-730 -122 0
-730 -123 0
-730 -124 0
-730 -125 0
-730 -126 0
-730 -127 0
-730 -128 0
-730 -129 0
-730 -133 0
-730 -134 0
-730 -135 0
-731 -91 0
-731 -92 0
-731 -93 0
-731 -94 0
-731 -95 0
-731 -96 0
-731 -97 0
-731 -98 0
-731 -99 0
-731 -100 0
-731 -104 0
-731 -105 0
-731 -106 0
-731 -107 0
-731 -108 0
-731 -109 0
-731 -110 0
-731 -111 0
-731 -112 0
-731 -113 0
-731 -114 0
-731 -115 0
-731 -119 0
-731 -120 0
-731 -121 0
-731 -122 0
-731 -123 0
-731 -124 0
-731 -125 0
-731 -126 0
-731 -127 0
-731 -128 0
-731 -129 0
-731 -130 0
-731 -134 0
-731 -135 0
-732 -91 0
-732 -92 0
-732 -93 0
-732 -94 0
-732 -95 0
-732 -96 0
-732 -97 0
-732 -98 0
-732 -99 0
-732 -100 0
-732 -101 0
-732 -105 0
-732 -106 0
-732 -107 0
-732 -108 0
-732 -109 0
-732 -110 0
-732 -111 0
-732 -112 0
-732 -113 0
-732 -114 0
-732 -115 0
-732 -116 0
-732 -120 0
-732 -121 0
-732 -122 0
-732 -123 0
-732 -124 0
-732 -125 0
-732 -126 0
-732 -127 0
-732 -128 0
-732 -129 0
-732 -130 0
-732 -131 0
-732 -135 0
-733 -91 0
-733 -92 0
-733 -93 0
-733 -94 0
-733 -95 0
-733 -96 0
-733 -97 0
-733 -98 0
-733 -99 0
-733 -100 0
-733 -101 0
-733 -102 0
-733 -106 0
-733 -107 0
-733 -108 0
-733 -109 0
-733 -110 0
-733 -111 0
-733 -112 0
-733 -113 0
-733 -114 0
-733 -115 0
-733 -116 0
-733 -117 0
-733 -121 0
-733 -122 0
-733 -123 0
-733 -124 0
-733 -125 0
-733 -126 0
-733 -127 0
-733 -128 0
-733 -129 0
-733 -130 0
-733 -131 0
-733 -132 0
-136 -151 0
-136 -166 0
-151 -166 0
-137 -152 0
-137 -167 0
-152 -167 0
-138 -153 0
-138 -168 0
-153 -168 0
-139 -154 0
-139 -169 0
-154 -169 0
-140 -155 0
-140 -170 0
-155 -170 0
-141 -156 0
-141 -171 0
-156 -171 0
-142 -157 0
-142 -172 0
-157 -172 0
-143 -158 0
-143 -173 0
-158 -173 0
-144 -159 0
-144 -174 0
-159 -174 0
-145 -160 0
-145 -175 0
-160 -175 0
-146 -161 0
-146 -176 0
-161 -176 0
-147 -162 0
-147 -177 0
-162 -177 0
-148 -163 0
-148 -178 0
-163 -178 0
-149 -164 0
-149 -179 0
-164 -179 0
-150 -165 0
-150 -180 0
-165 -180 0
734 735 736 737 738 739 740 741 742 743 744 745 746 0
-734 -735 0
-734 -736 0
-734 -737 0
-734 -738 0
-734 -739 0
-734 -740 0
-734 -741 0
-734 -742 0
-734 -743 0
-734 -744 0
-734 -745 0
-734 -746 0
-735 -736 0
-735 -737 0
-735 -738 0
-735 -739 0
-735 -740 0
-735 -741 0
-735 -742 0
-735 -743 0
-735 -744 0
-735 -745 0
-735 -746 0
-736 -737 0
-736 -738 0
-736 -739 0
-736 -740 0
-736 -741 0
-736 -742 0
-736 -743 0
-736 -744 0
-736 -745 0
-736 -746 0
-737 -738 0
-737 -739 0
-737 -740 0
-737 -741 0
-737 -742 0
-737 -743 0
-737 -744 0
-737 -745 0
-737 -746 0
-738 -739 0
-738 -740 0
-738 -741 0
-738 -742 0
-738 -743 0
-738 -744 0
-738 -745 0
-738 -746 0
-739 -740 0
-739 -741 0
-739 -742 0
-739 -743 0
-739 -744 0
-739 -745 0
-739 -746 0
-740 -741 0
-740 -742 0
-740 -743 0
-740 -744 0
-740 -745 0
-740 -746 0
-741 -742 0
-741 -743 0
-741 -744 0
-741 -745 0
-741 -746 0
-742 -743 0
-742 -744 0
-742 -745 0
-742 -746 0
-743 -744 0
-743 -745 0
-743 -746 0
-744 -745 0
-744 -746 0
-745 -746 0
-136 734 0
-137 734 735 0
-138 734 735 736 0
-139 735 736 737 0
-140 736 737 738 0
-141 737 738 739 0
-142 738 739 740 0
-143 739 740 741 0
-144 740 741 742 0
-145 741 742 743 0
-146 742 743 744 0
-147 743 744 745 0
-148 744 745 746 0
-149 745 746 0
-150 746 0
-151 734 0
-152 734 735 0
-153 734 735 736 0
-154 735 736 737 0
-155 736 737 738 0
-156 737 738 739 0
-157 738 739 740 0
-158 739 740 741 0
-159 740 741 742 0
-160 741 742 743 0
-161 742 743 744 0
-162 743 744 745 0
-163 744 745 746 0
-164 745 746 0
-165 746 0
-166 734 0
-167 734 735 0
-168 734 735 736 0
-169 735 736 737 0
-170 736 737 738 0
-171 737 738 739 0
-172 738 739 740 0
-173 739 740 741 0
-174 740 741 742 0
-175 741 742 743 0
-176 742 743 744 0
-177 743 744 745 0
-178 744 745 746 0
-179 745 746 0
-180 746 0
-734 -139 0
-734 -140 0
-734 -141 0
-734 -142 0
-734 -143 0
-734 -144 0
-734 -145 0
-734 -146 0
-734 -147 0
-734 -148 0
-734 -149 0
-734 -150 0
-734 -154 0
-734 -155 0
-734 -156 0
-734 -157 0
-734 -158 0
-734 -159 0
-734 -160 0
-734 -161 0
-734 -162 0
-734 -163 0
-734 -164 0
-734 -165 0
-734 -169 0
-734 -170 0
-734 -171 0
-734 -172 0
-734 -173 0
-734 -174 0
-734 -175 0
-734 -176 0
-734 -177 0
-734 -178 0
-734 -179 0
-734 -180 0
-735 -136 0
-735 -140 0
-735 -141 0
-735 -142 0
-735 -143 0
-735 -144 0
-735 -145 0
-735 -146 0
-735 -147 0
-735 -148 0
-735 -149 0
-735 -150 0
-735 -151 0
-735 -155 0
-735 -156 0
-735 -157 0
-735 -158 0
-735 -159 0
-735 -160 0
-735 -161 0
-735 -162 0
-735 -163 0
-735 -164 0
-735 -165 0
-735 -166 0
-735 -170 0
-735 -171 0
-735 -172 0
-735 -173 0
-735 -174 0
-735 -175 0
-735 -176 0
-735 -177 0
-735 -178 0
-735 -179 0
-735 -180 0
-736 -136 0
-736 -137 0
-736 -141 0
-736 -142 0
-736 -143 0
-736 -144 0
-736 -145 0
-736 -146 0
-736 -147 0
-736 -148 0
-736 -149 0
-736 -150 0
-736 -151 0
-736 -152 0
-736 -156 0
-736 -157 0
-736 -158 0
-736 -159 0
-736 -160 0
-736 -161 0
-736 -162 0
-736 -163 0
-736 -164 0
-736 -165 0
-736 -166 0
-736 -167 0
-736 -171 0
-736 -172 0
-736 -173 0
-736 -174 0
-736 -175 0
-736 -176 0
-736 -177 0
-736 -178 0
-736 -179 0
-736 -180 0
-737 -136 0
-737 -137 0
-737 -138 0
-737 -142 0
-737 -143 0
-737 -144 0
-737 -145 0
-737 -146 0
-737 -147 0
-737 -148 0
-737 -149 0
-737 -150 0
-737 -151 0
-737 -152 0
-737 -153 0
-737 -157 0
-737 -158 0
-737 -159 0
-737 -160 0
-737 -161 0
-737 -162 0
-737 -163 0
-737 -164 0
-737 -165 0
-737 -166 0
-737 -167 0
-737 -168 0
-737 -172 0
-737 -173 0
-737 -174 0
-737 -175 0
-737 -176 0
-737 -177 0
-737 -178 0
-737 -179 0
-737 -180 0
-738 -136 0
-738 -137 0
-738 -138 0
-738 -139 0
-738 -143 0
-738 -144 0
-738 -145 0
-738 -146 0
-738 -147 0
-738 -148 0
-738 -149 0
-738 -150 0
-738 -151 0
-738 -152 0
-738 -153 0
-738 -154 0
-738 -158 0
-738 -159 0
-738 -160 0
-738 -161 0
-738 -162 0
-738 -163 0
-738 -164 0
-738 -165 0
-738 -166 0
-738 -167 0
-738 -168 0
-738 -169 0
-738 -173 0
-738 -174 0
-738 -175 0
-738 -176 0
-738 -177 0
-738 -178 0
-738 -179 0
-738 -180 0
-739 -136 0
-739 -137 0
-739 -138 0
-739 -139 0
-739 -140 0
-739 -144 0
-739 -145 0
-739 -146 0
-739 -147 0
-739 -148 0
-739 -149 0
-739 -150 0
-739 -151 0
-739 -152 0
-739 -153 0
-739 -154 0
-739 -155 0
-739 -159 0
-739 -160 0
-739 -161 0
-739 -162 0
-739 -163 0
-739 -164 0
-739 -165 0
-739 -166 0
-739 -167 0
-739 -168 0
-739 -169 0
-739 -170 0
-739 -174 0
-739 -175 0
-739 -176 0
-739 -177 0
-739 -178 0
-739 -179 0
-739 -180 0
-740 -136 0
-740 -137 0
-740 -138 0
-740 -139 0
-740 -140 0
-740 -141 0
-740 -145 0
-740 -146 0
-740 -147 0
-740 -148 0
-740 -149 0
-740 -150 0
-740 -151 0
-740 -152 0
-740 -153 0
-740 -154 0
-740 -155 0
-740 -156 0
-740 -160 0
-740 -161 0
-740 -162 0
-740 -163 0
-740 -164 0
-740 -165 0
-740 -166 0
-740 -167 0
-740 -168 0
-740 -169 0
-740 -170 0
-740 -171 0
-740 -175 0
-740 -176 0
-740 -177 0
-740 -178 0
-740 -179 0
-740 -180 0
-741 -136 0
-741 -137 0
-741 -138 0
-741 -139 0
-741 -140 0
-741 -141 0
-741 -142 0
-741 -146 0
-741 -147 0
-741 -148 0
-741 -149 0
-741 -150 0
-741 -151 0
-741 -152 0
-741 -153 0
-741 -154 0
-741 -155 0
-741 -156 0
-741 -157 0
-741 -161 0
-741 -162 0
-741 -163 0
-741 -164 0
-741 -165 0
-741 -166 0
-741 -167 0
-741 -168 0
-741 -169 0
-741 -170 0
-741 -171 0
-741 -172 0
-741 -176 0
-741 -177 0
-741 -178 0
-741 -179 0
-741 -180 0
-742 -136 0
-742 -137 0
-742 -138 0
-742 -139 0
-742 -140 0
-742 -141 0
-742 -142 0
-742 -143 0
-742 -147 0
-742 -148 0
-742 -149 0
-742 -150 0
-742 -151 0
-742 -152 0
-742 -153 0
-742 -154 0
-742 -155 0
-742 -156 0
-742 -157 0
-742 -158 0
-742 -162 0
-742 -163 0
-742 -164 0
-742 -165 0
-742 -166 0
-742 -167 0
-742 -168 0
-742 -169 0
-742 -170 0
-742 -171 0
-742 -172 0
-742 -173 0
-742 -177 0
-742 -178 0
-742 -179 0
-742 -180 0
-743 -136 0
-743 -137 0
-743 -138 0
-743 -139 0
-743 -140 0
-743 -141 0
-743 -142 0
-743 -143 0
-743 -144 0
-743 -148 0
-743 -149 0
-743 -150 0
-743 -151 0
-743 -152 0
-743 -153 0
-743 -154 0
-743 -155 0
-743 -156 0
-743 -157 0
-743 -158 0
-743 -159 0
-743 -163 0
-743 -164 0
-743 -165 0
-743 -166 0
-743 -167 0
-743 -168 0
-743 -169 0
-743 -170 0
-743 -171 0
-743 -172 0
-743 -173 0
-743 -174 0
-743 -178 0
-743 -179 0
-743 -180 0
-744 -136 0
-744 -137 0
-744 -138 0
-744 -139 0
-744 -140 0
-744 -141 0
-744 -142 0
-744 -143 0
-744 -144 0
-744 -145 0
-744 -149 0
-744 -150 0
-744 -151 0
-744 -152 0
-744 -153 0
-744 -154 0
-744 -155 0
-744 -156 0
-744 -157 0
-744 -158 0
-744 -159 0
-744 -160 0
-744 -164 0
-744 -165 0
-744 -166 0
-744 -167 0
-744 -168 0
-744 -169 0
-744 -170 0
-744 -171 0
-744 -172 0
-744 -173 0
-744 -174 0
-744 -175 0
-744 -179 0
-744 -180 0
-745 -136 0
-745 -137 0
-745 -138 0
-745 -139 0
-745 -140 0
-745 -141 0
-745 -142 0
-745 -143 0
-745 -144 0
-745 -145 0
-745 -146 0
-745 -150 0
-745 -151 0
-745 -152 0
-745 -153 0
-745 -154 0
-745 -155 0
-745 -156 0
-745 -157 0
-745 -158 0
-745 -159 0
-745 -160 0
-745 -161 0
-745 -165 0
-745 -166 0
-745 -167 0
-745 -168 0
-745 -169 0
-745 -170 0
-745 -171 0
-745 -172 0
-745 -173 0
-745 -174 0
-745 -175 0
-745 -176 0
-745 -180 0
-746 -136 0
-746 -137 0
-746 -138 0
-746 -139 0
-746 -140 0
-746 -141 0
-746 -142 0
-746 -143 0
-746 -144 0
-746 -145 0
-746 -146 0
-746 -147 0
-746 -151 0
-746 -152 0
-746 -153 0
-746 -154 0
-746 -155 0
-746 -156 0
-746 -157 0
-746 -158 0
-746 -159 0
-746 -160 0
-746 -161 0
-746 -162 0
-746 -166 0
-746 -167 0
-746 -168 0
-746 -169 0
-746 -170 0
-746 -171 0
-746 -172 0
-746 -173 0
-746 -174 0
-746 -175 0
-746 -176 0
-746 -177 0
-181 -196 0
-181 -211 0
-196 -211 0
-182 -197 0
-182 -212 0
-197 -212 0
-183 -198 0
-183 -213 0
-198 -213 0
-184 -199 0
-184 -214 0
-199 -214 0
-185 -200 0
-185 -215 0
-200 -215 0
-186 -201 0
-186 -216 0
-201 -216 0
-187 -202 0
-187 -217 0
-202 -217 0
-188 -203 0
-188 -218 0
-203 -218 0
-189 -204 0
-189 -219 0
-204 -219 0
-190 -205 0
-190 -220 0
-205 -220 0
-191 -206 0
-191 -221 0
-206 -221 0
-192 -207 0
-192 -222 0
-207 -222 0
-193 -208 0
-193 -223 0
-208 -223 0
-194 -209 0
-194 -224 0
-209 -224 0
-195 -210 0
-195 -225 0
-210 -225 0
747 748 749 750 751 752 753 754 755 756 757 758 759 0
-747 -748 0
-747 -749 0
-747 -750 0
-747 -751 0
-747 -752 0
-747 -753 0
-747 -754 0
-747 -755 0
-747 -756 0
-747 -757 0
-747 -758 0
-747 -759 0
-748 -749 0
-748 -750 0
-748 -751 0
-748 -752 0
-748 -753 0
-748 -754 0
-748 -755 0
-748 -756 0
-748 -757 0
-748 -758 0
-748 -759 0
-749 -750 0
-749 -751 0
-749 -752 0
-749 -753 0
-749 -754 0
-749 -755 0
-749 -756 0
-749 -757 0
-749 -758 0
-749 -759 0
-750 -751 0
-750 -752 0
-750 -753 0
-750 -754 0
-750 -755 0
-750 -756 0
-750 -757 0
-750 -758 0
-750 -759 0
-751 -752 0
-751 -753 0
-751 -754 0
-751 -755 0
-751 -756 0
-751 -757 0
-751 -758 0
-751 -759 0
-752 -753 0
-752 -754 0
-752 -755 0
-752 -756 0
-752 -757 0
-752 -758 0
-752 -759 0
-753 -754 0
-753 -755 0
-753 -756 0
-753 -757 0
-753 -758 0
-753 -759 0
-754 -755 0
-754 -756 0
-754 -757 0
-754 -758 0
-754 -759 0
-755 -756 0
-755 -757 0
-755 -758 0
-755 -759 0
-756 -757 0
-756 -758 0
-756 -759 0
-757 -758 0
-757 -759 0
-758 -759 0
-181 747 0
-182 747 748 0
-183 747 748 749 0
-184 748 749 750 0
-185 749 750 751 0
-186 750 751 752 0
-187 751 752 753 0
-188 752 753 754 0
-189 753 754 755 0
-190 754 755 756 0
-191 755 756 757 0
-192 756 757 758 0
-193 757 758 759 0
-194 758 759 0
-195 759 0
-196 747 0
-197 747 748 0
-198 747 748 749 0
-199 748 749 750 0
-200 749 750 751 0
-201 750 751 752 0
-202 751 752 753 0
-203 752 753 754 0
-204 753 754 755 0
-205 754 755 756 0
-206 755 756 757 0
-207 756 757 758 0
-208 757 758 759 0
-209 758 759 0
-210 759 0
-211 747 0
-212 747 748 0
-213 747 748 749 0
-214 748 749 750 0
-215 749 750 751 0
-216 750 751 752 0
-217 751 752 753 0
-218 752 753 754 0
-219 753 754 755 0
-220 754 755 756 0
-221 755 756 757 0
-222 756 757 758 0
-223 757 758 759 0
-224 758 759 0
-225 759 0
-747 -184 0
-747 -185 0
-747 -186 0
-747 -187 0
-747 -188 0
-747 -189 0
-747 -190 0
-747 -191 0
-747 -192 0
-747 -193 0
-747 -194 0
-747 -195 0
-747 -199 0
-747 -200 0
-747 -201 0
-747 -202 0
-747 -203 0
-747 -204 0
-747 -205 0
-747 -206 0
-747 -207 0
-747 -208 0
-747 -209 0
-747 -210 0
-747 -214 0
-747 -215 0
-747 -216 0
-747 -217 0
-747 -218 0
-747 -219 0
-747 -220 0
-747 -221 0
-747 -222 0
-747 -223 0
-747 -224 0
-747 -225 0
-748 -181 0
-748 -185 0
-748 -186 0
-748 -187 0
-748 -188 0
-748 -189 0
-748 -190 0
-748 -191 0
-748 -192 0
-748 -193 0
-748 -194 0
-748 -195 0
-748 -196 0
-748 -200 0
-748 -201 0
-748 -202 0
-748 -203 0
-748 -204 0
-748 -205 0
-748 -206 0
-748 -207 0
-748 -208 0
-748 -209 0
-748 -210 0
-748 -211 0
-748 -215 0
-748 -216 0
-748 -217 0
-748 -218 0
-748 -219 0
-748 -220 0
-748 -221 0
-748 -222 0
-748 -223 0
-748 -224 0
-748 -225 0
-749 -181 0
-749 -182 0
-749 -186 0
-749 -187 0
-749 -188 0
-749 -189 0
-749 -190 0
-749 -191 0
-749 -192 0
-749 -193 0
-749 -194 0
-749 -195 0
-749 -196 0
-749 -197 0
-749 -201 0
-749 -202 0
-749 -203 0
-749 -204 0
-749 -205 0
-749 -206 0
-749 -207 0
-749 -208 0
-749 -209 0
-749 -210 0
-749 -211 0
-749 -212 0
-749 -216 0
-749 -217 0
-749 -218 0
-749 -219 0
-749 -220 0
-749 -221 0
-749 -222 0
-749 -223 0
-749 -224 0
-749 -225 0
-750 -181 0
-750 -182 0
-750 -183 0
-750 -187 0
-750 -188 0
-750 -189 0
-750 -190 0
-750 -191 0
-750 -192 0
-750 -193 0
-750 -194 0
-750 -195 0
-750 -196 0
-750 -197 0
-750 -198 0
-750 -202 0
-750 -203 0
-750 -204 0
-750 -205 0
-750 -206 0
-750 -207 0
-750 -208 0
-750 -209 0
-750 -210 0
-750 -211 0
-750 -212 0
-750 -213 0
-750 -217 0
-750 -218 0
-750 -219 0
-750 -220 0
-750 -221 0
-750 -222 0
-750 -223 0
-750 -224 0
-750 -225 0
-751 -181 0
-751 -182 0
-751 -183 0
-751 -184 0
-751 -188 0
-751 -189 0
-751 -190 0
-751 -191 0
-751 -192 0
-751 -193 0
-751 -194 0
-751 -195 0
-751 -196 0
-751 -197 0
-751 -198 0
-751 -199 0
-751 -203 0
-751 -204 0
-751 -205 0
-751 -206 0
-751 -207 0
-751 -208 0
-751 -209 0
-751 -210 0
-751 -211 0
-751 -212 0
-751 -213 0
-751 -214 0
-751 -218 0
-751 -219 0
-751 -220 0
-751 -221 0
-751 -222 0
-751 -223 0
-751 -224 0
-751 -225 0
-752 -181 0
-752 -182 0
-752 -183 0
-752 -184 0
-752 -185 0
-752 -189 0
-752 -190 0
-752 -191 0
-752 -192 0
-752 -193 0
-752 -194 0
-752 -195 0
-752 -196 0
-752 -197 0
-752 -198 0
-752 -199 0
-752 -200 0
-752 -204 0
-752 -205 0
-752 -206 0
-752 -207 0
-752 -208 0
-752 -209 0
-752 -210 0
-752 -211 0
-752 -212 0
-752 -213 0
-752 -214 0
-752 -215 0
-752 -219 0
-752 -220 0
-752 -221 0
-752 -222 0
-752 -223 0
-752 -224 0
-752 -225 0
-753 -181 0
-753 -182 0
-753 -183 0
-753 -184 0
-753 -185 0
-753 -186 0
-753 -190 0
-753 -191 0
-753 -192 0
-753 -193 0
-753 -194 0
-753 -195 0
-753 -196 0
-753 -197 0
-753 -198 0
-753 -199 0
-753 -200 0
-753 -201 0
-753 -205 0
-753 -206 0
-753 -207 0
-753 -208 0
-753 -209 0
-753 -210 0
-753 -211 0
-753 -212 0
-753 -213 0
-753 -214 0
-753 -215 0
-753 -216 0
-753 -220 0
-753 -221 0
-753 -222 0
-753 -223 0
-753 -224 0
-753 -225 0
-754 -181 0
-754 -182 0
-754 -183 0
-754 -184 0
-754 -185 0
-754 -186 0
-754 -187 0
-754 -191 0
-754 -192 0
-754 -193 0
-754 -194 0
-754 -195 0
-754 -196 0
-754 -197 0
-754 -198 0
-754 -199 0
-754 -200 0
-754 -201 0
-754 -202 0
-754 -206 0
-754 -207 0
-754 -208 0
-754 -209 0
-754 -210 0
-754 -211 0
-754 -212 0
-754 -213 0
-754 -214 0
-754 -215 0
-754 -216 0
-754 -217 0
-754 -221 0
-754 -222 0
-754 -223 0
-754 -224 0
-754 -225 0
-755 -181 0
-755 -182 0
-755 -183 0
-755 -184 0
-755 -185 0
-755 -186 0
-755 -187 0
-755 -188 0
-755 -192 0
-755 -193 0
-755 -194 0
-755 -195 0
-755 -196 0
-755 -197 0
-755 -198 0
-755 -199 0
-755 -200 0
-755 -201 0
-755 -202 0
-755 -203 0
-755 -207 0
-755 -208 0
-755 -209 0
-755 -210 0
-755 -211 0
-755 -212 0
-755 -213 0
-755 -214 0
-755 -215 0
-755 -216 0
-755 -217 0
-755 -218 0
-755 -222 0
-755 -223 0
-755 -224 0
-755 -225 0
-756 -181 0
-756 -182 0
-756 -183 0
-756 -184 0
-756 -185 0
-756 -186 0
-756 -187 0
-756 -188 0
-756 -189 0
-756 -193 0
-756 -194 0
-756 -195 0
-756 -196 0
-756 -197 0
-756 -198 0
-756 -199 0
-756 -200 0
-756 -201 0
-756 -202 0
-756 -203 0
-756 -204 0
-756 -208 0
-756 -209 0
-756 -210 0
-756 -211 0
-756 -212 0
-756 -213 0
-756 -214 0
-756 -215 0
-756 -216 0
-756 -217 0
-756 -218 0
-756 -219 0
-756 -223 0
-756 -224 0
-756 -225 0
-757 -181 0
-757 -182 0
-757 -183 0
-757 -184 0
-757 -185 0
-757 -186 0
-757 -187 0
-757 -188 0
-757 -189 0
-757 -190 0
-757 -194 0
-757 -195 0
-757 -196 0
-757 -197 0
-757 -198 0
-757 -199 0
-757 -200 0
-757 -201 0
-757 -202 0
-757 -203 0
-757 -204 0
-757 -205 0
-757 -209 0
-757 -210 0
-757 -211 0
-757 -212 0
-757 -213 0
-757 -214 0
-757 -215 0
-757 -216 0
-757 -217 0
-757 -218 0
-757 -219 0
-757 -220 0
-757 -224 0
-757 -225 0
-758 -181 0
-758 -182 0
-758 -183 0
-758 -184 0
-758 -185 0
-758 -186 0
-758 -187 0
-758 -188 0
-758 -189 0
-758 -190 0
-758 -191 0
-758 -195 0
-758 -196 0
-758 -197 0
-758 -198 0
-758 -199 0
-758 -200 0
-758 -201 0
-758 -202 0
-758 -203 0
-758 -204 0
-758 -205 0
-758 -206 0
-758 -210 0
-758 -211 0
-758 -212 0
-758 -213 0
-758 -214 0
-758 -215 0
-758 -216 0
-758 -217 0
-758 -218 0
-758 -219 0
-758 -220 0
-758 -221 0
-758 -225 0
-759 -181 0
-759 -182 0
-759 -183 0
-759 -184 0
-759 -185 0
-759 -186 0
-759 -187 0
-759 -188 0
-759 -189 0
-759 -190 0
-759 -191 0
-759 -192 0
-759 -196 0
-759 -197 0
-759 -198 0
-759 -199 0
-759 -200 0
-759 -201 0
-759 -202 0
-759 -203 0
-759 -204 0
-759 -205 0
-759 -206 0
-759 -207 0
-759 -211 0
-759 -212 0
-759 -213 0
-759 -214 0
-759 -215 0
-759 -216 0
-759 -217 0
-759 -218 0
-759 -219 0
-759 -220 0
-759 -221 0
-759 -222 0
-226 -241 0
-226 -256 0
-241 -256 0
-227 -242 0
-227 -257 0
-242 -257 0
-228 -243 0
-228 -258 0
-243 -258 0
-229 -244 0
-229 -259 0
-244 -259 0
-230 -245 0
-230 -260 0
-245 -260 0
-231 -246 0
-231 -261 0
-246 -261 0
-232 -247 0
-232 -262 0
-247 -262 0
-233 -248 0
-233 -263 0
-248 -263 0
-234 -249 0
-234 -264 0
-249 -264 0
-235 -250 0
-235 -265 0
-250 -265 0
-236 -251 0
-236 -266 0
-251 -266 0
-237 -252 0
-237 -267 0
-252 -267 0
-238 -253 0
-238 -268 0
-253 -268 0
-239 -254 0
-239 -269 0
-254 -269 0
-240 -255 0
-240 -270 0
-255 -270 0
760 761 762 763 764 765 766 767 768 769 770 771 772 0
-760 -761 0
-760 -762 0
-760 -763 0
-760 -764 0
-760 -765 0
-760 -766 0
-760 -767 0
-760 -768 0
-760 -769 0
-760 -770 0
-760 -771 0
-760 -772 0
-761 -762 0
-761 -763 0
-761 -764 0
-761 -765 0
-761 -766 0
-761 -767 0
-761 -768 0
-761 -769 0
-761 -770 0
-761 -771 0
-761 -772 0
-762 -763 0
-762 -764 0
-762 -765 0
-762 -766 0
-762 -767 0
-762 -768 0
-762 -769 0
-762 -770 0
-762 -771 0
-762 -772 0
-763 -764 0
-763 -765 0
-763 -766 0
-763 -767 0
-763 -768 0
-763 -769 0
-763 -770 0
-763 -771 0
-763 -772 0
-764 -765 0
-764 -766 0
-764 -767 0
-764 -768 0
-764 -769 0
-764 -770 0
-764 -771 0
-764 -772 0
-765 -766 0
-765 -767 0
-765 -768 0
-765 -769 0
-765 -770 0
-765 -771 0
-765 -772 0
-766 -767 0
-766 -768 0
-766 -769 0
-766 -770 0
-766 -771 0
-766 -772 0
-767 -768 0
-767 -769 0
-767 -770 0
-767 -771 0
-767 -772 0
-768 -769 0
-768 -770 0
-768 -771 0
-768 -772 0
-769 -770 0
-769 -771 0
-769 -772 0
-770 -771 0
-770 -772 0
-771 -772 0
-226 760 0
-227 760 761 0
-228 760 761 762 0
-229 761 762 763 0
-230 762 763 764 0
-231 763 764 765 0
-232 764 765 766 0
-233 765 766 767 0
-234 766 767 768 0
-235 767 768 769 0
-236 768 769 770 0
-237 769 770 771 0
-238 770 771 772 0
-239 771 772 0
-240 772 0
-241 760 0
-242 760 761 0
-243 760 761 762 0
-244 761 762 763 0
-245 762 763 764 0
-246 763 764 765 0
-247 764 765 766 0
-248 765 766 767 0
-249 766 767 768 0
-250 767 768 769 0
-251 768 769 770 0
-252 769 770 771 0
-253 770 771 772 0
-254 771 772 0
-255 772 0
-256 760 0
-257 760 761 0
-258 760 761 762 0
-259 761 762 763 0
-260 762 763 764 0
-261 763 764 765 0
-262 764 765 766 0
-263 765 766 767 0
-264 766 767 768 0
-265 767 768 769 0
-266 768 769 770 0
-267 769 770 771 0
-268 770 771 772 0
-269 771 772 0
-270 772 0
-760 -229 0
-760 -230 0
-760 -231 0
-760 -232 0
-760 -233 0
-760 -234 0
-760 -235 0
-760 -236 0
-760 -237 0
-760 -238 0
-760 -239 0
-760 -240 0
-760 -244 0
-760 -245 0
-760 -246 0
-760 -247 0
-760 -248 0
-760 -249 0
-760 -250 0
-760 -251 0
-760 -252 0
-760 -253 0
-760 -254 0
-760 -255 0
-760 -259 0
-760 -260 0
-760 -261 0
-760 -262 0
-760 -263 0
-760 -264 0
-760 -265 0
-760 -266 0
-760 -267 0
-760 -268 0
-760 -269 0
-760 -270 0
-761 -226 0
-761 -230 0
-761 -231 0
-761 -232 0
-761 -233 0
-761 -234 0
-761 -235 0
-761 -236 0
-761 -237 0
-761 -238 0
-761 -239 0
-761 -240 0
-761 -241 0
-761 -245 0
-761 -246 0
-761 -247 0
-761 -248 0
-761 -249 0
-761 -250 0
-761 -251 0
-761 -252 0
-761 -253 0
-761 -254 0
-761 -255 0
-761 -256 0
-761 -260 0
-761 -261 0
-761 -262 0
-761 -263 0
-761 -264 0
-761 -265 0
-761 -266 0
-761 -267 0
-761 -268 0
-761 -269 0
-761 -270 0
-762 -226 0
-762 -227 0
-762 -231 0
-762 -232 0
-762 -233 0
-762 -234 0
-762 -235 0
-762 -236 0
-762 -237 0
-762 -238 0
-762 -239 0
-762 -240 0
-762 -241 0
-762 -242 0
-762 -246 0
-762 -247 0
-762 -248 0
-762 -249 0
-762 -250 0
-762 -251 0
-762 -252 0
-762 -253 0
-762 -254 0
-762 -255 0
-762 -256 0
-762 -257 0
-762 -261 0
-762 -262 0
-762 -263 0
-762 -264 0
-762 -265 0
-762 -266 0
-762 -267 0
-762 -268 0
-762 -269 0
-762 -270 0
-763 -226 0
-763 -227 0
-763 -228 0
-763 -232 0
-763 -233 0
-763 -234 0
-763 -235 0
-763 -236 0
-763 -237 0
-763 -238 0
-763 -239 0
-763 -240 0
-763 -241 0
-763 -242 0
-763 -243 0
-763 -247 0
-763 -248 0
-763 -249 0
-763 -250 0
-763 -251 0
-763 -252 0
-763 -253 0
-763 -254 0
-763 -255 0
-763 -256 0
-763 -257 0
-763 -258 0
-763 -262 0
-763 -263 0
-763 -264 0
-763 -265 0
-763 -266 0
-763 -267 0
-763 -268 0
-763 -269 0
-763 -270 0
-764 -226 0
-764 -227 0
-764 -228 0
-764 -229 0
-764 -233 0
-764 -234 0
-764 -235 0
-764 -236 0
-764 -237 0
-764 -238 0
-764 -239 0
-764 -240 0
-764 -241 0
-764 -242 0
-764 -243 0
-764 -244 0
-764 -248 0
-764 -249 0
-764 -250 0
-764 -251 0
-764 -252 0
-764 -253 0
-764 -254 0
-764 -255 0
-764 -256 0
-764 -257 0
-764 -258 0
-764 -259 0
-764 -263 0
-764 -264 0
-764 -265 0
-764 -266 0
-764 -267 0
-764 -268 0
-764 -269 0
-764 -270 0
-765 -226 0
-765 -227 0
-765 -228 0
-765 -229 0
-765 -230 0
-765 -234 0
-765 -235 0
-765 -236 0
-765 -237 0
-765 -238 0
-765 -239 0
-765 -240 0
-765 -241 0
-765 -242 0
-765 -243 0
-765 -244 0
-765 -245 0
-765 -249 0
-765 -250 0
-765 -251 0
-765 -252 0
-765 -253 0
-765 -254 0
-765 -255 0
-765 -256 0
-765 -257 0
-765 -258 0
-765 -259 0
-765 -260 0
-765 -264 0
-765 -265 0
-765 -266 0
-765 -267 0
-765 -268 0
-765 -269 0
-765 -270 0
-766 -226 0
-766 -227 0
-766 -228 0
-766 -229 0
-766 -230 0
-766 -231 0
-766 -235 0
-766 -236 0
-766 -237 0
-766 -238 0
-766 -239 0
-766 -240 0
-766 -241 0
-766 -242 0
-766 -243 0
-766 -244 0
-766 -245 0
-766 -246 0
-766 -250 0
-766 -251 0
-766 -252 0
-766 -253 0
-766 -254 0
-766 -255 0
-766 -256 0
-766 -257 0
-766 -258 0
-766 -259 0
-766 -260 0
-766 -261 0
-766 -265 0
-766 -266 0
-766 -267 0
-766 -268 0
-766 -269 0
-766 -270 0
-767 -226 0
-767 -227 0
-767 -228 0
-767 -229 0
-767 -230 0
-767 -231 0
-767 -232 0
-767 -236 0
-767 -237 0
-767 -238 0
-767 -239 0
-767 -240 0
-767 -241 0
-767 -242 0
-767 -243 0
-767 -244 0
-767 -245 0
-767 -246 0
-767 -247 0
-767 -251 0
-767 -252 0
-767 -253 0
-767 -254 0
-767 -255 0
-767 -256 0
-767 -257 0
-767 -258 0
-767 -259 0
-767 -260 0
-767 -261 0
-767 -262 0
-767 -266 0
-767 -267 0
-767 -268 0
-767 -269 0
-767 -270 0
-768 -226 0
-768 -227 0
-768 -228 0
-768 -229 0
-768 -230 0
-768 -231 0
-768 -232 0
-768 -233 0
-768 -237 0
-768 -238 0
-768 -239 0
-768 -240 0
-768 -241 0
-768 -242 0
-768 -243 0
-768 -244 0
-768 -245 0
-768 -246 0
-768 -247 0
-768 -248 0
-768 -252 0
-768 -253 0
-768 -254 0
-768 -255 0
-768 -256 0
-768 -257 0
-768 -258 0
-768 -259 0
-768 -260 0
-768 -261 0
-768 -262 0
-768 -263 0
-768 -267 0
-768 -268 0
-768 -269 0
-768 -270 0
-769 -226 0
-769 -227 0
-769 -228 0
-769 -229 0
-769 -230 0
-769 -231 0
-769 -232 0
-769 -233 0
-769 -234 0
-769 -238 0
-769 -239 0
-769 -240 0
-769 -241 0
-769 -242 0
-769 -243 0
-769 -244 0
-769 -245 0
-769 -246 0
-769 -247 0
-769 -248 0
-769 -249 0
-769 -253 0
-769 -254 0
-769 -255 0
-769 -256 0
-769 -257 0
-769 -258 0
-769 -259 0
-769 -260 0
-769 -261 0
-769 -262 0
-769 -263 0
-769 -264 0
-769 -268 0
-769 -269 0
-769 -270 0
-770 -226 0
-770 -227 0
-770 -228 0
-770 -229 0
-770 -230 0
-770 -231 0
-770 -232 0
-770 -233 0
-770 -234 0
-770 -235 0
-770 -239 0
-770 -240 0
-770 -241 0
-770 -242 0
-770 -243 0
-770 -244 0
-770 -245 0
-770 -246 0
-770 -247 0
-770 -248 0
-770 -249 0
-770 -250 0
-770 -254 0
-770 -255 0
-770 -256 0
-770 -257 0
-770 -258 0
-770 -259 0
-770 -260 0
-770 -261 0
-770 -262 0
-770 -263 0
-770 -264 0
-770 -265 0
-770 -269 0
-770 -270 0
-771 -226 0
-771 -227 0
-771 -228 0
-771 -229 0
-771 -230 0
-771 -231 0
-771 -232 0
-771 -233 0
-771 -234 0
-771 -235 0
-771 -236 0
-771 -240 0
-771 -241 0
-771 -242 0
-771 -243 0
-771 -244 0
-771 -245 0
-771 -246 0
-771 -247 0
-771 -248 0
-771 -249 0
-771 -250 0
-771 -251 0
-771 -255 0
-771 -256 0
-771 -257 0
-771 -258 0
-771 -259 0
-771 -260 0
-771 -261 0
-771 -262 0
-771 -263 0
-771 -264 0
-771 -265 0
-771 -266 0
-771 -270 0
-772 -226 0
-772 -227 0
-772 -228 0
-772 -229 0
-772 -230 0
-772 -231 0
-772 -232 0
-772 -233 0
-772 -234 0
-772 -235 0
-772 -236 0
-772 -237 0
-772 -241 0
-772 -242 0
-772 -243 0
-772 -244 0
-772 -245 0
-772 -246 0
-772 -247 0
-772 -248 0
-772 -249 0
-772 -250 0
-772 -251 0
-772 -252 0
-772 -256 0
-772 -257 0
-772 -258 0
-772 -259 0
-772 -260 0
-772 -261 0
-772 -262 0
-772 -263 0
-772 -264 0
-772 -265 0
-772 -266 0
-772 -267 0
-271 -286 0
-271 -301 0
-286 -301 0
-272 -287 0
-272 -302 0
-287 -302 0
-273 -288 0
-273 -303 0
-288 -303 0
-274 -289 0
-274 -304 0
-289 -304 0
-275 -290 0
-275 -305 0
-290 -305 0
-276 -291 0
-276 -306 0
-291 -306 0
-277 -292 0
-277 -307 0
-292 -307 0
-278 -293 0
-278 -308 0
-293 -308 0
-279 -294 0
-279 -309 0
-294 -309 0
-280 -295 0
-280 -310 0
-295 -310 0
-281 -296 0
-281 -311 0
-296 -311 0
-282 -297 0
-282 -312 0
-297 -312 0
-283 -298 0
-283 -313 0
-298 -313 0
-284 -299 0
-284 -314 0
-299 -314 0
-285 -300 0
-285 -315 0
-300 -315 0
773 774 775 776 777 778 779 780 781 782 783 784 785 0
-773 -774 0
-773 -775 0
-773 -776 0
-773 -777 0
-773 -778 0
-773 -779 0
-773 -780 0
-773 -781 0
-773 -782 0
-773 -783 0
-773 -784 0
-773 -785 0
-774 -775 0
-774 -776 0
-774 -777 0
-774 -778 0
-774 -779 0
-774 -780 0
-774 -781 0
-774 -782 0
-774 -783 0
-774 -784 0
-774 -785 0
-775 -776 0
-775 -777 0
-775 -778 0
-775 -779 0
-775 -780 0
-775 -781 0
-775 -782 0
-775 -783 0
-775 -784 0
-775 -785 0
-776 -777 0
-776 -778 0
-776 -779 0
-776 -780 0
-776 -781 0
-776 -782 0
-776 -783 0
-776 -784 0
-776 -785 0
-777 -778 0
-777 -779 0
-777 -780 0
-777 -781 0
-777 -782 0
-777 -783 0
-777 -784 0
-777 -785 0
-778 -779 0
-778 -780 0
-778 -781 0
-778 -782 0
-778 -783 0
-778 -784 0
-778 -785 0
-779 -780 0
-779 -781 0
-779 -782 0
-779 -783 0
-779 -784 0
-779 -785 0
-780 -781 0
-780 -782 0
-780 -783 0
-780 -784 0
-780 -785 0
-781 -782 0
-781 -783 0
-781 -784 0
-781 -785 0
-782 -783 0
-782 -784 0
-782 -785 0
-783 -784 0
-783 -785 0
-784 -785 0
-271 773 0
-272 773 774 0
-273 773 774 775 0
-274 774 775 776 0
-275 775 776 777 0
-276 776 777 778 0
-277 777 778 779 0
-278 778 779 780 0
-279 779 780 781 0
-280 780 781 782 0
-281 781 782 783 0
-282 782 783 784 0
-283 783 784 785 0
-284 784 785 0
-285 785 0
-286 773 0
-287 773 774 0
-288 773 774 775 0
-289 774 775 776 0
-290 775 776 777 0
-291 776 777 778 0
-292 777 778 779 0
-293 778 779 780 0
-294 779 780 781 0
-295 780 781 782 0
-296 781 782 783 0
-297 782 783 784 0
-298 783 784 785 0
-299 784 785 0
-300 785 0
-301 773 0
-302 773 774 0
-303 773 774 775 0
-304 774 775 776 0
-305 775 776 777 0
-306 776 777 778 0
-307 777 778 779 0
-308 778 779 780 0
-309 779 780 781 0
-310 780 781 782 0
-311 781 782 783 0
-312 782 783 784 0
-313 783 784 785 0
-314 784 785 0
-315 785 0
-773 -274 0
-773 -275 0
-773 -276 0
-773 -277 0
-773 -278 0
-773 -279 0
-773 -280 0
-773 -281 0
-773 -282 0
-773 -283 0
-773 -284 0
-773 -285 0
-773 -289 0
-773 -290 0
-773 -291 0
-773 -292 0
-773 -293 0
-773 -294 0
-773 -295 0
-773 -296 0
-773 -297 0
-773 -298 0
-773 -299 0
-773 -300 0
-773 -304 0
-773 -305 0
-773 -306 0
-773 -307 0
-773 -308 0
-773 -309 0
-773 -310 0
-773 -311 0
-773 -312 0
-773 -313 0
-773 -314 0
-773 -315 0
-774 -271 0
-774 -275 0
-774 -276 0
-774 -277 0
-774 -278 0
-774 -279 0
-774 -280 0
-774 -281 0
-774 -282 0
-774 -283 0
-774 -284 0
-774 -285 0
-774 -286 0
-774 -290 0
-774 -291 0
-774 -292 0
-774 -293 0
-774 -294 0
-774 -295 0
-774 -296 0
-774 -297 0
-774 -298 0
-774 -299 0
-774 -300 0
-774 -301 0
-774 -305 0
-774 -306 0
-774 -307 0
-774 -308 0
-774 -309 0
-774 -310 0
-774 -311 0
-774 -312 0
-774 -313 0
-774 -314 0
-774 -315 0
-775 -271 0
-775 -272 0
-775 -276 0
-775 -277 0
-775 -278 0
-775 -279 0
-775 -280 0
-775 -281 0
-775 -282 0
-775 -283 0
-775 -284 0
-775 -285 0
-775 -286 0
-775 -287 0
-775 -291 0
-775 -292 0
-775 -293 0
-775 -294 0
-775 -295 0
-775 -296 0
-775 -297 0
-775 -298 0
-775 -299 0
-775 -300 0
-775 -301 0
-775 -302 0
-775 -306 0
-775 -307 0
-775 -308 0
-775 -309 0
-775 -310 0
-775 -311 0
-775 -312 0
-775 -313 0
-775 -314 0
-775 -315 0
-776 -271 0
-776 -272 0
-776 -273 0
-776 -277 0
-776 -278 0
-776 -279 0
-776 -280 0
-776 -281 0
-776 -282 0
-776 -283 0
-776 -284 0
-776 -285 0
-776 -286 0
-776 -287 0
-776 -288 0
-776 -292 0
-776 -293 0
-776 -294 0
-776 -295 0
-776 -296 0
-776 -297 0
-776 -298 0
-776 -299 0
-776 -300 0
-776 -301 0
-776 -302 0
-776 -303 0
-776 -307 0
-776 -308 0
-776 -309 0
-776 -310 0
-776 -311 0
-776 -312 0
-776 -313 0
-776 -314 0
-776 -315 0
-777 -271 0
-777 -272 0
-777 -273 0
-777 -274 0
-777 -278 0
-777 -279 0
-777 -280 0
-777 -281 0
-777 -282 0
-777 -283 0
-777 -284 0
-777 -285 0
-777 -286 0
-777 -287 0
-777 -288 0
-777 -289 0
-777 -293 0
-777 -294 0
-777 -295 0
-777 -296 0
-777 -297 0
-777 -298 0
-777 -299 0
-777 -300 0
-777 -301 0
-777 -302 0
-777 -303 0
-777 -304 0
-777 -308 0
-777 -309 0
-777 -310 0
-777 -311 0
-777 -312 0
-777 -313 0
-777 -314 0
-777 -315 0
-778 -271 0
-778 -272 0
-778 -273 0
-778 -274 0
-778 -275 0
-778 -279 0
-778 -280 0
-778 -281 0
-778 -282 0
-778 -283 0
-778 -284 0
-778 -285 0
-778 -286 0
-778 -287 0
-778 -288 0
-778 -289 0
-778 -290 0
-778 -294 0
-778 -295 0
-778 -296 0
-778 -297 0
-778 -298 0
-778 -299 0
-778 -300 0
-778 -301 0
-778 -302 0
-778 -303 0
-778 -304 0
-778 -305 0
-778 -309 0
-778 -310 0
-778 -311 0
-778 -312 0
-778 -313 0
-778 -314 0
-778 -315 0
-779 -271 0
-779 -272 0
-779 -273 0
-779 -274 0
-779 -275 0
-779 -276 0
-779 -280 0
-779 -281 0
-779 -282 0
-779 -283 0
-779 -284 0
-779 -285 0
-779 -286 0
-779 -287 0
-779 -288 0
-779 -289 0
-779 -290 0
-779 -291 0
-779 -295 0
-779 -296 0
-779 -297 0
-779 -298 0
-779 -299 0
-779 -300 0
-779 -301 0
-779 -302 0
-779 -303 0
-779 -304 0
-779 -305 0
-779 -306 0
-779 -310 0
-779 -311 0
-779 -312 0
-779 -313 0
-779 -314 0
-779 -315 0
-780 -271 0
-780 -272 0
-780 -273 0
-780 -274 0
-780 -275 0
-780 -276 0
-780 -277 0
-780 -281 0
-780 -282 0
-780 -283 0
-780 -284 0
-780 -285 0
-780 -286 0
-780 -287 0
-780 -288 0
-780 -289 0
-780 -290 0
-780 -291 0
-780 -292 0
-780 -296 0
-780 -297 0
-780 -298 0
-780 -299 0
-780 -300 0
-780 -301 0
-780 -302 0
-780 -303 0
-780 -304 0
-780 -305 0
-780 -306 0
-780 -307 0
-780 -311 0
-780 -312 0
-780 -313 0
-780 -314 0
-780 -315 0
-781 -271 0
-781 -272 0
-781 -273 0
-781 -274 0
-781 -275 0
-781 -276 0
-781 -277 0
-781 -278 0
-781 -282 0
-781 -283 0
-781 -284 0
-781 -285 0
-781 -286 0
-781 -287 0
-781 -288 0
-781 -289 0
-781 -290 0
-781 -291 0
-781 -292 0
-781 -293 0
-781 -297 0
-781 -298 0
-781 -299 0
-781 -300 0
-781 -301 0
-781 -302 0
-781 -303 0
-781 -304 0
-781 -305 0
-781 -306 0
-781 -307 0
-781 -308 0
-781 -312 0
-781 -313 0
-781 -314 0
-781 -315 0
-782 -271 0
-782 -272 0
-782 -273 0
-782 -274 0
-782 -275 0
-782 -276 0
-782 -277 0
-782 -278 0
-782 -279 0
-782 -283 0
-782 -284 0
-782 -285 0
-782 -286 0
-782 -287 0
-782 -288 0
-782 -289 0
-782 -290 0
-782 -291 0
-782 -292 0
-782 -293 0
-782 -294 0
-782 -298 0
-782 -299 0
-782 -300 0
-782 -301 0
-782 -302 0
-782 -303 0
-782 -304 0
-782 -305 0
-782 -306 0
-782 -307 0
-782 -308 0
-782 -309 0
-782 -313 0
-782 -314 0
-782 -315 0
-783 -271 0
-783 -272 0
-783 -273 0
-783 -274 0
-783 -275 0
-783 -276 0
-783 -277 0
-783 -278 0
-783 -279 0
-783 -280 0
-783 -284 0
-783 -285 0
-783 -286 0
-783 -287 0
-783 -288 0
-783 -289 0
-783 -290 0
-783 -291 0
-783 -292 0
-783 -293 0
-783 -294 0
-783 -295 0
-783 -299 0
-783 -300 0
-783 -301 0
-783 -302 0
-783 -303 0
-783 -304 0
-783 -305 0
-783 -306 0
-783 -307 0
-783 -308 0
-783 -309 0
-783 -310 0
-783 -314 0
-783 -315 0
-784 -271 0
-784 -272 0
-784 -273 0
-784 -274 0
-784 -275 0
-784 -276 0
-784 -277 0
-784 -278 0
-784 -279 0
-784 -280 0
-784 -281 0
-784 -285 0
-784 -286 0
-784 -287 0
-784 -288 0
-784 -289 0
-784 -290 0
-784 -291 0
-784 -292 0
-784 -293 0
-784 -294 0
-784 -295 0
-784 -296 0
-784 -300 0
-784 -301 0
-784 -302 0
-784 -303 0
-784 -304 0
-784 -305 0
-784 -306 0
-784 -307 0
-784 -308 0
-784 -309 0
-784 -310 0
-784 -311 0
-784 -315 0
-785 -271 0
-785 -272 0
-785 -273 0
-785 -274 0
-785 -275 0
-785 -276 0
-785 -277 0
-785 -278 0
-785 -279 0
-785 -280 0
-785 -281 0
-785 -282 0
-785 -286 0
-785 -287 0
-785 -288 0
-785 -289 0
-785 -290 0
-785 -291 0
-785 -292 0
-785 -293 0
-785 -294 0
-785 -295 0
-785 -296 0
-785 -297 0
-785 -301 0
-785 -302 0
-785 -303 0
-785 -304 0
-785 -305 0
-785 -306 0
-785 -307 0
-785 -308 0
-785 -309 0
-785 -310 0
-785 -311 0
-785 -312 0
-316 -331 0
-316 -346 0
-331 -346 0
-317 -332 0
-317 -347 0
-332 -347 0
-318 -333 0
-318 -348 0
-333 -348 0
-319 -334 0
-319 -349 0
-334 -349 0
-320 -335 0
-320 -350 0
-335 -350 0
-321 -336 0
-321 -351 0
-336 -351 0
-322 -337 0
-322 -352 0
-337 -352 0
-323 -338 0
-323 -353 0
-338 -353 0
-324 -339 0
-324 -354 0
-339 -354 0
-325 -340 0
-325 -355 0
-340 -355 0
-326 -341 0
-326 -356 0
-341 -356 0
-327 -342 0
-327 -357 0
-342 -357 0
-328 -343 0
-328 -358 0
-343 -358 0
-329 -344 0
-329 -359 0
-344 -359 0
-330 -345 0
-330 -360 0
-345 -360 0
786 787 788 789 790 791 792 793 794 795 796 797 798 0
-786 -787 0
-786 -788 0
-786 -789 0
-786 -790 0
-786 -791 0
-786 -792 0
-786 -793 0
-786 -794 0
-786 -795 0
-786 -796 0
-786 -797 0
-786 -798 0
-787 -788 0
-787 -789 0
-787 -790 0
-787 -791 0
-787 -792 0
-787 -793 0
-787 -794 0
-787 -795 0
-787 -796 0
-787 -797 0
-787 -798 0
-788 -789 0
-788 -790 0
-788 -791 0
-788 -792 0
-788 -793 0
-788 -794 0
-788 -795 0
-788 -796 0
-788 -797 0
-788 -798 0
-789 -790 0
-789 -791 0
-789 -792 0
-789 -793 0
-789 -794 0
-789 -795 0
-789 -796 0
-789 -797 0
-789 -798 0
-790 -791 0
-790 -792 0
-790 -793 0
-790 -794 0
-790 -795 0
-790 -796 0
-790 -797 0
-790 -798 0
-791 -792 0
-791 -793 0
-791 -794 0
-791 -795 0
-791 -796 0
-791 -797 0
-791 -798 0
-792 -793 0
-792 -794 0
-792 -795 0
-792 -796 0
-792 -797 0
-792 -798 0
-793 -794 0
-793 -795 0
-793 -796 0
-793 -797 0
-793 -798 0
-794 -795 0
-794 -796 0
-794 -797 0
-794 -798 0
-795 -796 0
-795 -797 0
-795 -798 0
-796 -797 0
-796 -798 0
-797 -798 0
-316 786 0
-317 786 787 0
-318 786 787 788 0
-319 787 788 789 0
-320 788 789 790 0
-321 789 790 791 0
-322 790 791 792 0
-323 791 792 793 0
-324 792 793 794 0
-325 793 794 795 0
-326 794 795 796 0
-327 795 796 797 0
-328 796 797 798 0
-329 797 798 0
-330 798 0
-331 786 0
-332 786 787 0
-333 786 787 788 0
-334 787 788 789 0
-335 788 789 790 0
-336 789 790 791 0
-337 790 791 792 0
-338 791 792 793 0
-339 792 793 794 0
-340 793 794 795 0
-341 794 795 796 0
-342 795 796 797 0
-343 796 797 798 0
-344 797 798 0
-345 798 0
-346 786 0
-347 786 787 0
-348 786 787 788 0
-349 787 788 789 0
-350 788 789 790 0
-351 789 790 791 0
-352 790 791 792 0
-353 791 792 793 0
-354 792 793 794 0
-355 793 794 795 0
-356 794 795 796 0
-357 795 796 797 0
-358 796 797 798 0
-359 797 798 0
-360 798 0
-786 -319 0
-786 -320 0
-786 -321 0
-786 -322 0
-786 -323 0
-786 -324 0
-786 -325 0
-786 -326 0
-786 -327 0
-786 -328 0
-786 -329 0
-786 -330 0
-786 -334 0
-786 -335 0
-786 -336 0
-786 -337 0
-786 -338 0
-786 -339 0
-786 -340 0
-786 -341 0
-786 -342 0
-786 -343 0
-786 -344 0
-786 -345 0
-786 -349 0
-786 -350 0
-786 -351 0
-786 -352 0
-786 -353 0
-786 -354 0
-786 -355 0
-786 -356 0
-786 -357 0
-786 -358 0
-786 -359 0
-786 -360 0
-787 -316 0
-787 -320 0
-787 -321 0
-787 -322 0
-787 -323 0
-787 -324 0
-787 -325 0
-787 -326 0
-787 -327 0
-787 -328 0
-787 -329 0
-787 -330 0
-787 -331 0
-787 -335 0
-787 -336 0
-787 -337 0
-787 -338 0
-787 -339 0
-787 -340 0
-787 -341 0
-787 -342 0
-787 -343 0
-787 -344 0
-787 -345 0
-787 -346 0
-787 -350 0
-787 -351 0
-787 -352 0
-787 -353 0
-787 -354 0
-787 -355 0
-787 -356 0
-787 -357 0
-787 -358 0
-787 -359 0
-787 -360 0
-788 -316 0
-788 -317 0
-788 -321 0
-788 -322 0
-788 -323 0
-788 -324 0
-788 -325 0
-788 -326 0
-788 -327 0
-788 -328 0
-788 -329 0
-788 -330 0
-788 -331 0
-788 -332 0
-788 -336 0
-788 -337 0
-788 -338 0
-788 -339 0
-788 -340 0
-788 -341 0
-788 -342 0
-788 -343 0
-788 -344 0
-788 -345 0
-788 -346 0
-788 -347 0
-788 -351 0
-788 -352 0
-788 -353 0
-788 -354 0
-788 -355 0
-788 -356 0
-788 -357 0
-788 -358 0
-788 -359 0
-788 -360 0
-789 -316 0
-789 -317 0
-789 -318 0
-789 -322 0
-789 -323 0
-789 -324 0
-789 -325 0
-789 -326 0
-789 -327 0
-789 -328 0
-789 -329 0
-789 -330 0
-789 -331 0
-789 -332 0
-789 -333 0
-789 -337 0
-789 -338 0
-789 -339 0
-789 -340 0
-789 -341 0
-789 -342 0
-789 -343 0
-789 -344 0
-789 -345 0
-789 -346 0
-789 -347 0
-789 -348 0
-789 -352 0
-789 -353 0
-789 -354 0
-789 -355 0
-789 -356 0
-789 -357 0
-789 -358 0
-789 -359 0
-789 -360 0
-790 -316 0
-790 -317 0
-790 -318 0
-790 -319 0
-790 -323 0
-790 -324 0
-790 -325 0
-790 -326 0
-790 -327 0
-790 -328 0
-790 -329 0
-790 -330 0
-790 -331 0
-790 -332 0
-790 -333 0
-790 -334 0
-790 -338 0
-790 -339 0
-790 -340 0
-790 -341 0
-790 -342 0
-790 -343 0
-790 -344 0
-790 -345 0
-790 -346 0
-790 -347 0
-790 -348 0
-790 -349 0
-790 -353 0
-790 -354 0
-790 -355 0
-790 -356 0
-790 -357 0
-790 -358 0
-790 -359 0
-790 -360 0
-791 -316 0
-791 -317 0
-791 -318 0
-791 -319 0
-791 -320 0
-791 -324 0
-791 -325 0
-791 -326 0
-791 -327 0
-791 -328 0
-791 -329 0
-791 -330 0
-791 -331 0
-791 -332 0
-791 -333 0
-791 -334 0
-791 -335 0
-791 -339 0
-791 -340 0
-791 -341 0
-791 -342 0
-791 -343 0
-791 -344 0
-791 -345 0
-791 -346 0
-791 -347 0
-791 -348 0
-791 -349 0
-791 -350 0
-791 -354 0
-791 -355 0
-791 -356 0
-791 -357 0
-791 -358 0
-791 -359 0
-791 -360 0
-792 -316 0
-792 -317 0
-792 -318 0
-792 -319 0
-792 -320 0
-792 -321 0
-792 -325 0
-792 -326 0
-792 -327 0
-792 -328 0
-792 -329 0
-792 -330 0
-792 -331 0
-792 -332 0
-792 -333 0
-792 -334 0
-792 -335 0
-792 -336 0
-792 -340 0
-792 -341 0
-792 -342 0
-792 -343 0
-792 -344 0
-792 -345 0
-792 -346 0
-792 -347 0
-792 -348 0
-792 -349 0
-792 -350 0
-792 -351 0
-792 -355 0
-792 -356 0
-792 -357 0
-792 -358 0
-792 -359 0
-792 -360 0
-793 -316 0
-793 -317 0
-793 -318 0
-793 -319 0
-793 -320 0
-793 -321 0
-793 -322 0
-793 -326 0
-793 -327 0
-793 -328 0
-793 -329 0
-793 -330 0
-793 -331 0
-793 -332 0
-793 -333 0
-793 -334 0
-793 -335 0
-793 -336 0
-793 -337 0
-793 -341 0
-793 -342 0
-793 -343 0
-793 -344 0
-793 -345 0
-793 -346 0
-793 -347 0
-793 -348 0
-793 -349 0
-793 -350 0
-793 -351 0
-793 -352 0
-793 -356 0
-793 -357 0
-793 -358 0
-793 -359 0
-793 -360 0
-794 -316 0
-794 -317 0
-794 -318 0
-794 -319 0
-794 -320 0
-794 -321 0
-794 -322 0
-794 -323 0
-794 -327 0
-794 -328 0
-794 -329 0
-794 -330 0
-794 -331 0
-794 -332 0
-794 -333 0
-794 -334 0
-794 -335 0
-794 -336 0
-794 -337 0
-794 -338 0
-794 -342 0
-794 -343 0
-794 -344 0
-794 -345 0
-794 -346 0
-794 -347 0
-794 -348 0
-794 -349 0
-794 -350 0
-794 -351 0
-794 -352 0
-794 -353 0
-794 -357 0
-794 -358 0
-794 -359 0
-794 -360 0
-795 -316 0
-795 -317 0
-795 -318 0
-795 -319 0
-795 -320 0
-795 -321 0
-795 -322 0
-795 -323 0
-795 -324 0
-795 -328 0
-795 -329 0
-795 -330 0
-795 -331 0
-795 -332 0
-795 -333 0
-795 -334 0
-795 -335 0
-795 -336 0
-795 -337 0
-795 -338 0
-795 -339 0
-795 -343 0
-795 -344 0
-795 -345 0
-795 -346 0
-795 -347 0
-795 -348 0
-795 -349 0
-795 -350 0
-795 -351 0
-795 -352 0
-795 -353 0
-795 -354 0
-795 -358 0
-795 -359 0
-795 -360 0
-796 -316 0
-796 -317 0
-796 -318 0
-796 -319 0
-796 -320 0
-796 -321 0
-796 -322 0
-796 -323 0
-796 -324 0
-796 -325 0
-796 -329 0
-796 -330 0
-796 -331 0
-796 -332 0
-796 -333 0
-796 -334 0
-796 -335 0
-796 -336 0
-796 -337 0
-796 -338 0
-796 -339 0
-796 -340 0
-796 -344 0
-796 -345 0
-796 -346 0
-796 -347 0
-796 -348 0
-796 -349 0
-796 -350 0
-796 -351 0
-796 -352 0
-796 -353 0
-796 -354 0
-796 -355 0
-796 -359 0
-796 -360 0
-797 -316 0
-797 -317 0
-797 -318 0
-797 -319 0
-797 -320 0
-797 -321 0
-797 -322 0
-797 -323 0
-797 -324 0
-797 -325 0
-797 -326 0
-797 -330 0
-797 -331 0
-797 -332 0
-797 -333 0
-797 -334 0
-797 -335 0
-797 -336 0
-797 -337 0
-797 -338 0
-797 -339 0
-797 -340 0
-797 -341 0
-797 -345 0
-797 -346 0
-797 -347 0
-797 -348 0
-797 -349 0
-797 -350 0
-797 -351 0
-797 -352 0
-797 -353 0
-797 -354 0
-797 -355 0
-797 -356 0
-797 -360 0
-798 -316 0
-798 -317 0
-798 -318 0
-798 -319 0
-798 -320 0
-798 -321 0
-798 -322 0
-798 -323 0
-798 -324 0
-798 -325 0
-798 -326 0
-798 -327 0
-798 -331 0
-798 -332 0
-798 -333 0
-798 -334 0
-798 -335 0
-798 -336 0
-798 -337 0
-798 -338 0
-798 -339 0
-798 -340 0
-798 -341 0
-798 -342 0
-798 -346 0
-798 -347 0
-798 -348 0
-798 -349 0
-798 -350 0
-798 -351 0
-798 -352 0
-798 -353 0
-798 -354 0
-798 -355 0
-798 -356 0
-798 -357 0
-361 -376 0
-361 -391 0
-376 -391 0
-362 -377 0
-362 -392 0
-377 -392 0
-363 -378 0
-363 -393 0
-378 -393 0
-364 -379 0
-364 -394 0
-379 -394 0
-365 -380 0
-365 -395 0
-380 -395 0
-366 -381 0
-366 -396 0
-381 -396 0
-367 -382 0
-367 -397 0
-382 -397 0
-368 -383 0
-368 -398 0
-383 -398 0
-369 -384 0
-369 -399 0
-384 -399 0
-370 -385 0
-370 -400 0
-385 -400 0
-371 -386 0
-371 -401 0
-386 -401 0
-372 -387 0
-372 -402 0
-387 -402 0
-373 -388 0
-373 -403 0
-388 -403 0
-374 -389 0
-374 -404 0
-389 -404 0
-375 -390 0
-375 -405 0
-390 -405 0
799 800 801 802 803 804 805 806 807 808 809 810 811 0
-799 -800 0
-799 -801 0
-799 -802 0
-799 -803 0
-799 -804 0
-799 -805 0
-799 -806 0
-799 -807 0
-799 -808 0
-799 -809 0
-799 -810 0
-799 -811 0
-800 -801 0
-800 -802 0
-800 -803 0
-800 -804 0
-800 -805 0
-800 -806 0
-800 -807 0
-800 -808 0
-800 -809 0
-800 -810 0
-800 -811 0
-801 -802 0
-801 -803 0
-801 -804 0
-801 -805 0
-801 -806 0
-801 -807 0
-801 -808 0
-801 -809 0
-801 -810 0
-801 -811 0
-802 -803 0
-802 -804 0
-802 -805 0
-802 -806 0
-802 -807 0
-802 -808 0
-802 -809 0
-802 -810 0
-802 -811 0
-803 -804 0
-803 -805 0
-803 -806 0
-803 -807 0
-803 -808 0
-803 -809 0
-803 -810 0
-803 -811 0
-804 -805 0
-804 -806 0
-804 -807 0
-804 -808 0
-804 -809 0
-804 -810 0
-804 -811 0
-805 -806 0
-805 -807 0
-805 -808 0
-805 -809 0
-805 -810 0
-805 -811 0
-806 -807 0
-806 -808 0
-806 -809 0
-806 -810 0
-806 -811 0
-807 -808 0
-807 -809 0
-807 -810 0
-807 -811 0
-808 -809 0
-808 -810 0
-808 -811 0
-809 -810 0
-809 -811 0
-810 -811 0
-361 799 0
-362 799 800 0
-363 799 800 801 0
-364 800 801 802 0
-365 801 802 803 0
-366 802 803 804 0
-367 803 804 805 0
-368 804 805 806 0
-369 805 806 807 0
-370 806 807 808 0
-371 807 808 809 0
-372 808 809 810 0
-373 809 810 811 0
-374 810 811 0
-375 811 0
-376 799 0
-377 799 800 0
-378 799 800 801 0
-379 800 801 802 0
-380 801 802 803 0
-381 802 803 804 0
-382 803 804 805 0
-383 804 805 806 0
-384 805 806 807 0
-385 806 807 808 0
-386 807 808 809 0
-387 808 809 810 0
-388 809 810 811 0
-389 810 811 0
-390 811 0
-391 799 0
-392 799 800 0
-393 799 800 801 0
-394 800 801 802 0
-395 801 802 803 0
-396 802 803 804 0
-397 803 804 805 0
-398 804 805 806 0
-399 805 806 807 0
-400 806 807 808 0
-401 807 808 809 0
-402 808 809 810 0
-403 809 810 811 0
-404 810 811 0
-405 811 0
-799 -364 0
-799 -365 0
-799 -366 0
-799 -367 0
-799 -368 0
-799 -369 0
-799 -370 0
-799 -371 0
-799 -372 0
-799 -373 0
-799 -374 0
-799 -375 0
-799 -379 0
-799 -380 0
-799 -381 0
-799 -382 0
-799 -383 0
-799 -384 0
-799 -385 0
-799 -386 0
-799 -387 0
-799 -388 0
-799 -389 0
-799 -390 0
-799 -394 0
-799 -395 0
-799 -396 0
-799 -397 0
-799 -398 0
-799 -399 0
-799 -400 0
-799 -401 0
-799 -402 0
-799 -403 0
-799 -404 0
-799 -405 0
-800 -361 0
-800 -365 0
-800 -366 0
-800 -367 0
-800 -368 0
-800 -369 0
-800 -370 0
-800 -371 0
-800 -372 0
-800 -373 0
-800 -374 0
-800 -375 0
-800 -376 0
-800 -380 0
-800 -381 0
-800 -382 0
-800 -383 0
-800 -384 0
-800 -385 0
-800 -386 0
-800 -387 0
-800 -388 0
-800 -389 0
-800 -390 0
-800 -391 0
-800 -395 0
-800 -396 0
-800 -397 0
-800 -398 0
-800 -399 0
-800 -400 0
-800 -401 0
-800 -402 0
-800 -403 0
-800 -404 0
-800 -405 0
-801 -361 0
-801 -362 0
-801 -366 0
-801 -367 0
-801 -368 0
-801 -369 0
-801 -370 0
-801 -371 0
-801 -372 0
-801 -373 0
-801 -374 0
-801 -375 0
-801 -376 0
-801 -377 0
-801 -381 0
-801 -382 0
-801 -383 0
-801 -384 0
-801 -385 0
-801 -386 0
-801 -387 0
-801 -388 0
-801 -389 0
-801 -390 0
-801 -391 0
-801 -392 0
-801 -396 0
-801 -397 0
-801 -398 0
-801 -399 0
-801 -400 0
-801 -401 0
-801 -402 0
-801 -403 0
-801 -404 0
-801 -405 0
-802 -361 0
-802 -362 0
-802 -363 0
-802 -367 0
-802 -368 0
-802 -369 0
-802 -370 0
-802 -371 0
-802 -372 0
-802 -373 0
-802 -374 0
-802 -375 0
-802 -376 0
-802 -377 0
-802 -378 0
-802 -382 0
-802 -383 0
-802 -384 0
-802 -385 0
-802 -386 0
-802 -387 0
-802 -388 0
-802 -389 0
-802 -390 0
-802 -391 0
-802 -392 0
-802 -393 0
-802 -397 0
-802 -398 0
-802 -399 0
-802 -400 0
-802 -401 0
-802 -402 0
-802 -403 0
-802 -404 0
-802 -405 0
-803 -361 0
-803 -362 0
-803 -363 0
-803 -364 0
-803 -368 0
-803 -369 0
-803 -370 0
-803 -371 0
-803 -372 0
-803 -373 0
-803 -374 0
-803 -375 0
-803 -376 0
-803 -377 0
-803 -378 0
-803 -379 0
-803 -383 0
-803 -384 0
-803 -385 0
-803 -386 0
-803 -387 0
-803 -388 0
-803 -389 0
-803 -390 0
-803 -391 0
-803 -392 0
-803 -393 0
-803 -394 0
-803 -398 0
-803 -399 0
-803 -400 0
-803 -401 0
-803 -402 0
-803 -403 0
-803 -404 0
-803 -405 0
-804 -361 0
-804 -362 0
-804 -363 0
-804 -364 0
-804 -365 0
-804 -369 0
-804 -370 0
-804 -371 0
-804 -372 0
-804 -373 0
-804 -374 0
-804 -375 0
-804 -376 0
-804 -377 0
-804 -378 0
-804 -379 0
-804 -380 0
-804 -384 0
-804 -385 0
-804 -386 0
-804 -387 0
-804 -388 0
-804 -389 0
-804 -390 0
-804 -391 0
-804 -392 0
-804 -393 0
-804 -394 0
-804 -395 0
-804 -399 0
-804 -400 0
-804 -401 0
-804 -402 0
-804 -403 0
-804 -404 0
-804 -405 0
-805 -361 0
-805 -362 0
-805 -363 0
-805 -364 0
-805 -365 0
-805 -366 0
-805 -370 0
-805 -371 0
-805 -372 0
-805 -373 0
-805 -374 0
-805 -375 0
-805 -376 0
-805 -377 0
-805 -378 0
-805 -379 0
-805 -380 0
-805 -381 0
-805 -385 0
-805 -386 0
-805 -387 0
-805 -388 0
-805 -389 0
-805 -390 0
-805 -391 0
-805 -392 0
-805 -393 0
-805 -394 0
-805 -395 0
-805 -396 0
-805 -400 0
-805 -401 0
-805 -402 0
-805 -403 0
-805 -404 0
-805 -405 0
-806 -361 0
-806 -362 0
-806 -363 0
-806 -364 0
-806 -365 0
-806 -366 0
-806 -367 0
-806 -371 0
-806 -372 0
-806 -373 0
-806 -374 0
-806 -375 0
-806 -376 0
-806 -377 0
-806 -378 0
-806 -379 0
-806 -380 0
-806 -381 0
-806 -382 0
-806 -386 0
-806 -387 0
-806 -388 0
-806 -389 0
-806 -390 0
-806 -391 0
-806 -392 0
-806 -393 0
-806 -394 0
-806 -395 0
-806 -396 0
-806 -397 0
-806 -401 0
-806 -402 0
-806 -403 0
-806 -404 0
-806 -405 0
-807 -361 0
-807 -362 0
-807 -363 0
-807 -364 0
-807 -365 0
-807 -366 0
-807 -367 0
-807 -368 0
-807 -372 0
-807 -373 0
-807 -374 0
-807 -375 0
-807 -376 0
-807 -377 0
-807 -378 0
-807 -379 0
-807 -380 0
-807 -381 0
-807 -382 0
-807 -383 0
-807 -387 0
-807 -388 0
-807 -389 0
-807 -390 0
-807 -391 0
-807 -392 0
-807 -393 0
-807 -394 0
-807 -395 0
-807 -396 0
-807 -397 0
-807 -398 0
-807 -402 0
-807 -403 0
-807 -404 0
-807 -405 0
-808 -361 0
-808 -362 0
-808 -363 0
-808 -364 0
-808 -365 0
-808 -366 0
-808 -367 0
-808 -368 0
-808 -369 0
-808 -373 0
-808 -374 0
-808 -375 0
-808 -376 0
-808 -377 0
-808 -378 0
-808 -379 0
-808 -380 0
-808 -381 0
-808 -382 0
-808 -383 0
-808 -384 0
-808 -388 0
-808 -389 0
-808 -390 0
-808 -391 0
-808 -392 0
-808 -393 0
-808 -394 0
-808 -395 0
-808 -396 0
-808 -397 0
-808 -398 0
-808 -399 0
-808 -403 0
-808 -404 0
-808 -405 0
-809 -361 0
-809 -362 0
-809 -363 0
-809 -364 0
-809 -365 0
-809 -366 0
-809 -367 0
-809 -368 0
-809 -369 0
-809 -370 0
-809 -374 0
-809 -375 0
-809 -376 0
-809 -377 0
-809 -378 0
-809 -379 0
-809 -380 0
-809 -381 0
-809 -382 0
-809 -383 0
-809 -384 0
-809 -385 0
-809 -389 0
-809 -390 0
-809 -391 0
-809 -392 0
-809 -393 0
-809 -394 0
-809 -395 0
-809 -396 0
-809 -397 0
-809 -398 0
-809 -399 0
-809 -400 0
-809 -404 0
-809 -405 0
-810 -361 0
-810 -362 0
-810 -363 0
-810 -364 0
-810 -365 0
-810 -366 0
-810 -367 0
-810 -368 0
-810 -369 0
-810 -370 0
-810 -371 0
-810 -375 0
-810 -376 0
-810 -377 0
-810 -378 0
-810 -379 0
-810 -380 0
-810 -381 0
-810 -382 0
-810 -383 0
-810 -384 0
-810 -385 0
-810 -386 0
-810 -390 0
-810 -391 0
-810 -392 0
-810 -393 0
-810 -394 0
-810 -395 0
-810 -396 0
-810 -397 0
-810 -398 0
-810 -399 0
-810 -400 0
-810 -401 0
-810 -405 0
-811 -361 0
-811 -362 0
-811 -363 0
-811 -364 0
-811 -365 0
-811 -366 0
-811 -367 0
-811 -368 0
-811 -369 0
-811 -370 0
-811 -371 0
-811 -372 0
-811 -376 0
-811 -377 0
-811 -378 0
-811 -379 0
-811 -380 0
-811 -381 0
-811 -382 0
-811 -383 0
-811 -384 0
-811 -385 0
-811 -386 0
-811 -387 0
-811 -391 0
-811 -392 0
-811 -393 0
-811 -394 0
-811 -395 0
-811 -396 0
-811 -397 0
-811 -398 0
-811 -399 0
-811 -400 0
-811 -401 0
-811 -402 0
-406 -421 0
-406 -436 0
-421 -436 0
-407 -422 0
-407 -437 0
-422 -437 0
-408 -423 0
-408 -438 0
-423 -438 0
-409 -424 0
-409 -439 0
-424 -439 0
-410 -425 0
-410 -440 0
-425 -440 0
-411 -426 0
-411 -441 0
-426 -441 0
-412 -427 0
-412 -442 0
-427 -442 0
-413 -428 0
-413 -443 0
-428 -443 0
-414 -429 0
-414 -444 0
-429 -444 0
-415 -430 0
-415 -445 0
-430 -445 0
-416 -431 0
-416 -446 0
-431 -446 0
-417 -432 0
-417 -447 0
-432 -447 0
-418 -433 0
-418 -448 0
-433 -448 0
-419 -434 0
-419 -449 0
-434 -449 0
-420 -435 0
-420 -450 0
-435 -450 0
812 813 814 815 816 817 818 819 820 821 822 823 824 0
-812 -813 0
-812 -814 0
-812 -815 0
-812 -816 0
-812 -817 0
-812 -818 0
-812 -819 0
-812 -820 0
-812 -821 0
-812 -822 0
-812 -823 0
-812 -824 0
-813 -814 0
-813 -815 0
-813 -816 0
-813 -817 0
-813 -818 0
-813 -819 0
-813 -820 0
-813 -821 0
-813 -822 0
-813 -823 0
-813 -824 0
-814 -815 0
-814 -816 0
-814 -817 0
-814 -818 0
-814 -819 0
-814 -820 0
-814 -821 0
-814 -822 0
-814 -823 0
-814 -824 0
-815 -816 0
-815 -817 0
-815 -818 0
-815 -819 0
-815 -820 0
-815 -821 0
-815 -822 0
-815 -823 0
-815 -824 0
-816 -817 0
-816 -818 0
-816 -819 0
-816 -820 0
-816 -821 0
-816 -822 0
-816 -823 0
-816 -824 0
-817 -818 0
-817 -819 0
-817 -820 0
-817 -821 0
-817 -822 0
-817 -823 0
-817 -824 0
-818 -819 0
-818 -820 0
-818 -821 0
-818 -822 0
-818 -823 0
-818 -824 0
-819 -820 0
-819 -821 0
-819 -822 0
-819 -823 0
-819 -824 0
-820 -821 0
-820 -822 0
-820 -823 0
-820 -824 0
-821 -822 0
-821 -823 0
-821 -824 0
-822 -823 0
-822 -824 0
-823 -824 0
-406 812 0
-407 812 813 0
-408 812 813 814 0
-409 813 814 815 0
-410 814 815 816 0
-411 815 816 817 0
-412 816 817 818 0
-413 817 818 819 0
-414 818 819 820 0
-415 819 820 821 0
-416 820 821 822 0
-417 821 822 823 0
-418 822 823 824 0
-419 823 824 0
-420 824 0
-421 812 0
-422 812 813 0
-423 812 813 814 0
-424 813 814 815 0
-425 814 815 816 0
-426 815 816 817 0
-427 816 817 818 0
-428 817 818 819 0
-429 818 819 820 0
-430 819 820 821 0
-431 820 821 822 0
-432 821 822 823 0
-433 822 823 824 0
-434 823 824 0
-435 824 0
-436 812 0
-437 812 813 0
-438 812 813 814 0
-439 813 814 815 0
-440 814 815 816 0
-441 815 816 817 0
-442 816 817 818 0
-443 817 818 819 0
-444 818 819 820 0
-445 819 820 821 0
-446 820 821 822 0
-447 821 822 823 0
-448 822 823 824 0
-449 823 824 0
-450 824 0
-812 -409 0
-812 -410 0
-812 -411 0
-812 -412 0
-812 -413 0
-812 -414 0
-812 -415 0
-812 -416 0
-812 -417 0
-812 -418 0
-812 -419 0
-812 -420 0
-812 -424 0
-812 -425 0
-812 -426 0
-812 -427 0
-812 -428 0
-812 -429 0
-812 -430 0
-812 -431 0
-812 -432 0
-812 -433 0
-812 -434 0
-812 -435 0
-812 -439 0
-812 -440 0
-812 -441 0
-812 -442 0
-812 -443 0
-812 -444 0
-812 -445 0
-812 -446 0
-812 -447 0
-812 -448 0
-812 -449 0
-812 -450 0
-813 -406 0
-813 -410 0
-813 -411 0
-813 -412 0
-813 -413 0
-813 -414 0
-813 -415 0
-813 -416 0
-813 -417 0
-813 -418 0
-813 -419 0
-813 -420 0
-813 -421 0
-813 -425 0
-813 -426 0
-813 -427 0
-813 -428 0
-813 -429 0
-813 -430 0
-813 -431 0
-813 -432 0
-813 -433 0
-813 -434 0
-813 -435 0
-813 -436 0
-813 -440 0
-813 -441 0
-813 -442 0
-813 -443 0
-813 -444 0
-813 -445 0
-813 -446 0
-813 -447 0
-813 -448 0
-813 -449 0
-813 -450 0
-814 -406 0
-814 -407 0
-814 -411 0
-814 -412 0
-814 -413 0
-814 -414 0
-814 -415 0
-814 -416 0
-814 -417 0
-814 -418 0
-814 -419 0
-814 -420 0
-814 -421 0
-814 -422 0
-814 -426 0
-814 -427 0
-814 -428 0
-814 -429 0
-814 -430 0
-814 -431 0
-814 -432 0
-814 -433 0
-814 -434 0
-814 -435 0
-814 -436 0
-814 -437 0
-814 -441 0
-814 -442 0
-814 -443 0
-814 -444 0
-814 -445 0
-814 -446 0
-814 -447 0
-814 -448 0
-814 -449 0
-814 -450 0
-815 -406 0
-815 -407 0
-815 -408 0
-815 -412 0
-815 -413 0
-815 -414 0
-815 -415 0
-815 -416 0
-815 -417 0
-815 -418 0
-815 -419 0
-815 -420 0
-815 -421 0
-815 -422 0
-815 -423 0
-815 -427 0
-815 -428 0
-815 -429 0
-815 -430 0
-815 -431 0
-815 -432 0
-815 -433 0
-815 -434 0
-815 -435 0
-815 -436 0
-815 -437 0
-815 -438 0
-815 -442 0
-815 -443 0
-815 -444 0
-815 -445 0
-815 -446 0
-815 -447 0
-815 -448 0
-815 -449 0
-815 -450 0
-816 -406 0
-816 -407 0
-816 -408 0
-816 -409 0
-816 -413 0
-816 -414 0
-816 -415 0
-816 -416 0
-816 -417 0
-816 -418 0
-816 -419 0
-816 -420 0
-816 -421 0
-816 -422 0
-816 -423 0
-816 -424 0
-816 -428 0
-816 -429 0
-816 -430 0
-816 -431 0
-816 -432 0
-816 -433 0
-816 -434 0
-816 -435 0
-816 -436 0
-816 -437 0
-816 -438 0
-816 -439 0
-816 -443 0
-816 -444 0
-816 -445 0
-816 -446 0
-816 -447 0
-816 -448 0
-816 -449 0
-816 -450 0
-817 -406 0
-817 -407 0
-817 -408 0
-817 -409 0
-817 -410 0
-817 -414 0
-817 -415 0
-817 -416 0
-817 -417 0
-817 -418 0
-817 -419 0
-817 -420 0
-817 -421 0
-817 -422 0
-817 -423 0
-817 -424 0
-817 -425 0
-817 -429 0
-817 -430 0
-817 -431 0
-817 -432 0
-817 -433 0
-817 -434 0
-817 -435 0
-817 -436 0
-817 -437 0
-817 -438 0
-817 -439 0
-817 -440 0
-817 -444 0
-817 -445 0
-817 -446 0
-817 -447 0
-817 -448 0
-817 -449 0
-817 -450 0
-818 -406 0
-818 -407 0
-818 -408 0
-818 -409 0
-818 -410 0
-818 -411 0
-818 -415 0
-818 -416 0
-818 -417 0
-818 -418 0
-818 -419 0
-818 -420 0
-818 -421 0
-818 -422 0
-818 -423 0
-818 -424 0
-818 -425 0
-818 -426 0
-818 -430 0
-818 -431 0
-818 -432 0
-818 -433 0
-818 -434 0
-818 -435 0
-818 -436 0
-818 -437 0
-818 -438 0
-818 -439 0
-818 -440 0
-818 -441 0
-818 -445 0
-818 -446 0
-818 -447 0
-818 -448 0
-818 -449 0
-818 -450 0
-819 -406 0
-819 -407 0
-819 -408 0
-819 -409 0
-819 -410 0
-819 -411 0
-819 -412 0
-819 -416 0
-819 -417 0
-819 -418 0
-819 -419 0
-819 -420 0
-819 -421 0
-819 -422 0
-819 -423 0
-819 -424 0
-819 -425 0
-819 -426 0
-819 -427 0
-819 -431 0
-819 -432 0
-819 -433 0
-819 -434 0
-819 -435 0
-819 -436 0
-819 -437 0
-819 -438 0
-819 -439 0
-819 -440 0
-819 -441 0
-819 -442 0
-819 -446 0
-819 -447 0
-819 -448 0
-819 -449 0
-819 -450 0
-820 -406 0
-820 -407 0
-820 -408 0
-820 -409 0
-820 -410 0
-820 -411 0
-820 -412 0
-820 -413 0
-820 -417 0
-820 -418 0
-820 -419 0
-820 -420 0
-820 -421 0
-820 -422 0
-820 -423 0
-820 -424 0
-820 -425 0
-820 -426 0
-820 -427 0
-820 -428 0
-820 -432 0
-820 -433 0
-820 -434 0
-820 -435 0
-820 -436 0
-820 -437 0
-820 -438 0
-820 -439 0
-820 -440 0
-820 -441 0
-820 -442 0
-820 -443 0
-820 -447 0
-820 -448 0
-820 -449 0
-820 -450 0
-821 -406 0
-821 -407 0
-821 -408 0
-821 -409 0
-821 -410 0
-821 -411 0
-821 -412 0
-821 -413 0
-821 -414 0
-821 -418 0
-821 -419 0
-821 -420 0
-821 -421 0
-821 -422 0
-821 -423 0
-821 -424 0
-821 -425 0
-821 -426 0
-821 -427 0
-821 -428 0
-821 -429 0
-821 -433 0
-821 -434 0
-821 -435 0
-821 -436 0
-821 -437 0
-821 -438 0
-821 -439 0
-821 -440 0
-821 -441 0
-821 -442 0
-821 -443 0
-821 -444 0
-821 -448 0
-821 -449 0
-821 -450 0
-822 -406 0
-822 -407 0
-822 -408 0
-822 -409 0
-822 -410 0
-822 -411 0
-822 -412 0
-822 -413 0
-822 -414 0
-822 -415 0
-822 -419 0
-822 -420 0
-822 -421 0
-822 -422 0
-822 -423 0
-822 -424 0
-822 -425 0
-822 -426 0
-822 -427 0
-822 -428 0
-822 -429 0
-822 -430 0
-822 -434 0
-822 -435 0
-822 -436 0
-822 -437 0
-822 -438 0
-822 -439 0
-822 -440 0
-822 -441 0
-822 -442 0
-822 -443 0
-822 -444 0
-822 -445 0
-822 -449 0
-822 -450 0
-823 -406 0
-823 -407 0
-823 -408 0
-823 -409 0
-823 -410 0
-823 -411 0
-823 -412 0
-823 -413 0
-823 -414 0
-823 -415 0
-823 -416 0
-823 -420 0
-823 -421 0
-823 -422 0
-823 -423 0
-823 -424 0
-823 -425 0
-823 -426 0
-823 -427 0
-823 -428 0
-823 -429 0
-823 -430 0
-823 -431 0
-823 -435 0
-823 -436 0
-823 -437 0
-823 -438 0
-823 -439 0
-823 -440 0
-823 -441 0
-823 -442 0
-823 -443 0
-823 -444 0
-823 -445 0
-823 -446 0
-823 -450 0
-824 -406 0
-824 -407 0
-824 -408 0
-824 -409 0
-824 -410 0
-824 -411 0
-824 -412 0
-824 -413 0
-824 -414 0
-824 -415 0
-824 -416 0
-824 -417 0
-824 -421 0
-824 -422 0
-824 -423 0
-824 -424 0
-824 -425 0
-824 -426 0
-824 -427 0
-824 -428 0
-824 -429 0
-824 -430 0
-824 -431 0
-824 -432 0
-824 -436 0
-824 -437 0
-824 -438 0
-824 -439 0
-824 -440 0
-824 -441 0
-824 -442 0
-824 -443 0
-824 -444 0
-824 -445 0
-824 -446 0
-824 -447 0
-451 -466 0
-451 -481 0
-466 -481 0
-452 -467 0
-452 -482 0
-467 -482 0
-453 -468 0
-453 -483 0
-468 -483 0
-454 -469 0
-454 -484 0
-469 -484 0
-455 -470 0
-455 -485 0
-470 -485 0
-456 -471 0
-456 -486 0
-471 -486 0
-457 -472 0
-457 -487 0
-472 -487 0
-458 -473 0
-458 -488 0
-473 -488 0
-459 -474 0
-459 -489 0
-474 -489 0
-460 -475 0
-460 -490 0
-475 -490 0
-461 -476 0
-461 -491 0
-476 -491 0
-462 -477 0
-462 -492 0
-477 -492 0
-463 -478 0
-463 -493 0
-478 -493 0
-464 -479 0
-464 -494 0
-479 -494 0
-465 -480 0
-465 -495 0
-480 -495 0
825 826 827 828 829 830 831 832 833 834 835 836 837 0
-825 -826 0
-825 -827 0
-825 -828 0
-825 -829 0
-825 -830 0
-825 -831 0
-825 -832 0
-825 -833 0
-825 -834 0
-825 -835 0
-825 -836 0
-825 -837 0
-826 -827 0
-826 -828 0
-826 -829 0
-826 -830 0
-826 -831 0
-826 -832 0
-826 -833 0
-826 -834 0
-826 -835 0
-826 -836 0
-826 -837 0
-827 -828 0
-827 -829 0
-827 -830 0
-827 -831 0
-827 -832 0
-827 -833 0
-827 -834 0
-827 -835 0
-827 -836 0
-827 -837 0
-828 -829 0
-828 -830 0
-828 -831 0
-828 -832 0
-828 -833 0
-828 -834 0
-828 -835 0
-828 -836 0
-828 -837 0
-829 -830 0
-829 -831 0
-829 -832 0
-829 -833 0
-829 -834 0
-829 -835 0
-829 -836 0
-829 -837 0
-830 -831 0
-830 -832 0
-830 -833 0
-830 -834 0
-830 -835 0
-830 -836 0
-830 -837 0
-831 -832 0
-831 -833 0
-831 -834 0
-831 -835 0
-831 -836 0
-831 -837 0
-832 -833 0
-832 -834 0
-832 -835 0
-832 -836 0
-832 -837 0
-833 -834 0
-833 -835 0
-833 -836 0
-833 -837 0
-834 -835 0
-834 -836 0
-834 -837 0
-835 -836 0
-835 -837 0
-836 -837 0
-451 825 0
-452 825 826 0
-453 825 826 827 0
-454 826 827 828 0
-455 827 828 829 0
-456 828 829 830 0
-457 829 830 831 0
-458 830 831 832 0
-459 831 832 833 0
-460 832 833 834 0
-461 833 834 835 0
-462 834 835 836 0
-463 835 836 837 0
-464 836 837 0
-465 837 0
-466 825 0
-467 825 826 0
-468 825 826 827 0
-469 826 827 828 0
-470 827 828 829 0
-471 828 829 830 0
-472 829 830 831 0
-473 830 831 832 0
-474 831 832 833 0
-475 832 833 834 0
-476 833 834 835 0
-477 834 835 836 0
-478 835 836 837 0
-479 836 837 0
-480 837 0
-481 825 0
-482 825 826 0
-483 825 826 827 0
-484 826 827 828 0
-485 827 828 829 0
-486 828 829 830 0
-487 829 830 831 0
-488 830 831 832 0
-489 831 832 833 0
-490 832 833 834 0
-491 833 834 835 0
-492 834 835 836 0
-493 835 836 837 0
-494 836 837 0
-495 837 0
-825 -454 0
-825 -455 0
-825 -456 0
-825 -457 0
-825 -458 0
-825 -459 0
-825 -460 0
-825 -461 0
-825 -462 0
-825 -463 0
-825 -464 0
-825 -465 0
-825 -469 0
-825 -470 0
-825 -471 0
-825 -472 0
-825 -473 0
-825 -474 0
-825 -475 0
-825 -476 0
-825 -477 0
-825 -478 0
-825 -479 0
-825 -480 0
-825 -484 0
-825 -485 0
-825 -486 0
-825 -487 0
-825 -488 0
-825 -489 0
-825 -490 0
-825 -491 0
-825 -492 0
-825 -493 0
-825 -494 0
-825 -495 0
-826 -451 0
-826 -455 0
-826 -456 0
-826 -457 0
-826 -458 0
-826 -459 0
-826 -460 0
-826 -461 0
-826 -462 0
-826 -463 0
-826 -464 0
-826 -465 0
-826 -466 0
-826 -470 0
-826 -471 0
-826 -472 0
-826 -473 0
-826 -474 0
-826 -475 0
-826 -476 0
-826 -477 0
-826 -478 0
-826 -479 0
-826 -480 0
-826 -481 0
-826 -485 0
-826 -486 0
-826 -487 0
-826 -488 0
-826 -489 0
-826 -490 0
-826 -491 0
-826 -492 0
-826 -493 0
-826 -494 0
-826 -495 0
-827 -451 0
-827 -452 0
-827 -456 0
-827 -457 0
-827 -458 0
-827 -459 0
-827 -460 0
-827 -461 0
-827 -462 0
-827 -463 0
-827 -464 0
-827 -465 0
-827 -466 0
-827 -467 0
-827 -471 0
-827 -472 0
-827 -473 0
-827 -474 0
-827 -475 0
-827 -476 0
-827 -477 0
-827 -478 0
-827 -479 0
-827 -480 0
-827 -481 0
-827 -482 0
-827 -486 0
-827 -487 0
-827 -488 0
-827 -489 0
-827 -490 0
-827 -491 0
-827 -492 0
-827 -493 0
-827 -494 0
-827 -495 0
-828 -451 0
-828 -452 0
-828 -453 0
-828 -457 0
-828 -458 0
-828 -459 0
-828 -460 0
-828 -461 0
-828 -462 0
-828 -463 0
-828 -464 0
-828 -465 0
-828 -466 0
-828 -467 0
-828 -468 0
-828 -472 0
-828 -473 0
-828 -474 0
-828 -475 0
-828 -476 0
-828 -477 0
-828 -478 0
-828 -479 0
-828 -480 0
-828 -481 0
-828 -482 0
-828 -483 0
-828 -487 0
-828 -488 0
-828 -489 0
-828 -490 0
-828 -491 0
-828 -492 0
-828 -493 0
-828 -494 0
-828 -495 0
-829 -451 0
-829 -452 0
-829 -453 0
-829 -454 0
-829 -458 0
-829 -459 0
-829 -460 0
-829 -461 0
-829 -462 0
-829 -463 0
-829 -464 0
-829 -465 0
-829 -466 0
-829 -467 0
-829 -468 0
-829 -469 0
-829 -473 0
-829 -474 0
-829 -475 0
-829 -476 0
-829 -477 0
-829 -478 0
-829 -479 0
-829 -480 0
-829 -481 0
-829 -482 0
-829 -483 0
-829 -484 0
-829 -488 0
-829 -489 0
-829 -490 0
-829 -491 0
-829 -492 0
-829 -493 0
-829 -494 0
-829 -495 0
-830 -451 0
-830 -452 0
-830 -453 0
-830 -454 0
-830 -455 0
-830 -459 0
-830 -460 0
-830 -461 0
-830 -462 0
-830 -463 0
-830 -464 0
-830 -465 0
-830 -466 0
-830 -467 0
-830 -468 0
-830 -469 0
-830 -470 0
-830 -474 0
-830 -475 0
-830 -476 0
-830 -477 0
-830 -478 0
-830 -479 0
-830 -480 0
-830 -481 0
-830 -482 0
-830 -483 0
-830 -484 0
-830 -485 0
-830 -489 0
-830 -490 0
-830 -491 0
-830 -492 0
-830 -493 0
-830 -494 0
-830 -495 0
-831 -451 0
-831 -452 0
-831 -453 0
-831 -454 0
-831 -455 0
-831 -456 0
-831 -460 0
-831 -461 0
-831 -462 0
-831 -463 0
-831 -464 0
-831 -465 0
-831 -466 0
-831 -467 0
-831 -468 0
-831 -469 0
-831 -470 0
-831 -471 0
-831 -475 0
-831 -476 0
-831 -477 0
-831 -478 0
-831 -479 0
-831 -480 0
-831 -481 0
-831 -482 0
-831 -483 0
-831 -484 0
-831 -485 0
-831 -486 0
-831 -490 0
-831 -491 0
-831 -492 0
-831 -493 0
-831 -494 0
-831 -495 0
-832 -451 0
-832 -452 0
-832 -453 0
-832 -454 0
-832 -455 0
-832 -456 0
-832 -457 0
-832 -461 0
-832 -462 0
-832 -463 0
-832 -464 0
-832 -465 0
-832 -466 0
-832 -467 0
-832 -468 0
-832 -469 0
-832 -470 0
-832 -471 0
-832 -472 0
-832 -476 0
-832 -477 0
-832 -478 0
-832 -479 0
-832 -480 0
-832 -481 0
-832 -482 0
-832 -483 0
-832 -484 0
-832 -485 0
-832 -486 0
-832 -487 0
-832 -491 0
-832 -492 0
-832 -493 0
-832 -494 0
-832 -495 0
-833 -451 0
-833 -452 0
-833 -453 0
-833 -454 0
-833 -455 0
-833 -456 0
-833 -457 0
-833 -458 0
-833 -462 0
-833 -463 0
-833 -464 0
-833 -465 0
-833 -466 0
-833 -467 0
-833 -468 0
-833 -469 0
-833 -470 0
-833 -471 0
-833 -472 0
-833 -473 0
-833 -477 0
-833 -478 0
-833 -479 0
-833 -480 0
-833 -481 0
-833 -482 0
-833 -483 0
-833 -484 0
-833 -485 0
-833 -486 0
-833 -487 0
-833 -488 0
-833 -492 0
-833 -493 0
-833 -494 0
-833 -495 0
-834 -451 0
-834 -452 0
-834 -453 0
-834 -454 0
-834 -455 0
-834 -456 0
-834 -457 0
-834 -458 0
-834 -459 0
-834 -463 0
-834 -464 0
-834 -465 0
-834 -466 0
-834 -467 0
-834 -468 0
-834 -469 0
-834 -470 0
-834 -471 0
-834 -472 0
-834 -473 0
-834 -474 0
-834 -478 0
-834 -479 0
-834 -480 0
-834 -481 0
-834 -482 0
-834 -483 0
-834 -484 0
-834 -485 0
-834 -486 0
-834 -487 0
-834 -488 0
-834 -489 0
-834 -493 0
-834 -494 0
-834 -495 0
-835 -451 0
-835 -452 0
-835 -453 0
-835 -454 0
-835 -455 0
-835 -456 0
-835 -457 0
-835 -458 0
-835 -459 0
-835 -460 0
-835 -464 0
-835 -465 0
-835 -466 0
-835 -467 0
-835 -468 0
-835 -469 0
-835 -470 0
-835 -471 0
-835 -472 0
-835 -473 0
-835 -474 0
-835 -475 0
-835 -479 0
-835 -480 0
-835 -481 0
-835 -482 0
-835 -483 0
-835 -484 0
-835 -485 0
-835 -486 0
-835 -487 0
-835 -488 0
-835 -489 0
-835 -490 0
-835 -494 0
-835 -495 0
-836 -451 0
-836 -452 0
-836 -453 0
-836 -454 0
-836 -455 0
-836 -456 0
-836 -457 0
-836 -458 0
-836 -459 0
-836 -460 0
-836 -461 0
-836 -465 0
-836 -466 0
-836 -467 0
-836 -468 0
-836 -469 0
-836 -470 0
-836 -471 0
-836 -472 0
-836 -473 0
-836 -474 0
-836 -475 0
-836 -476 0
-836 -480 0
-836 -481 0
-836 -482 0
-836 -483 0
-836 -484 0
-836 -485 0
-836 -486 0
-836 -487 0
-836 -488 0
-836 -489 0
-836 -490 0
-836 -491 0
-836 -495 0
-837 -451 0
-837 -452 0
-837 -453 0
-837 -454 0
-837 -455 0
-837 -456 0
-837 -457 0
-837 -458 0
-837 -459 0
-837 -460 0
-837 -461 0
-837 -462 0
-837 -466 0
-837 -467 0
-837 -468 0
-837 -469 0
-837 -470 0
-837 -471 0
-837 -472 0
-837 -473 0
-837 -474 0
-837 -475 0
-837 -476 0
-837 -477 0
-837 -481 0
-837 -482 0
-837 -483 0
-837 -484 0
-837 -485 0
-837 -486 0
-837 -487 0
-837 -488 0
-837 -489 0
-837 -490 0
-837 -491 0
-837 -492 0
-496 -511 0
-496 -526 0
-511 -526 0
-497 -512 0
-497 -527 0
-512 -527 0
-498 -513 0
-498 -528 0
-513 -528 0
-499 -514 0
-499 -529 0
-514 -529 0
-500 -515 0
-500 -530 0
-515 -530 0
-501 -516 0
-501 -531 0
-516 -531 0
-502 -517 0
-502 -532 0
-517 -532 0
-503 -518 0
-503 -533 0
-518 -533 0
-504 -519 0
-504 -534 0
-519 -534 0
-505 -520 0
-505 -535 0
-520 -535 0
-506 -521 0
-506 -536 0
-521 -536 0
-507 -522 0
-507 -537 0
-522 -537 0
-508 -523 0
-508 -538 0
-523 -538 0
-509 -524 0
-509 -539 0
-524 -539 0
-510 -525 0
-510 -540 0
-525 -540 0
838 839 840 841 842 843 844 845 846 847 848 849 850 0
-838 -839 0
-838 -840 0
-838 -841 0
-838 -842 0
-838 -843 0
-838 -844 0
-838 -845 0
-838 -846 0
-838 -847 0
-838 -848 0
-838 -849 0
-838 -850 0
-839 -840 0
-839 -841 0
-839 -842 0
-839 -843 0
-839 -844 0
-839 -845 0
-839 -846 0
-839 -847 0
-839 -848 0
-839 -849 0
-839 -850 0
-840 -841 0
-840 -842 0
-840 -843 0
-840 -844 0
-840 -845 0
-840 -846 0
-840 -847 0
-840 -848 0
-840 -849 0
-840 -850 0
-841 -842 0
-841 -843 0
-841 -844 0
-841 -845 0
-841 -846 0
-841 -847 0
-841 -848 0
-841 -849 0
-841 -850 0
-842 -843 0
-842 -844 0
-842 -845 0
-842 -846 0
-842 -847 0
-842 -848 0
-842 -849 0
-842 -850 0
-843 -844 0
-843 -845 0
-843 -846 0
-843 -847 0
-843 -848 0
-843 -849 0
-843 -850 0
-844 -845 0
-844 -846 0
-844 -847 0
-844 -848 0
-844 -849 0
-844 -850 0
-845 -846 0
-845 -847 0
-845 -848 0
-845 -849 0
-845 -850 0
-846 -847 0
-846 -848 0
-846 -849 0
-846 -850 0
-847 -848 0
-847 -849 0
-847 -850 0
-848 -849 0
-848 -850 0
-849 -850 0
-496 838 0
-497 838 839 0
-498 838 839 840 0
-499 839 840 841 0
-500 840 841 842 0
-501 841 842 843 0
-502 842 843 844 0
-503 843 844 845 0
-504 844 845 846 0
-505 845 846 847 0
-506 846 847 848 0
-507 847 848 849 0
-508 848 849 850 0
-509 849 850 0
-510 850 0
-511 838 0
-512 838 839 0
-513 838 839 840 0
-514 839 840 841 0
-515 840 841 842 0
-516 841 842 843 0
-517 842 843 844 0
-518 843 844 845 0
-519 844 845 846 0
-520 845 846 847 0
-521 846 847 848 0
-522 847 848 849 0
-523 848 849 850 0
-524 849 850 0
-525 850 0
-526 838 0
-527 838 839 0
-528 838 839 840 0
-529 839 840 841 0
-530 840 841 842 0
-531 841 842 843 0
-532 842 843 844 0
-533 843 844 845 0
-534 844 845 846 0
-535 845 846 847 0
-536 846 847 848 0
-537 847 848 849 0
-538 848 849 850 0
-539 849 850 0
-540 850 0
-838 -499 0
-838 -500 0
-838 -501 0
-838 -502 0
-838 -503 0
-838 -504 0
-838 -505 0
-838 -506 0
-838 -507 0
-838 -508 0
-838 -509 0
-838 -510 0
-838 -514 0
-838 -515 0
-838 -516 0
-838 -517 0
-838 -518 0
-838 -519 0
-838 -520 0
-838 -521 0
-838 -522 0
-838 -523 0
-838 -524 0
-838 -525 0
-838 -529 0
-838 -530 0
-838 -531 0
-838 -532 0
-838 -533 0
-838 -534 0
-838 -535 0
-838 -536 0
-838 -537 0
-838 -538 0
-838 -539 0
-838 -540 0
-839 -496 0
-839 -500 0
-839 -501 0
-839 -502 0
-839 -503 0
-839 -504 0
-839 -505 0
-839 -506 0
-839 -507 0
-839 -508 0
-839 -509 0
-839 -510 0
-839 -511 0
-839 -515 0
-839 -516 0
-839 -517 0
-839 -518 0
-839 -519 0
-839 -520 0
-839 -521 0
-839 -522 0
-839 -523 0
-839 -524 0
-839 -525 0
-839 -526 0
-839 -530 0
-839 -531 0
-839 -532 0
-839 -533 0
-839 -534 0
-839 -535 0
-839 -536 0
-839 -537 0
-839 -538 0
-839 -539 0
-839 -540 0
-840 -496 0
-840 -497 0
-840 -501 0
-840 -502 0
-840 -503 0
-840 -504 0
-840 -505 0
-840 -506 0
-840 -507 0
-840 -508 0
-840 -509 0
-840 -510 0
-840 -511 0
-840 -512 0
-840 -516 0
-840 -517 0
-840 -518 0
-840 -519 0
-840 -520 0
-840 -521 0
-840 -522 0
-840 -523 0
-840 -524 0
-840 -525 0
-840 -526 0
-840 -527 0
-840 -531 0
-840 -532 0
-840 -533 0
-840 -534 0
-840 -535 0
-840 -536 0
-840 -537 0
-840 -538 0
-840 -539 0
-840 -540 0
-841 -496 0
-841 -497 0
-841 -498 0
-841 -502 0
-841 -503 0
-841 -504 0
-841 -505 0
-841 -506 0
-841 -507 0
-841 -508 0
-841 -509 0
-841 -510 0
-841 -511 0
-841 -512 0
-841 -513 0
-841 -517 0
-841 -518 0
-841 -519 0
-841 -520 0
-841 -521 0
-841 -522 0
-841 -523 0
-841 -524 0
-841 -525 0
-841 -526 0
-841 -527 0
-841 -528 0
-841 -532 0
-841 -533 0
-841 -534 0
-841 -535 0
-841 -536 0
-841 -537 0
-841 -538 0
-841 -539 0
-841 -540 0
-842 -496 0
-842 -497 0
-842 -498 0
-842 -499 0
-842 -503 0
-842 -504 0
-842 -505 0
-842 -506 0
-842 -507 0
-842 -508 0
-842 -509 0
-842 -510 0
-842 -511 0
-842 -512 0
-842 -513 0
-842 -514 0
-842 -518 0
-842 -519 0
-842 -520 0
-842 -521 0
-842 -522 0
-842 -523 0
-842 -524 0
-842 -525 0
-842 -526 0
-842 -527 0
-842 -528 0
-842 -529 0
-842 -533 0
-842 -534 0
-842 -535 0
-842 -536 0
-842 -537 0
-842 -538 0
-842 -539 0
-842 -540 0
-843 -496 0
-843 -497 0
-843 -498 0
-843 -499 0
-843 -500 0
-843 -504 0
-843 -505 0
-843 -506 0
-843 -507 0
-843 -508 0
-843 -509 0
-843 -510 0
-843 -511 0
-843 -512 0
-843 -513 0
-843 -514 0
-843 -515 0
-843 -519 0
-843 -520 0
-843 -521 0
-843 -522 0
-843 -523 0
-843 -524 0
-843 -525 0
-843 -526 0
-843 -527 0
-843 -528 0
-843 -529 0
-843 -530 0
-843 -534 0
-843 -535 0
-843 -536 0
-843 -537 0
-843 -538 0
-843 -539 0
-843 -540 0
-844 -496 0
-844 -497 0
-844 -498 0
-844 -499 0
-844 -500 0
-844 -501 0
-844 -505 0
-844 -506 0
-844 -507 0
-844 -508 0
-844 -509 0
-844 -510 0
-844 -511 0
-844 -512 0
-844 -513 0
-844 -514 0
-844 -515 0
-844 -516 0
-844 -520 0
-844 -521 0
-844 -522 0
-844 -523 0
-844 -524 0
-844 -525 0
-844 -526 0
-844 -527 0
-844 -528 0
-844 -529 0
-844 -530 0
-844 -531 0
-844 -535 0
-844 -536 0
-844 -537 0
-844 -538 0
-844 -539 0
-844 -540 0
-845 -496 0
-845 -497 0
-845 -498 0
-845 -499 0
-845 -500 0
-845 -501 0
-845 -502 0
-845 -506 0
-845 -507 0
-845 -508 0
-845 -509 0
-845 -510 0
-845 -511 0
-845 -512 0
-845 -513 0
-845 -514 0
-845 -515 0
-845 -516 0
-845 -517 0
-845 -521 0
-845 -522 0
-845 -523 0
-845 -524 0
-845 -525 0
-845 -526 0
-845 -527 0
-845 -528 0
-845 -529 0
-845 -530 0
-845 -531 0
-845 -532 0
-845 -536 0
-845 -537 0
-845 -538 0
-845 -539 0
-845 -540 0
-846 -496 0
-846 -497 0
-846 -498 0
-846 -499 0
-846 -500 0
-846 -501 0
-846 -502 0
-846 -503 0
-846 -507 0
-846 -508 0
-846 -509 0
-846 -510 0
-846 -511 0
-846 -512 0
-846 -513 0
-846 -514 0
-846 -515 0
-846 -516 0
-846 -517 0
-846 -518 0
-846 -522 0
-846 -523 0
-846 -524 0
-846 -525 0
-846 -526 0
-846 -527 0
-846 -528 0
-846 -529 0
-846 -530 0
-846 -531 0
-846 -532 0
-846 -533 0
-846 -537 0
-846 -538 0
-846 -539 0
-846 -540 0
-847 -496 0
-847 -497 0
-847 -498 0
-847 -499 0
-847 -500 0
-847 -501 0
-847 -502 0
-847 -503 0
-847 -504 0
-847 -508 0
-847 -509 0
-847 -510 0
-847 -511 0
-847 -512 0
-847 -513 0
-847 -514 0
-847 -515 0
-847 -516 0
-847 -517 0
-847 -518 0
-847 -519 0
-847 -523 0
-847 -524 0
-847 -525 0
-847 -526 0
-847 -527 0
-847 -528 0
-847 -529 0
-847 -530 0
-847 -531 0
-847 -532 0
-847 -533 0
-847 -534 0
-847 -538 0
-847 -539 0
-847 -540 0
-848 -496 0
-848 -497 0
-848 -498 0
-848 -499 0
-848 -500 0
-848 -501 0
-848 -502 0
-848 -503 0
-848 -504 0
-848 -505 0
-848 -509 0
-848 -510 0
-848 -511 0
-848 -512 0
-848 -513 0
-848 -514 0
-848 -515 0
-848 -516 0
-848 -517 0
-848 -518 0
-848 -519 0
-848 -520 0
-848 -524 0
-848 -525 0
-848 -526 0
-848 -527 0
-848 -528 0
-848 -529 0
-848 -530 0
-848 -531 0
-848 -532 0
-848 -533 0
-848 -534 0
-848 -535 0
-848 -539 0
-848 -540 0
-849 -496 0
-849 -497 0
-849 -498 0
-849 -499 0
-849 -500 0
-849 -501 0
-849 -502 0
-849 -503 0
-849 -504 0
-849 -505 0
-849 -506 0
-849 -510 0
-849 -511 0
-849 -512 0
-849 -513 0
-849 -514 0
-849 -515 0
-849 -516 0
-849 -517 0
-849 -518 0
-849 -519 0
-849 -520 0
-849 -521 0
-849 -525 0
-849 -526 0
-849 -527 0
-849 -528 0
-849 -529 0
-849 -530 0
-849 -531 0
-849 -532 0
-849 -533 0
-849 -534 0
-849 -535 0
-849 -536 0
-849 -540 0
-850 -496 0
-850 -497 0
-850 -498 0
-850 -499 0
-850 -500 0
-850 -501 0
-850 -502 0
-850 -503 0
-850 -504 0
-850 -505 0
-850 -506 0
-850 -507 0
-850 -511 0
-850 -512 0
-850 -513 0
-850 -514 0
-850 -515 0
-850 -516 0
-850 -517 0
-850 -518 0
-850 -519 0
-850 -520 0
-850 -521 0
-850 -522 0
-850 -526 0
-850 -527 0
-850 -528 0
-850 -529 0
-850 -530 0
-850 -531 0
-850 -532 0
-850 -533 0
-850 -534 0
-850 -535 0
-850 -536 0
-850 -537 0
-541 -556 0
-541 -571 0
-556 -571 0
-542 -557 0
-542 -572 0
-557 -572 0
-543 -558 0
-543 -573 0
-558 -573 0
-544 -559 0
-544 -574 0
-559 -574 0
-545 -560 0
-545 -575 0
-560 -575 0
-546 -561 0
-546 -576 0
-561 -576 0
-547 -562 0
-547 -577 0
-562 -577 0
-548 -563 0
-548 -578 0
-563 -578 0
-549 -564 0
-549 -579 0
-564 -579 0
-550 -565 0
-550 -580 0
-565 -580 0
-551 -566 0
-551 -581 0
-566 -581 0
-552 -567 0
-552 -582 0
-567 -582 0
-553 -568 0
-553 -583 0
-568 -583 0
-554 -569 0
-554 -584 0
-569 -584 0
-555 -570 0
-555 -585 0
-570 -585 0
851 852 853 854 855 856 857 858 859 860 861 862 863 0
-851 -852 0
-851 -853 0
-851 -854 0
-851 -855 0
-851 -856 0
-851 -857 0
-851 -858 0
-851 -859 0
-851 -860 0
-851 -861 0
-851 -862 0
-851 -863 0
-852 -853 0
-852 -854 0
-852 -855 0
-852 -856 0
-852 -857 0
-852 -858 0
-852 -859 0
-852 -860 0
-852 -861 0
-852 -862 0
-852 -863 0
-853 -854 0
-853 -855 0
-853 -856 0
-853 -857 0
-853 -858 0
-853 -859 0
-853 -860 0
-853 -861 0
-853 -862 0
-853 -863 0
-854 -855 0
-854 -856 0
-854 -857 0
-854 -858 0
-854 -859 0
-854 -860 0
-854 -861 0
-854 -862 0
-854 -863 0
-855 -856 0
-855 -857 0
-855 -858 0
-855 -859 0
-855 -860 0
-855 -861 0
-855 -862 0
-855 -863 0
-856 -857 0
-856 -858 0
-856 -859 0
-856 -860 0
-856 -861 0
-856 -862 0
-856 -863 0
-857 -858 0
-857 -859 0
-857 -860 0
-857 -861 0
-857 -862 0
-857 -863 0
-858 -859 0
-858 -860 0
-858 -861 0
-858 -862 0
-858 -863 0
-859 -860 0
-859 -861 0
-859 -862 0
-859 -863 0
-860 -861 0
-860 -862 0
-860 -863 0
-861 -862 0
-861 -863 0
-862 -863 0
-541 851 0
-542 851 852 0
-543 851 852 853 0
-544 852 853 854 0
-545 853 854 855 0
-546 854 855 856 0
-547 855 856 857 0
-548 856 857 858 0
-549 857 858 859 0
-550 858 859 860 0
-551 859 860 861 0
-552 860 861 862 0
-553 861 862 863 0
-554 862 863 0
-555 863 0
-556 851 0
-557 851 852 0
-558 851 852 853 0
-559 852 853 854 0
-560 853 854 855 0
-561 854 855 856 0
-562 855 856 857 0
-563 856 857 858 0
-564 857 858 859 0
-565 858 859 860 0
-566 859 860 861 0
-567 860 861 862 0
-568 861 862 863 0
-569 862 863 0
-570 863 0
-571 851 0
-572 851 852 0
-573 851 852 853 0
-574 852 853 854 0
-575 853 854 855 0
-576 854 855 856 0
-577 855 856 857 0
-578 856 857 858 0
-579 857 858 859 0
-580 858 859 860 0
-581 859 860 861 0
-582 860 861 862 0
-583 861 862 863 0
-584 862 863 0
-585 863 0
-851 -544 0
-851 -545 0
-851 -546 0
-851 -547 0
-851 -548 0
-851 -549 0
-851 -550 0
-851 -551 0
-851 -552 0
-851 -553 0
-851 -554 0
-851 -555 0
-851 -559 0
-851 -560 0
-851 -561 0
-851 -562 0
-851 -563 0
-851 -564 0
-851 -565 0
-851 -566 0
-851 -567 0
-851 -568 0
-851 -569 0
-851 -570 0
-851 -574 0
-851 -575 0
-851 -576 0
-851 -577 0
-851 -578 0
-851 -579 0
-851 -580 0
-851 -581 0
-851 -582 0
-851 -583 0
-851 -584 0
-851 -585 0
-852 -541 0
-852 -545 0
-852 -546 0
-852 -547 0
-852 -548 0
-852 -549 0
-852 -550 0
-852 -551 0
-852 -552 0
-852 -553 0
-852 -554 0
-852 -555 0
-852 -556 0
-852 -560 0
-852 -561 0
-852 -562 0
-852 -563 0
-852 -564 0
-852 -565 0
-852 -566 0
-852 -567 0
-852 -568 0
-852 -569 0
-852 -570 0
-852 -571 0
-852 -575 0
-852 -576 0
-852 -577 0
-852 -578 0
-852 -579 0
-852 -580 0
-852 -581 0
-852 -582 0
-852 -583 0
-852 -584 0
-852 -585 0
-853 -541 0
-853 -542 0
-853 -546 0
-853 -547 0
-853 -548 0
-853 -549 0
-853 -550 0
-853 -551 0
-853 -552 0
-853 -553 0
-853 -554 0
-853 -555 0
-853 -556 0
-853 -557 0
-853 -561 0
-853 -562 0
-853 -563 0
-853 -564 0
-853 -565 0
-853 -566 0
-853 -567 0
-853 -568 0
-853 -569 0
-853 -570 0
-853 -571 0
-853 -572 0
-853 -576 0
-853 -577 0
-853 -578 0
-853 -579 0
-853 -580 0
-853 -581 0
-853 -582 0
-853 -583 0
-853 -584 0
-853 -585 0
-854 -541 0
-854 -542 0
-854 -543 0
-854 -547 0
-854 -548 0
-854 -549 0
-854 -550 0
-854 -551 0
-854 -552 0
-854 -553 0
-854 -554 0
-854 -555 0
-854 -556 0
-854 -557 0
-854 -558 0
-854 -562 0
-854 -563 0
-854 -564 0
-854 -565 0
-854 -566 0
-854 -567 0
-854 -568 0
-854 -569 0
-854 -570 0
-854 -571 0
-854 -572 0
-854 -573 0
-854 -577 0
-854 -578 0
-854 -579 0
-854 -580 0
-854 -581 0
-854 -582 0
-854 -583 0
-854 -584 0
-854 -585 0
-855 -541 0
-855 -542 0
-855 -543 0
-855 -544 0
-855 -548 0
-855 -549 0
-855 -550 0
-855 -551 0
-855 -552 0
-855 -553 0
-855 -554 0
-855 -555 0
-855 -556 0
-855 -557 0
-855 -558 0
-855 -559 0
-855 -563 0
-855 -564 0
-855 -565 0
-855 -566 0
-855 -567 0
-855 -568 0
-855 -569 0
-855 -570 0
-855 -571 0
-855 -572 0
-855 -573 0
-855 -574 0
-855 -578 0
-855 -579 0
-855 -580 0
-855 -581 0
-855 -582 0
-855 -583 0
-855 -584 0
-855 -585 0
-856 -541 0
-856 -542 0
-856 -543 0
-856 -544 0
-856 -545 0
-856 -549 0
-856 -550 0
-856 -551 0
-856 -552 0
-856 -553 0
-856 -554 0
-856 -555 0
-856 -556 0
-856 -557 0
-856 -558 0
-856 -559 0
-856 -560 0
-856 -564 0
-856 -565 0
-856 -566 0
-856 -567 0
-856 -568 0
-856 -569 0
-856 -570 0
-856 -571 0
-856 -572 0
-856 -573 0
-856 -574 0
-856 -575 0
-856 -579 0
-856 -580 0
-856 -581 0
-856 -582 0
-856 -583 0
-856 -584 0
-856 -585 0
-857 -541 0
-857 -542 0
-857 -543 0
-857 -544 0
-857 -545 0
-857 -546 0
-857 -550 0
-857 -551 0
-857 -552 0
-857 -553 0
-857 -554 0
-857 -555 0
-857 -556 0
-857 -557 0
-857 -558 0
-857 -559 0
-857 -560 0
-857 -561 0
-857 -565 0
-857 -566 0
-857 -567 0
-857 -568 0
-857 -569 0
-857 -570 0
-857 -571 0
-857 -572 0
-857 -573 0
-857 -574 0
-857 -575 0
-857 -576 0
-857 -580 0
-857 -581 0
-857 -582 0
-857 -583 0
-857 -584 0
-857 -585 0
-858 -541 0
-858 -542 0
-858 -543 0
-858 -544 0
-858 -545 0
-858 -546 0
-858 -547 0
-858 -551 0
-858 -552 0
-858 -553 0
-858 -554 0
-858 -555 0
-858 -556 0
-858 -557 0
-858 -558 0
-858 -559 0
-858 -560 0
-858 -561 0
-858 -562 0
-858 -566 0
-858 -567 0
-858 -568 0
-858 -569 0
-858 -570 0
-858 -571 0
-858 -572 0
-858 -573 0
-858 -574 0
-858 -575 0
-858 -576 0
-858 -577 0
-858 -581 0
-858 -582 0
-858 -583 0
-858 -584 0
-858 -585 0
-859 -541 0
-859 -542 0
-859 -543 0
-859 -544 0
-859 -545 0
-859 -546 0
-859 -547 0
-859 -548 0
-859 -552 0
-859 -553 0
-859 -554 0
-859 -555 0
-859 -556 0
-859 -557 0
-859 -558 0
-859 -559 0
-859 -560 0
-859 -561 0
-859 -562 0
-859 -563 0
-859 -567 0
-859 -568 0
-859 -569 0
-859 -570 0
-859 -571 0
-859 -572 0
-859 -573 0
-859 -574 0
-859 -575 0
-859 -576 0
-859 -577 0
-859 -578 0
-859 -582 0
-859 -583 0
-859 -584 0
-859 -585 0
-860 -541 0
-860 -542 0
-860 -543 0
-860 -544 0
-860 -545 0
-860 -546 0
-860 -547 0
-860 -548 0
-860 -549 0
-860 -553 0
-860 -554 0
-860 -555 0
-860 -556 0
-860 -557 0
-860 -558 0
-860 -559 0
-860 -560 0
-860 -561 0
-860 -562 0
-860 -563 0
-860 -564 0
-860 -568 0
-860 -569 0
-860 -570 0
-860 -571 0
-860 -572 0
-860 -573 0
-860 -574 0
-860 -575 0
-860 -576 0
-860 -577 0
-860 -578 0
-860 -579 0
-860 -583 0
-860 -584 0
-860 -585 0
-861 -541 0
-861 -542 0
-861 -543 0
-861 -544 0
-861 -545 0
-861 -546 0
-861 -547 0
-861 -548 0
-861 -549 0
-861 -550 0
-861 -554 0
-861 -555 0
-861 -556 0
-861 -557 0
-861 -558 0
-861 -559 0
-861 -560 0
-861 -561 0
-861 -562 0
-861 -563 0
-861 -564 0
-861 -565 0
-861 -569 0
-861 -570 0
-861 -571 0
-861 -572 0
-861 -573 0
-861 -574 0
-861 -575 0
-861 -576 0
-861 -577 0
-861 -578 0
-861 -579 0
-861 -580 0
-861 -584 0
-861 -585 0
-862 -541 0
-862 -542 0
-862 -543 0
-862 -544 0
-862 -545 0
-862 -546 0
-862 -547 0
-862 -548 0
-862 -549 0
-862 -550 0
-862 -551 0
-862 -555 0
-862 -556 0
-862 -557 0
-862 -558 0
-862 -559 0
-862 -560 0
-862 -561 0
-862 -562 0
-862 -563 0
-862 -564 0
-862 -565 0
-862 -566 0
-862 -570 0
-862 -571 0
-862 -572 0
-862 -573 0
-862 -574 0
-862 -575 0
-862 -576 0
-862 -577 0
-862 -578 0
-862 -579 0
-862 -580 0
-862 -581 0
-862 -585 0
-863 -541 0
-863 -542 0
-863 -543 0
-863 -544 0
-863 -545 0
-863 -546 0
-863 -547 0
-863 -548 0
-863 -549 0
-863 -550 0
-863 -551 0
-863 -552 0
-863 -556 0
-863 -557 0
-863 -558 0
-863 -559 0
-863 -560 0
-863 -561 0
-863 -562 0
-863 -563 0
-863 -564 0
-863 -565 0
-863 -566 0
-863 -567 0
-863 -571 0
-863 -572 0
-863 -573 0
-863 -574 0
-863 -575 0
-863 -576 0
-863 -577 0
-863 -578 0
-863 -579 0
-863 -580 0
-863 -581 0
-863 -582 0
-586 -601 0
-586 -616 0
-601 -616 0
-587 -602 0
-587 -617 0
-602 -617 0
-588 -603 0
-588 -618 0
-603 -618 0
-589 -604 0
-589 -619 0
-604 -619 0
-590 -605 0
-590 -620 0
-605 -620 0
-591 -606 0
-591 -621 0
-606 -621 0
-592 -607 0
-592 -622 0
-607 -622 0
-593 -608 0
-593 -623 0
-608 -623 0
-594 -609 0
-594 -624 0
-609 -624 0
-595 -610 0
-595 -625 0
-610 -625 0
-596 -611 0
-596 -626 0
-611 -626 0
-597 -612 0
-597 -627 0
-612 -627 0
-598 -613 0
-598 -628 0
-613 -628 0
-599 -614 0
-599 -629 0
-614 -629 0
-600 -615 0
-600 -630 0
-615 -630 0
864 865 866 867 868 869 870 871 872 873 874 875 876 0
-864 -865 0
-864 -866 0
-864 -867 0
-864 -868 0
-864 -869 0
-864 -870 0
-864 -871 0
-864 -872 0
-864 -873 0
-864 -874 0
-864 -875 0
-864 -876 0
-865 -866 0
-865 -867 0
-865 -868 0
-865 -869 0
-865 -870 0
-865 -871 0
-865 -872 0
-865 -873 0
-865 -874 0
-865 -875 0
-865 -876 0
-866 -867 0
-866 -868 0
-866 -869 0
-866 -870 0
-866 -871 0
-866 -872 0
-866 -873 0
-866 -874 0
-866 -875 0
-866 -876 0
-867 -868 0
-867 -869 0
-867 -870 0
-867 -871 0
-867 -872 0
-867 -873 0
-867 -874 0
-867 -875 0
-867 -876 0
-868 -869 0
-868 -870 0
-868 -871 0
-868 -872 0
-868 -873 0
-868 -874 0
-868 -875 0
-868 -876 0
-869 -870 0
-869 -871 0
-869 -872 0
-869 -873 0
-869 -874 0
-869 -875 0
-869 -876 0
-870 -871 0
-870 -872 0
-870 -873 0
-870 -874 0
-870 -875 0
-870 -876 0
-871 -872 0
-871 -873 0
-871 -874 0
-871 -875 0
-871 -876 0
-872 -873 0
-872 -874 0
-872 -875 0
-872 -876 0
-873 -874 0
-873 -875 0
-873 -876 0
-874 -875 0
-874 -876 0
-875 -876 0
-586 864 0
-587 864 865 0
-588 864 865 866 0
-589 865 866 867 0
-590 866 867 868 0
-591 867 868 869 0
-592 868 869 870 0
-593 869 870 871 0
-594 870 871 872 0
-595 871 872 873 0
-596 872 873 874 0
-597 873 874 875 0
-598 874 875 876 0
-599 875 876 0
-600 876 0
-601 864 0
-602 864 865 0
-603 864 865 866 0
-604 865 866 867 0
-605 866 867 868 0
-606 867 868 869 0
-607 868 869 870 0
-608 869 870 871 0
-609 870 871 872 0
-610 871 872 873 0
-611 872 873 874 0
-612 873 874 875 0
-613 874 875 876 0
-614 875 876 0
-615 876 0
-616 864 0
-617 864 865 0
-618 864 865 866 0
-619 865 866 867 0
-620 866 867 868 0
-621 867 868 869 0
-622 868 869 870 0
-623 869 870 871 0
-624 870 871 872 0
-625 871 872 873 0
-626 872 873 874 0
-627 873 874 875 0
-628 874 875 876 0
-629 875 876 0
-630 876 0
-864 -589 0
-864 -590 0
-864 -591 0
-864 -592 0
-864 -593 0
-864 -594 0
-864 -595 0
-864 -596 0
-864 -597 0
-864 -598 0
-864 -599 0
-864 -600 0
-864 -604 0
-864 -605 0
-864 -606 0
-864 -607 0
-864 -608 0
-864 -609 0
-864 -610 0
-864 -611 0
-864 -612 0
-864 -613 0
-864 -614 0
-864 -615 0
-864 -619 0
-864 -620 0
-864 -621 0
-864 -622 0
-864 -623 0
-864 -624 0
-864 -625 0
-864 -626 0
-864 -627 0
-864 -628 0
-864 -629 0
-864 -630 0
-865 -586 0
-865 -590 0
-865 -591 0
-865 -592 0
-865 -593 0
-865 -594 0
-865 -595 0
-865 -596 0
-865 -597 0
-865 -598 0
-865 -599 0
-865 -600 0
-865 -601 0
-865 -605 0
-865 -606 0
-865 -607 0
-865 -608 0
-865 -609 0
-865 -610 0
-865 -611 0
-865 -612 0
-865 -613 0
-865 -614 0
-865 -615 0
-865 -616 0
-865 -620 0
-865 -621 0
-865 -622 0
-865 -623 0
-865 -624 0
-865 -625 0
-865 -626 0
-865 -627 0
-865 -628 0
-865 -629 0
-865 -630 0
-866 -586 0
-866 -587 0
-866 -591 0
-866 -592 0
-866 -593 0
-866 -594 0
-866 -595 0
-866 -596 0
-866 -597 0
-866 -598 0
-866 -599 0
-866 -600 0
-866 -601 0
-866 -602 0
-866 -606 0
-866 -607 0
-866 -608 0
-866 -609 0
-866 -610 0
-866 -611 0
-866 -612 0
-866 -613 0
-866 -614 0
-866 -615 0
-866 -616 0
-866 -617 0
-866 -621 0
-866 -622 0
-866 -623 0
-866 -624 0
-866 -625 0
-866 -626 0
-866 -627 0
-866 -628 0
-866 -629 0
-866 -630 0
-867 -586 0
-867 -587 0
-867 -588 0
-867 -592 0
-867 -593 0
-867 -594 0
-867 -595 0
-867 -596 0
-867 -597 0
-867 -598 0
-867 -599 0
-867 -600 0
-867 -601 0
-867 -602 0
-867 -603 0
-867 -607 0
-867 -608 0
-867 -609 0
-867 -610 0
-867 -611 0
-867 -612 0
-867 -613 0
-867 -614 0
-867 -615 0
-867 -616 0
-867 -617 0
-867 -618 0
-867 -622 0
-867 -623 0
-867 -624 0
-867 -625 0
-867 -626 0
-867 -627 0
-867 -628 0
-867 -629 0
-867 -630 0
-868 -586 0
-868 -587 0
-868 -588 0
-868 -589 0
-868 -593 0
-868 -594 0
-868 -595 0
-868 -596 0
-868 -597 0
-868 -598 0
-868 -599 0
-868 -600 0
-868 -601 0
-868 -602 0
-868 -603 0
-868 -604 0
-868 -608 0
-868 -609 0
-868 -610 0
-868 -611 0
-868 -612 0
-868 -613 0
-868 -614 0
-868 -615 0
-868 -616 0
-868 -617 0
-868 -618 0
-868 -619 0
-868 -623 0
-868 -624 0
-868 -625 0
-868 -626 0
-868 -627 0
-868 -628 0
-868 -629 0
-868 -630 0
-869 -586 0
-869 -587 0
-869 -588 0
-869 -589 0
-869 -590 0
-869 -594 0
-869 -595 0
-869 -596 0
-869 -597 0
-869 -598 0
-869 -599 0
-869 -600 0
-869 -601 0
-869 -602 0
-869 -603 0
-869 -604 0
-869 -605 0
-869 -609 0
-869 -610 0
-869 -611 0
-869 -612 0
-869 -613 0
-869 -614 0
-869 -615 0
-869 -616 0
-869 -617 0
-869 -618 0
-869 -619 0
-869 -620 0
-869 -624 0
-869 -625 0
-869 -626 0
-869 -627 0
-869 -628 0
-869 -629 0
-869 -630 0
-870 -586 0
-870 -587 0
-870 -588 0
-870 -589 0
-870 -590 0
-870 -591 0
-870 -595 0
-870 -596 0
-870 -597 0
-870 -598 0
-870 -599 0
-870 -600 0
-870 -601 0
-870 -602 0
-870 -603 0
-870 -604 0
-870 -605 0
-870 -606 0
-870 -610 0
-870 -611 0
-870 -612 0
-870 -613 0
-870 -614 0
-870 -615 0
-870 -616 0
-870 -617 0
-870 -618 0
-870 -619 0
-870 -620 0
-870 -621 0
-870 -625 0
-870 -626 0
-870 -627 0
-870 -628 0
-870 -629 0
-870 -630 0
-871 -586 0
-871 -587 0
-871 -588 0
-871 -589 0
-871 -590 0
-871 -591 0
-871 -592 0
-871 -596 0
-871 -597 0
-871 -598 0
-871 -599 0
-871 -600 0
-871 -601 0
-871 -602 0
-871 -603 0
-871 -604 0
-871 -605 0
-871 -606 0
-871 -607 0
-871 -611 0
-871 -612 0
-871 -613 0
-871 -614 0
-871 -615 0
-871 -616 0
-871 -617 0
-871 -618 0
-871 -619 0
-871 -620 0
-871 -621 0
-871 -622 0
-871 -626 0
-871 -627 0
-871 -628 0
-871 -629 0
-871 -630 0
-872 -586 0
-872 -587 0
-872 -588 0
-872 -589 0
-872 -590 0
-872 -591 0
-872 -592 0
-872 -593 0
-872 -597 0
-872 -598 0
-872 -599 0
-872 -600 0
-872 -601 0
-872 -602 0
-872 -603 0
-872 -604 0
-872 -605 0
-872 -606 0
-872 -607 0
-872 -608 0
-872 -612 0
-872 -613 0
-872 -614 0
-872 -615 0
-872 -616 0
-872 -617 0
-872 -618 0
-872 -619 0
-872 -620 0
-872 -621 0
-872 -622 0
-872 -623 0
-872 -627 0
-872 -628 0
-872 -629 0
-872 -630 0
-873 -586 0
-873 -587 0
-873 -588 0
-873 -589 0
-873 -590 0
-873 -591 0
-873 -592 0
-873 -593 0
-873 -594 0
-873 -598 0
-873 -599 0
-873 -600 0
-873 -601 0
-873 -602 0
-873 -603 0
-873 -604 0
-873 -605 0
-873 -606 0
-873 -607 0
-873 -608 0
-873 -609 0
-873 -613 0
-873 -614 0
-873 -615 0
-873 -616 0
-873 -617 0
-873 -618 0
-873 -619 0
-873 -620 0
-873 -621 0
-873 -622 0
-873 -623 0
-873 -624 0
-873 -628 0
-873 -629 0
-873 -630 0
-874 -586 0
-874 -587 0
-874 -588 0
-874 -589 0
-874 -590 0
-874 -591 0
-874 -592 0
-874 -593 0
-874 -594 0
-874 -595 0
-874 -599 0
-874 -600 0
-874 -601 0
-874 -602 0
-874 -603 0
-874 -604 0
-874 -605 0
-874 -606 0
-874 -607 0
-874 -608 0
-874 -609 0
-874 -610 0
-874 -614 0
-874 -615 0
-874 -616 0
-874 -617 0
-874 -618 0
-874 -619 0
-874 -620 0
-874 -621 0
-874 -622 0
-874 -623 0
-874 -624 0
-874 -625 0
-874 -629 0
-874 -630 0
-875 -586 0
-875 -587 0
-875 -588 0
-875 -589 0
-875 -590 0
-875 -591 0
-875 -592 0
-875 -593 0
-875 -594 0
-875 -595 0
-875 -596 0
-875 -600 0
-875 -601 0
-875 -602 0
-875 -603 0
-875 -604 0
-875 -605 0
-875 -606 0
-875 -607 0
-875 -608 0
-875 -609 0
-875 -610 0
-875 -611 0
-875 -615 0
-875 -616 0
-875 -617 0
-875 -618 0
-875 -619 0
-875 -620 0
-875 -621 0
-875 -622 0
-875 -623 0
-875 -624 0
-875 -625 0
-875 -626 0
-875 -630 0
-876 -586 0
-876 -587 0
-876 -588 0
-876 -589 0
-876 -590 0
-876 -591 0
-876 -592 0
-876 -593 0
-876 -594 0
-876 -595 0
-876 -596 0
-876 -597 0
-876 -601 0
-876 -602 0
-876 -603 0
-876 -604 0
-876 -605 0
-876 -606 0
-876 -607 0
-876 -608 0
-876 -609 0
-876 -610 0
-876 -611 0
-876 -612 0
-876 -616 0
-876 -617 0
-876 -618 0
-876 -619 0
-876 -620 0
-876 -621 0
-876 -622 0
-876 -623 0
-876 -624 0
-876 -625 0
-876 -626 0
-876 -627 0
-631 -646 0
-631 -661 0
-646 -661 0
-632 -647 0
-632 -662 0
-647 -662 0
-633 -648 0
-633 -663 0
-648 -663 0
-634 -649 0
-634 -664 0
-649 -664 0
-635 -650 0
-635 -665 0
-650 -665 0
-636 -651 0
-636 -666 0
-651 -666 0
-637 -652 0
-637 -667 0
-652 -667 0
-638 -653 0
-638 -668 0
-653 -668 0
-639 -654 0
-639 -669 0
-654 -669 0
-640 -655 0
-640 -670 0
-655 -670 0
-641 -656 0
-641 -671 0
-656 -671 0
-642 -657 0
-642 -672 0
-657 -672 0
-643 -658 0
-643 -673 0
-658 -673 0
-644 -659 0
-644 -674 0
-659 -674 0
-645 -660 0
-645 -675 0
-660 -675 0
877 878 879 880 881 882 883 884 885 886 887 888 889 0
-877 -878 0
-877 -879 0
-877 -880 0
-877 -881 0
-877 -882 0
-877 -883 0
-877 -884 0
-877 -885 0
-877 -886 0
-877 -887 0
-877 -888 0
-877 -889 0
-878 -879 0
-878 -880 0
-878 -881 0
-878 -882 0
-878 -883 0
-878 -884 0
-878 -885 0
-878 -886 0
-878 -887 0
-878 -888 0
-878 -889 0
-879 -880 0
-879 -881 0
-879 -882 0
-879 -883 0
-879 -884 0
-879 -885 0
-879 -886 0
-879 -887 0
-879 -888 0
-879 -889 0
-880 -881 0
-880 -882 0
-880 -883 0
-880 -884 0
-880 -885 0
-880 -886 0
-880 -887 0
-880 -888 0
-880 -889 0
-881 -882 0
-881 -883 0
-881 -884 0
-881 -885 0
-881 -886 0
-881 -887 0
-881 -888 0
-881 -889 0
-882 -883 0
-882 -884 0
-882 -885 0
-882 -886 0
-882 -887 0
-882 -888 0
-882 -889 0
-883 -884 0
-883 -885 0
-883 -886 0
-883 -887 0
-883 -888 0
-883 -889 0
-884 -885 0
-884 -886 0
-884 -887 0
-884 -888 0
-884 -889 0
-885 -886 0
-885 -887 0
-885 -888 0
-885 -889 0
-886 -887 0
-886 -888 0
-886 -889 0
-887 -888 0
-887 -889 0
-888 -889 0
-631 877 0
-632 877 878 0
-633 877 878 879 0
-634 878 879 880 0
-635 879 880 881 0
-636 880 881 882 0
-637 881 882 883 0
-638 882 883 884 0
-639 883 884 885 0
-640 884 885 886 0
-641 885 886 887 0
-642 886 887 888 0
-643 887 888 889 0
-644 888 889 0
-645 889 0
-646 877 0
-647 877 878 0
-648 877 878 879 0
-649 878 879 880 0
-650 879 880 881 0
-651 880 881 882 0
-652 881 882 883 0
-653 882 883 884 0
-654 883 884 885 0
-655 884 885 886 0
-656 885 886 887 0
-657 886 887 888 0
-658 887 888 889 0
-659 888 889 0
-660 889 0
-661 877 0
-662 877 878 0
-663 877 878 879 0
-664 878 879 880 0
-665 879 880 881 0
-666 880 881 882 0
-667 881 882 883 0
-668 882 883 884 0
-669 883 884 885 0
-670 884 885 886 0
-671 885 886 887 0
-672 886 887 888 0
-673 887 888 889 0
-674 888 889 0
-675 889 0
-877 -634 0
-877 -635 0
-877 -636 0
-877 -637 0
-877 -638 0
-877 -639 0
-877 -640 0
-877 -641 0
-877 -642 0
-877 -643 0
-877 -644 0
-877 -645 0
-877 -649 0
-877 -650 0
-877 -651 0
-877 -652 0
-877 -653 0
-877 -654 0
-877 -655 0
-877 -656 0
-877 -657 0
-877 -658 0
-877 -659 0
-877 -660 0
-877 -664 0
-877 -665 0
-877 -666 0
-877 -667 0
-877 -668 0
-877 -669 0
-877 -670 0
-877 -671 0
-877 -672 0
-877 -673 0
-877 -674 0
-877 -675 0
-878 -631 0
-878 -635 0
-878 -636 0
-878 -637 0
-878 -638 0
-878 -639 0
-878 -640 0
-878 -641 0
-878 -642 0
-878 -643 0
-878 -644 0
-878 -645 0
-878 -646 0
-878 -650 0
-878 -651 0
-878 -652 0
-878 -653 0
-878 -654 0
-878 -655 0
-878 -656 0
-878 -657 0
-878 -658 0
-878 -659 0
-878 -660 0
-878 -661 0
-878 -665 0
-878 -666 0
-878 -667 0
-878 -668 0
-878 -669 0
-878 -670 0
-878 -671 0
-878 -672 0
-878 -673 0
-878 -674 0
-878 -675 0
-879 -631 0
-879 -632 0
-879 -636 0
-879 -637 0
-879 -638 0
-879 -639 0
-879 -640 0
-879 -641 0
-879 -642 0
-879 -643 0
-879 -644 0
-879 -645 0
-879 -646 0
-879 -647 0
-879 -651 0
-879 -652 0
-879 -653 0
-879 -654 0
-879 -655 0
-879 -656 0
-879 -657 0
-879 -658 0
-879 -659 0
-879 -660 0
-879 -661 0
-879 -662 0
-879 -666 0
-879 -667 0
-879 -668 0
-879 -669 0
-879 -670 0
-879 -671 0
-879 -672 0
-879 -673 0
-879 -674 0
-879 -675 0
-880 -631 0
-880 -632 0
-880 -633 0
-880 -637 0
-880 -638 0
-880 -639 0
-880 -640 0
-880 -641 0
-880 -642 0
-880 -643 0
-880 -644 0
-880 -645 0
-880 -646 0
-880 -647 0
-880 -648 0
-880 -652 0
-880 -653 0
-880 -654 0
-880 -655 0
-880 -656 0
-880 -657 0
-880 -658 0
-880 -659 0
-880 -660 0
-880 -661 0
-880 -662 0
-880 -663 0
-880 -667 0
-880 -668 0
-880 -669 0
-880 -670 0
-880 -671 0
-880 -672 0
-880 -673 0
-880 -674 0
-880 -675 0
-881 -631 0
-881 -632 0
-881 -633 0
-881 -634 0
-881 -638 0
-881 -639 0
-881 -640 0
-881 -641 0
-881 -642 0
-881 -643 0
-881 -644 0
-881 -645 0
-881 -646 0
-881 -647 0
-881 -648 0
-881 -649 0
-881 -653 0
-881 -654 0
-881 -655 0
-881 -656 0
-881 -657 0
-881 -658 0
-881 -659 0
-881 -660 0
-881 -661 0
-881 -662 0
-881 -663 0
-881 -664 0
-881 -668 0
-881 -669 0
-881 -670 0
-881 -671 0
-881 -672 0
-881 -673 0
-881 -674 0
-881 -675 0
-882 -631 0
-882 -632 0
-882 -633 0
-882 -634 0
-882 -635 0
-882 -639 0
-882 -640 0
-882 -641 0
-882 -642 0
-882 -643 0
-882 -644 0
-882 -645 0
-882 -646 0
-882 -647 0
-882 -648 0
-882 -649 0
-882 -650 0
-882 -654 0
-882 -655 0
-882 -656 0
-882 -657 0
-882 -658 0
-882 -659 0
-882 -660 0
-882 -661 0
-882 -662 0
-882 -663 0
-882 -664 0
-882 -665 0
-882 -669 0
-882 -670 0
-882 -671 0
-882 -672 0
-882 -673 0
-882 -674 0
-882 -675 0
-883 -631 0
-883 -632 0
-883 -633 0
-883 -634 0
-883 -635 0
-883 -636 0
-883 -640 0
-883 -641 0
-883 -642 0
-883 -643 0
-883 -644 0
-883 -645 0
-883 -646 0
-883 -647 0
-883 -648 0
-883 -649 0
-883 -650 0
-883 -651 0
-883 -655 0
-883 -656 0
-883 -657 0
-883 -658 0
-883 -659 0
-883 -660 0
-883 -661 0
-883 -662 0
-883 -663 0
-883 -664 0
-883 -665 0
-883 -666 0
-883 -670 0
-883 -671 0
-883 -672 0
-883 -673 0
-883 -674 0
-883 -675 0
-884 -631 0
-884 -632 0
-884 -633 0
-884 -634 0
-884 -635 0
-884 -636 0
-884 -637 0
-884 -641 0
-884 -642 0
-884 -643 0
-884 -644 0
-884 -645 0
-884 -646 0
-884 -647 0
-884 -648 0
-884 -649 0
-884 -650 0
-884 -651 0
-884 -652 0
-884 -656 0
-884 -657 0
-884 -658 0
-884 -659 0
-884 -660 0
-884 -661 0
-884 -662 0
-884 -663 0
-884 -664 0
-884 -665 0
-884 -666 0
-884 -667 0
-884 -671 0
-884 -672 0
-884 -673 0
-884 -674 0
-884 -675 0
-885 -631 0
-885 -632 0
-885 -633 0
-885 -634 0
-885 -635 0
-885 -636 0
-885 -637 0
-885 -638 0
-885 -642 0
-885 -643 0
-885 -644 0
-885 -645 0
-885 -646 0
-885 -647 0
-885 -648 0
-885 -649 0
-885 -650 0
-885 -651 0
-885 -652 0
-885 -653 0
-885 -657 0
-885 -658 0
-885 -659 0
-885 -660 0
-885 -661 0
-885 -662 0
-885 -663 0
-885 -664 0
-885 -665 0
-885 -666 0
-885 -667 0
-885 -668 0
-885 -672 0
-885 -673 0
-885 -674 0
-885 -675 0
-886 -631 0
-886 -632 0
-886 -633 0
-886 -634 0
-886 -635 0
-886 -636 0
-886 -637 0
-886 -638 0
-886 -639 0
-886 -643 0
-886 -644 0
-886 -645 0
-886 -646 0
-886 -647 0
-886 -648 0
-886 -649 0
-886 -650 0
-886 -651 0
-886 -652 0
-886 -653 0
-886 -654 0
-886 -658 0
-886 -659 0
-886 -660 0
-886 -661 0
-886 -662 0
-886 -663 0
-886 -664 0
-886 -665 0
-886 -666 0
-886 -667 0
-886 -668 0
-886 -669 0
-886 -673 0
-886 -674 0
-886 -675 0
-887 -631 0
-887 -632 0
-887 -633 0
-887 -634 0
-887 -635 0
-887 -636 0
-887 -637 0
-887 -638 0
-887 -639 0
-887 -640 0
-887 -644 0
-887 -645 0
-887 -646 0
-887 -647 0
-887 -648 0
-887 -649 0
-887 -650 0
-887 -651 0
-887 -652 0
-887 -653 0
-887 -654 0
-887 -655 0
-887 -659 0
-887 -660 0
-887 -661 0
-887 -662 0
-887 -663 0
-887 -664 0
-887 -665 0
-887 -666 0
-887 -667 0
-887 -668 0
-887 -669 0
-887 -670 0
-887 -674 0
-887 -675 0
-888 -631 0
-888 -632 0
-888 -633 0
-888 -634 0
-888 -635 0
-888 -636 0
-888 -637 0
-888 -638 0
-888 -639 0
-888 -640 0
-888 -641 0
-888 -645 0
-888 -646 0
-888 -647 0
-888 -648 0
-888 -649 0
-888 -650 0
-888 -651 0
-888 -652 0
-888 -653 0
-888 -654 0
-888 -655 0
-888 -656 0
-888 -660 0
-888 -661 0
-888 -662 0
-888 -663 0
-888 -664 0
-888 -665 0
-888 -666 0
-888 -667 0
-888 -668 0
-888 -669 0
-888 -670 0
-888 -671 0
-888 -675 0
-889 -631 0
-889 -632 0
-889 -633 0
-889 -634 0
-889 -635 0
-889 -636 0
-889 -637 0
-889 -638 0
-889 -639 0
-889 -640 0
-889 -641 0
-889 -642 0
-889 -646 0
-889 -647 0
-889 -648 0
-889 -649 0
-889 -650 0
-889 -651 0
-889 -652 0
-889 -653 0
-889 -654 0
-889 -655 0
-889 -656 0
-889 -657 0
-889 -661 0
-889 -662 0
-889 -663 0
-889 -664 0
-889 -665 0
-889 -666 0
-889 -667 0
-889 -668 0
-889 -669 0
-889 -670 0
-889 -671 0
-889 -672 0
1 16 31 46 61 76 91 106 121 136 151 166 181 196 211 226 241 256 271 286 301 316 331 346 361 376 391 406 421 436 451 466 481 496 511 526 541 556 571 586 601 616 631 646 661 0
2 17 32 47 62 77 92 107 122 137 152 167 182 197 212 227 242 257 272 287 302 317 332 347 362 377 392 407 422 437 452 467 482 497 512 527 542 557 572 587 602 617 632 647 662 0
3 18 33 48 63 78 93 108 123 138 153 168 183 198 213 228 243 258 273 288 303 318 333 348 363 378 393 408 423 438 453 468 483 498 513 528 543 558 573 588 603 618 633 648 663 0
4 19 34 49 64 79 94 109 124 139 154 169 184 199 214 229 244 259 274 289 304 319 334 349 364 379 394 409 424 439 454 469 484 499 514 529 544 559 574 589 604 619 634 649 664 0
5 20 35 50 65 80 95 110 125 140 155 170 185 200 215 230 245 260 275 290 305 320 335 350 365 380 395 410 425 440 455 470 485 500 515 530 545 560 575 590 605 620 635 650 665 0
6 21 36 51 66 81 96 111 126 141 156 171 186 201 216 231 246 261 276 291 306 321 336 351 366 381 396 411 426 441 456 471 486 501 516 531 546 561 576 591 606 621 636 651 666 0
7 22 37 52 67 82 97 112 127 142 157 172 187 202 217 232 247 262 277 292 307 322 337 352 367 382 397 412 427 442 457 472 487 502 517 532 547 562 577 592 607 622 637 652 667 0
8 23 38 53 68 83 98 113 128 143 158 173 188 203 218 233 248 263 278 293 308 323 338 353 368 383 398 413 428 443 458 473 488 503 518 533 548 563 578 593 608 623 638 653 668 0
9 24 39 54 69 84 99 114 129 144 159 174 189 204 219 234 249 264 279 294 309 324 339 354 369 384 399 414 429 444 459 474 489 504 519 534 549 564 579 594 609 624 639 654 669 0
10 25 40 55 70 85 100 115 130 145 160 175 190 205 220 235 250 265 280 295 310 325 340 355 370 385 400 415 430 445 460 475 490 505 520 535 550 565 580 595 610 625 640 655 670 0
11 26 41 56 71 86 101 116 131 146 161 176 191 206 221 236 251 266 281 296 311 326 341 356 371 386 401 416 431 446 461 476 491 506 521 536 551 566 581 596 611 626 641 656 671 0
12 27 42 57 72 87 102 117 132 147 162 177 192 207 222 237 252 267 282 297 312 327 342 357 372 387 402 417 432 447 462 477 492 507 522 537 552 567 582 597 612 627 642 657 672 0
13 28 43 58 73 88 103 118 133 148 163 178 193 208 223 238 253 268 283 298 313 328 343 358 373 388 403 418 433 448 463 478 493 508 523 538 553 568 583 598 613 628 643 658 673 0
14 29 44 59 74 89 104 119 134 149 164 179 194 209 224 239 254 269 284 299 314 329 344 359 374 389 404 419 434 449 464 479 494 509 524 539 554 569 584 599 614 629 644 659 674 0
15 30 45 60 75 90 105 120 135 150 165 180 195 210 225 240 255 270 285 300 315 330 345 360 375 390 405 420 435 450 465 480 495 510 525 540 555 570 585 600 615 630 645 660 675 0
