p cnf 135 1149
1 2 3 4 5 6 0
-1 -2 0
-1 -3 0
-1 -4 0
-1 -5 0
-1 -6 0
-2 -3 0
-2 -4 0
-2 -5 0
-2 -6 0
-3 -4 0
-3 -5 0
-3 -6 0
-4 -5 0
-4 -6 0
-5 -6 0
7 8 9 10 11 12 0
-7 -8 0
-7 -9 0
-7 -10 0
-7 -11 0
-7 -12 0
-8 -9 0
-8 -10 0
-8 -11 0
-8 -12 0
-9 -10 0
-9 -11 0
-9 -12 0
-10 -11 0
-10 -12 0
-11 -12 0
13 14 15 16 17 18 0
-13 -14 0
-13 -15 0
-13 -16 0
-13 -17 0
-13 -18 0
-14 -15 0
-14 -16 0
-14 -17 0
-14 -18 0
-15 -16 0
-15 -17 0
-15 -18 0
-16 -17 0
-16 -18 0
-17 -18 0
19 20 21 22 23 24 0
-19 -20 0
-19 -21 0
-19 -22 0
-19 -23 0
-19 -24 0
-20 -21 0
-20 -22 0
-20 -23 0
-20 -24 0
-21 -22 0
-21 -23 0
-21 -24 0
-22 -23 0
-22 -24 0
-23 -24 0
25 26 27 28 29 30 0
-25 -26 0
-25 -27 0
-25 -28 0
-25 -29 0
-25 -30 0
-26 -27 0
-26 -28 0
-26 -29 0
-26 -30 0
-27 -28 0
-27 -29 0
-27 -30 0
-28 -29 0
-28 -30 0
-29 -30 0
31 32 33 34 35 36 0
-31 -32 0
-31 -33 0
-31 -34 0
-31 -35 0
-31 -36 0
-32 -33 0
-32 -34 0
-32 -35 0
-32 -36 0
-33 -34 0
-33 -35 0
-33 -36 0
-34 -35 0
-34 -36 0
-35 -36 0
37 38 39 40 41 42 0
-37 -38 0
-37 -39 0
-37 -40 0
-37 -41 0
-37 -42 0
-38 -39 0
-38 -40 0
-38 -41 0
-38 -42 0
-39 -40 0
-39 -41 0
-39 -42 0
-40 -41 0
-40 -42 0
-41 -42 0
43 44 45 46 47 48 0
-43 -44 0
-43 -45 0
-43 -46 0
-43 -47 0
-43 -48 0
-44 -45 0
-44 -46 0
-44 -47 0
-44 -48 0
-45 -46 0
-45 -47 0
-45 -48 0
-46 -47 0
-46 -48 0
-47 -48 0
49 50 51 52 53 54 0
-49 -50 0
-49 -51 0
-49 -52 0
-49 -53 0
-49 -54 0
-50 -51 0
-50 -52 0
-50 -53 0
-50 -54 0
-51 -52 0
-51 -53 0
-51 -54 0
-52 -53 0
-52 -54 0
-53 -54 0
55 56 57 58 59 60 0
-55 -56 0
-55 -57 0
-55 -58 0
-55 -59 0
-55 -60 0
-56 -57 0
-56 -58 0
-56 -59 0
-56 -60 0
-57 -58 0
-57 -59 0
-57 -60 0
-58 -59 0
-58 -60 0
-59 -60 0
61 62 63 64 65 66 0
-61 -62 0
-61 -63 0
-61 -64 0
-61 -65 0
-61 -66 0
-62 -63 0
-62 -64 0
-62 -65 0
-62 -66 0
-63 -64 0
-63 -65 0
-63 -66 0
-64 -65 0
-64 -66 0
-65 -66 0
67 68 69 70 71 72 0
-67 -68 0
-67 -69 0
-67 -70 0
-67 -71 0
-67 -72 0
-68 -69 0
-68 -70 0
-68 -71 0
-68 -72 0
-69 -70 0
-69 -71 0
-69 -72 0
-70 -71 0
-70 -72 0
-71 -72 0
73 74 75 76 77 78 0
-73 -74 0
-73 -75 0
-73 -76 0
-73 -77 0
-73 -78 0
-74 -75 0
-74 -76 0
-74 -77 0
-74 -78 0
-75 -76 0
-75 -77 0
-75 -78 0
-76 -77 0
-76 -78 0
-77 -78 0
79 80 81 82 83 84 0
-79 -80 0
-79 -81 0
-79 -82 0
-79 -83 0
-79 -84 0
-80 -81 0
-80 -82 0
-80 -83 0
-80 -84 0
-81 -82 0
-81 -83 0
-81 -84 0
-82 -83 0
-82 -84 0
-83 -84 0
85 86 87 88 89 90 0
-85 -86 0
-85 -87 0
-85 -88 0
-85 -89 0
-85 -90 0
-86 -87 0
-86 -88 0
-86 -89 0
-86 -90 0
-87 -88 0
-87 -89 0
-87 -90 0
-88 -89 0
-88 -90 0
-89 -90 0
91 92 93 94 95 96 0
-91 -92 0
-91 -93 0
-91 -94 0
-91 -95 0
-91 -96 0
-92 -93 0
-92 -94 0
-92 -95 0
-92 -96 0
-93 -94 0
-93 -95 0
-93 -96 0
-94 -95 0
-94 -96 0
-95 -96 0
97 98 99 100 101 102 0
-97 -98 0
-97 -99 0
-97 -100 0
-97 -101 0
-97 -102 0
-98 -99 0
-98 -100 0
-98 -101 0
-98 -102 0
-99 -100 0
-99 -101 0
-99 -102 0
-100 -101 0
-100 -102 0
-101 -102 0
103 104 105 106 107 108 0
-103 -104 0
-103 -105 0
-103 -106 0
-103 -107 0
-103 -108 0
-104 -105 0
-104 -106 0
-104 -107 0
-104 -108 0
-105 -106 0
-105 -107 0
-105 -108 0
-106 -107 0
-106 -108 0
-107 -108 0
-1 -7 0
-1 -13 0
-1 -19 0
-1 -25 0
-1 -31 0
-7 -13 0
-7 -19 0
-7 -25 0
-7 -31 0
-13 -19 0
-13 -25 0
-13 -31 0
-19 -25 0
-19 -31 0
-25 -31 0
-2 -8 0
-2 -14 0
-2 -20 0
-2 -26 0
-2 -32 0
-8 -14 0
-8 -20 0
-8 -26 0
-8 -32 0
-14 -20 0
-14 -26 0
-14 -32 0
-20 -26 0
-20 -32 0
-26 -32 0
-3 -9 0
-3 -15 0
-3 -21 0
-3 -27 0
-3 -33 0
-9 -15 0
-9 -21 0
-9 -27 0
-9 -33 0
-15 -21 0
-15 -27 0
-15 -33 0
-21 -27 0
-21 -33 0
-27 -33 0
-4 -10 0
-4 -16 0
-4 -22 0
-4 -28 0
-4 -34 0
-10 -16 0
-10 -22 0
-10 -28 0
-10 -34 0
-16 -22 0
-16 -28 0
-16 -34 0
-22 -28 0
-22 -34 0
-28 -34 0
-5 -11 0
-5 -17 0
-5 -23 0
-5 -29 0
-5 -35 0
-11 -17 0
-11 -23 0
-11 -29 0
-11 -35 0
-17 -23 0
-17 -29 0
-17 -35 0
-23 -29 0
-23 -35 0
-29 -35 0
-6 -12 0
-6 -18 0
-6 -24 0
-6 -30 0
-6 -36 0
-12 -18 0
-12 -24 0
-12 -30 0
-12 -36 0
-18 -24 0
-18 -30 0
-18 -36 0
-24 -30 0
-24 -36 0
-30 -36 0
109 0
-1 109 0
-2 109 0
-3 109 0
-4 109 0
-5 109 0
-6 109 0
-7 109 0
-8 109 0
-9 109 0
-10 109 0
-11 109 0
-12 109 0
-13 109 0
-14 109 0
-15 109 0
-16 109 0
-17 109 0
-18 109 0
-19 109 0
-20 109 0
-21 109 0
-22 109 0
-23 109 0
-24 109 0
-25 109 0
-26 109 0
-27 109 0
-28 109 0
-29 109 0
-30 109 0
-31 109 0
-32 109 0
-33 109 0
-34 109 0
-35 109 0
-36 109 0
-37 -43 0
-37 -49 0
-37 -55 0
-37 -61 0
-37 -67 0
-43 -49 0
-43 -55 0
-43 -61 0
-43 -67 0
-49 -55 0
-49 -61 0
-49 -67 0
-55 -61 0
-55 -67 0
-61 -67 0
-38 -44 0
-38 -50 0
-38 -56 0
-38 -62 0
-38 -68 0
-44 -50 0
-44 -56 0
-44 -62 0
-44 -68 0
-50 -56 0
-50 -62 0
-50 -68 0
-56 -62 0
-56 -68 0
-62 -68 0
-39 -45 0
-39 -51 0
-39 -57 0
-39 -63 0
-39 -69 0
-45 -51 0
-45 -57 0
-45 -63 0
-45 -69 0
-51 -57 0
-51 -63 0
-51 -69 0
-57 -63 0
-57 -69 0
-63 -69 0
-40 -46 0
-40 -52 0
-40 -58 0
-40 -64 0
-40 -70 0
-46 -52 0
-46 -58 0
-46 -64 0
-46 -70 0
-52 -58 0
-52 -64 0
-52 -70 0
-58 -64 0
-58 -70 0
-64 -70 0
-41 -47 0
-41 -53 0
-41 -59 0
-41 -65 0
-41 -71 0
-47 -53 0
-47 -59 0
-47 -65 0
-47 -71 0
-53 -59 0
-53 -65 0
-53 -71 0
-59 -65 0
-59 -71 0
-65 -71 0
-42 -48 0
-42 -54 0
-42 -60 0
-42 -66 0
-42 -72 0
-48 -54 0
-48 -60 0
-48 -66 0
-48 -72 0
-54 -60 0
-54 -66 0
-54 -72 0
-60 -66 0
-60 -72 0
-66 -72 0
110 0
-37 110 0
-38 110 0
-39 110 0
-40 110 0
-41 110 0
-42 110 0
-43 110 0
-44 110 0
-45 110 0
-46 110 0
-47 110 0
-48 110 0
-49 110 0
-50 110 0
-51 110 0
-52 110 0
-53 110 0
-54 110 0
-55 110 0
-56 110 0
-57 110 0
-58 110 0
-59 110 0
-60 110 0
-61 110 0
-62 110 0
-63 110 0
-64 110 0
-65 110 0
-66 110 0
-67 110 0
-68 110 0
-69 110 0
-70 110 0
-71 110 0
-72 110 0
-73 -79 0
-73 -85 0
-73 -91 0
-73 -97 0
-73 -103 0
-79 -85 0
-79 -91 0
-79 -97 0
-79 -103 0
-85 -91 0
-85 -97 0
-85 -103 0
-91 -97 0
-91 -103 0
-97 -103 0
-74 -80 0
-74 -86 0
-74 -92 0
-74 -98 0
-74 -104 0
-80 -86 0
-80 -92 0
-80 -98 0
-80 -104 0
-86 -92 0
-86 -98 0
-86 -104 0
-92 -98 0
-92 -104 0
-98 -104 0
-75 -81 0
-75 -87 0
-75 -93 0
-75 -99 0
-75 -105 0
-81 -87 0
-81 -93 0
-81 -99 0
-81 -105 0
-87 -93 0
-87 -99 0
-87 -105 0
-93 -99 0
-93 -105 0
-99 -105 0
-76 -82 0
-76 -88 0
-76 -94 0
-76 -100 0
-76 -106 0
-82 -88 0
-82 -94 0
-82 -100 0
-82 -106 0
-88 -94 0
-88 -100 0
-88 -106 0
-94 -100 0
-94 -106 0
-100 -106 0
-77 -83 0
-77 -89 0
-77 -95 0
-77 -101 0
-77 -107 0
-83 -89 0
-83 -95 0
-83 -101 0
-83 -107 0
-89 -95 0
-89 -101 0
-89 -107 0
-95 -101 0
-95 -107 0
-101 -107 0
-78 -84 0
-78 -90 0
-78 -96 0
-78 -102 0
-78 -108 0
-84 -90 0
-84 -96 0
-84 -102 0
-84 -108 0
-90 -96 0
-90 -102 0
-90 -108 0
-96 -102 0
-96 -108 0
-102 -108 0
111 0
-73 111 0
-74 111 0
-75 111 0
-76 111 0
-77 111 0
-78 111 0
-79 111 0
-80 111 0
-81 111 0
-82 111 0
-83 111 0
-84 111 0
-85 111 0
-86 111 0
-87 111 0
-88 111 0
-89 111 0
-90 111 0
-91 111 0
-92 111 0
-93 111 0
-94 111 0
-95 111 0
-96 111 0
-97 111 0
-98 111 0
-99 111 0
-100 111 0
-101 111 0
-102 111 0
-103 111 0
-104 111 0
-105 111 0
-106 111 0
-107 111 0
-108 111 0
-1 -37 0
-1 -73 0
-37 -73 0
-2 -38 0
-2 -74 0
-38 -74 0
-3 -39 0
-3 -75 0
-39 -75 0
-4 -40 0
-4 -76 0
-40 -76 0
-5 -41 0
-5 -77 0
-41 -77 0
-6 -42 0
-6 -78 0
-42 -78 0
112 113 114 115 0
-112 -113 0
-112 -114 0
-112 -115 0
-113 -114 0
-113 -115 0
-114 -115 0
-1 112 0
-2 112 113 0
-3 112 113 114 0
-4 113 114 115 0
-5 114 115 0
-6 115 0
-37 112 0
-38 112 113 0
-39 112 113 114 0
-40 113 114 115 0
-41 114 115 0
-42 115 0
-73 112 0
-74 112 113 0
-75 112 113 114 0
-76 113 114 115 0
-77 114 115 0
-78 115 0
-112 -4 0
-112 -5 0
-112 -6 0
-112 -40 0
-112 -41 0
-112 -42 0
-112 -76 0
-112 -77 0
-112 -78 0
-113 -1 0
-113 -5 0
-113 -6 0
-113 -37 0
-113 -41 0
-113 -42 0
-113 -73 0
-113 -77 0
-113 -78 0
-114 -1 0
-114 -2 0
-114 -6 0
-114 -37 0
-114 -38 0
-114 -42 0
-114 -73 0
-114 -74 0
-114 -78 0
-115 -1 0
-115 -2 0
-115 -3 0
-115 -37 0
-115 -38 0
-115 -39 0
-115 -73 0
-115 -74 0
-115 -75 0
-7 -43 0
-7 -79 0
-43 -79 0
-8 -44 0
-8 -80 0
-44 -80 0
-9 -45 0
-9 -81 0
-45 -81 0
-10 -46 0
-10 -82 0
-46 -82 0
-11 -47 0
-11 -83 0
-47 -83 0
-12 -48 0
-12 -84 0
-48 -84 0
116 117 118 119 0
-116 -117 0
-116 -118 0
-116 -119 0
-117 -118 0
-117 -119 0
-118 -119 0
-7 116 0
-8 116 117 0
-9 116 117 118 0
-10 117 118 119 0
-11 118 119 0
-12 119 0
-43 116 0
-44 116 117 0
-45 116 117 118 0
-46 117 118 119 0
-47 118 119 0
-48 119 0
-79 116 0
-80 116 117 0
-81 116 117 118 0
-82 117 118 119 0
-83 118 119 0
-84 119 0
-116 -10 0
-116 -11 0
-116 -12 0
-116 -46 0
-116 -47 0
-116 -48 0
-116 -82 0
-116 -83 0
-116 -84 0
-117 -7 0
-117 -11 0
-117 -12 0
-117 -43 0
-117 -47 0
-117 -48 0
-117 -79 0
-117 -83 0
-117 -84 0
-118 -7 0
-118 -8 0
-118 -12 0
-118 -43 0
-118 -44 0
-118 -48 0
-118 -79 0
-118 -80 0
-118 -84 0
-119 -7 0
-119 -8 0
-119 -9 0
-119 -43 0
-119 -44 0
-119 -45 0
-119 -79 0
-119 -80 0
-119 -81 0
-13 -49 0
-13 -85 0
-49 -85 0
-14 -50 0
-14 -86 0
-50 -86 0
-15 -51 0
-15 -87 0
-51 -87 0
-16 -52 0
-16 -88 0
-52 -88 0
-17 -53 0
-17 -89 0
-53 -89 0
-18 -54 0
-18 -90 0
-54 -90 0
120 121 122 123 0
-120 -121 0
-120 -122 0
-120 -123 0
-121 -122 0
-121 -123 0
-122 -123 0
-13 120 0
-14 120 121 0
-15 120 121 122 0
-16 121 122 123 0
-17 122 123 0
-18 123 0
-49 120 0
-50 120 121 0
-51 120 121 122 0
-52 121 122 123 0
-53 122 123 0
-54 123 0
-85 120 0
-86 120 121 0
-87 120 121 122 0
-88 121 122 123 0
-89 122 123 0
-90 123 0
-120 -16 0
-120 -17 0
-120 -18 0
-120 -52 0
-120 -53 0
-120 -54 0
-120 -88 0
-120 -89 0
-120 -90 0
-121 -13 0
-121 -17 0
-121 -18 0
-121 -49 0
-121 -53 0
-121 -54 0
-121 -85 0
-121 -89 0
-121 -90 0
-122 -13 0
-122 -14 0
-122 -18 0
-122 -49 0
-122 -50 0
-122 -54 0
-122 -85 0
-122 -86 0
-122 -90 0
-123 -13 0
-123 -14 0
-123 -15 0
-123 -49 0
-123 -50 0
-123 -51 0
-123 -85 0
-123 -86 0
-123 -87 0
-19 -55 0
-19 -91 0
-55 -91 0
-20 -56 0
-20 -92 0
-56 -92 0
-21 -57 0
-21 -93 0
-57 -93 0
-22 -58 0
-22 -94 0
-58 -94 0
-23 -59 0
-23 -95 0
-59 -95 0
-24 -60 0
-24 -96 0
-60 -96 0
124 125 126 127 0
-124 -125 0
-124 -126 0
-124 -127 0
-125 -126 0
-125 -127 0
-126 -127 0
-19 124 0
-20 124 125 0
-21 124 125 126 0
-22 125 126 127 0
-23 126 127 0
-24 127 0
-55 124 0
-56 124 125 0
-57 124 125 126 0
-58 125 126 127 0
-59 126 127 0
-60 127 0
-91 124 0
-92 124 125 0
-93 124 125 126 0
-94 125 126 127 0
-95 126 127 0
-96 127 0
-124 -22 0
-124 -23 0
-124 -24 0
-124 -58 0
-124 -59 0
-124 -60 0
-124 -94 0
-124 -95 0
-124 -96 0
-125 -19 0
-125 -23 0
-125 -24 0
-125 -55 0
-125 -59 0
-125 -60 0
-125 -91 0
-125 -95 0
-125 -96 0
-126 -19 0
-126 -20 0
-126 -24 0
-126 -55 0
-126 -56 0
-126 -60 0
-126 -91 0
-126 -92 0
-126 -96 0
-127 -19 0
-127 -20 0
-127 -21 0
-127 -55 0
-127 -56 0
-127 -57 0
-127 -91 0
-127 -92 0
-127 -93 0
-25 -61 0
-25 -97 0
-61 -97 0
-26 -62 0
-26 -98 0
-62 -98 0
-27 -63 0
-27 -99 0
-63 -99 0
-28 -64 0
-28 -100 0
-64 -100 0
-29 -65 0
-29 -101 0
-65 -101 0
-30 -66 0
-30 -102 0
-66 -102 0
128 129 130 131 0
-128 -129 0
-128 -130 0
-128 -131 0
-129 -130 0
-129 -131 0
-130 -131 0
-25 128 0
-26 128 129 0
-27 128 129 130 0
-28 129 130 131 0
-29 130 131 0
-30 131 0
-61 128 0
-62 128 129 0
-63 128 129 130 0
-64 129 130 131 0
-65 130 131 0
-66 131 0
-97 128 0
-98 128 129 0
-99 128 129 130 0
-100 129 130 131 0
-101 130 131 0
-102 131 0
-128 -28 0
-128 -29 0
-128 -30 0
-128 -64 0
-128 -65 0
-128 -66 0
-128 -100 0
-128 -101 0
-128 -102 0
-129 -25 0
-129 -29 0
-129 -30 0
-129 -61 0
-129 -65 0
-129 -66 0
-129 -97 0
-129 -101 0
-129 -102 0
-130 -25 0
-130 -26 0
-130 -30 0
-130 -61 0
-130 -62 0
-130 -66 0
-130 -97 0
-130 -98 0
-130 -102 0
-131 -25 0
-131 -26 0
-131 -27 0
-131 -61 0
-131 -62 0
-131 -63 0
-131 -97 0
-131 -98 0
-131 -99 0
-31 -67 0
-31 -103 0
-67 -103 0
-32 -68 0
-32 -104 0
-68 -104 0
-33 -69 0
-33 -105 0
-69 -105 0
-34 -70 0
-34 -106 0
-70 -106 0
-35 -71 0
-35 -107 0
-71 -107 0
-36 -72 0
-36 -108 0
-72 -108 0
132 133 134 135 0
-132 -133 0
-132 -134 0
-132 -135 0
-133 -134 0
-133 -135 0
-134 -135 0
-31 132 0
-32 132 133 0
-33 132 133 134 0
-34 133 134 135 0
-35 134 135 0
-36 135 0
-67 132 0
-68 132 133 0
-69 132 133 134 0
-70 133 134 135 0
-71 134 135 0
-72 135 0
-103 132 0
-104 132 133 0
-105 132 133 134 0
-106 133 134 135 0
-107 134 135 0
-108 135 0
-132 -34 0
-132 -35 0
-132 -36 0
-132 -70 0
-132 -71 0
-132 -72 0
-132 -106 0
-132 -107 0
-132 -108 0
-133 -31 0
-133 -35 0
-133 -36 0
-133 -67 0
-133 -71 0
-133 -72 0
-133 -103 0
-133 -107 0
-133 -108 0
-134 -31 0
-134 -32 0
-134 -36 0
-134 -67 0
-134 -68 0
-134 -72 0
-134 -103 0
-134 -104 0
-134 -108 0
-135 -31 0
-135 -32 0
-135 -33 0
-135 -67 0
-135 -68 0
-135 -69 0
-135 -103 0
-135 -104 0
-135 -105 0
1 7 13 19 25 31 37 43 49 55 61 67 73 79 85 91 97 103 0
2 8 14 20 26 32 38 44 50 56 62 68 74 80 86 92 98 104 0
3 9 15 21 27 33 39 45 51 57 63 69 75 81 87 93 99 105 0
4 10 16 22 28 34 40 46 52 58 64 70 76 82 88 94 100 106 0
5 11 17 23 29 35 41 47 53 59 65 71 77 83 89 95 101 107 0
6 12 18 24 30 36 42 48 54 60 66 72 78 84 90 96 102 108 0
