p cnf 852 21787
1 2 3 4 5 6 7 8 9 10 11 12 13 14 15 16 17 0
-1 -2 0
-1 -3 0
-1 -4 0
-1 -5 0
-1 -6 0
-1 -7 0
-1 -8 0
-1 -9 0
-1 -10 0
-1 -11 0
-1 -12 0
-1 -13 0
-1 -14 0
-1 -15 0
-1 -16 0
-1 -17 0
-2 -3 0
-2 -4 0
-2 -5 0
-2 -6 0
-2 -7 0
-2 -8 0
-2 -9 0
-2 -10 0
-2 -11 0
-2 -12 0
-2 -13 0
-2 -14 0
-2 -15 0
-2 -16 0
-2 -17 0
-3 -4 0
-3 -5 0
-3 -6 0
-3 -7 0
-3 -8 0
-3 -9 0
-3 -10 0
-3 -11 0
-3 -12 0
-3 -13 0
-3 -14 0
-3 -15 0
-3 -16 0
-3 -17 0
-4 -5 0
-4 -6 0
-4 -7 0
-4 -8 0
-4 -9 0
-4 -10 0
-4 -11 0
-4 -12 0
-4 -13 0
-4 -14 0
-4 -15 0
-4 -16 0
-4 -17 0
-5 -6 0
-5 -7 0
-5 -8 0
-5 -9 0
-5 -10 0
-5 -11 0
-5 -12 0
-5 -13 0
-5 -14 0
-5 -15 0
-5 -16 0
-5 -17 0
-6 -7 0
-6 -8 0
-6 -9 0
-6 -10 0
-6 -11 0
-6 -12 0
-6 -13 0
-6 -14 0
-6 -15 0
-6 -16 0
-6 -17 0
-7 -8 0
-7 -9 0
-7 -10 0
-7 -11 0
-7 -12 0
-7 -13 0
-7 -14 0
-7 -15 0
-7 -16 0
-7 -17 0
-8 -9 0
-8 -10 0
-8 -11 0
-8 -12 0
-8 -13 0
-8 -14 0
-8 -15 0
-8 -16 0
-8 -17 0
-9 -10 0
-9 -11 0
-9 -12 0
-9 -13 0
-9 -14 0
-9 -15 0
-9 -16 0
-9 -17 0
-10 -11 0
-10 -12 0
-10 -13 0
-10 -14 0
-10 -15 0
-10 -16 0
-10 -17 0
-11 -12 0
-11 -13 0
-11 -14 0
-11 -15 0
-11 -16 0
-11 -17 0
-12 -13 0
-12 -14 0
-12 -15 0
-12 -16 0
-12 -17 0
-13 -14 0
-13 -15 0
-13 -16 0
-13 -17 0
-14 -15 0
-14 -16 0
-14 -17 0
-15 -16 0
-15 -17 0
-16 -17 0
18 19 20 21 22 23 24 25 26 27 28 29 30 31 32 33 34 0
-18 -19 0
-18 -20 0
-18 -21 0
-18 -22 0
-18 -23 0
-18 -24 0
-18 -25 0
-18 -26 0
-18 -27 0
-18 -28 0
-18 -29 0
-18 -30 0
-18 -31 0
-18 -32 0
-18 -33 0
-18 -34 0
-19 -20 0
-19 -21 0
-19 -22 0
-19 -23 0
-19 -24 0
-19 -25 0
-19 -26 0
-19 -27 0
-19 -28 0
-19 -29 0
-19 -30 0
-19 -31 0
-19 -32 0
-19 -33 0
-19 -34 0
-20 -21 0
-20 -22 0
-20 -23 0
-20 -24 0
-20 -25 0
-20 -26 0
-20 -27 0
-20 -28 0
-20 -29 0
-20 -30 0
-20 -31 0
-20 -32 0
-20 -33 0
-20 -34 0
-21 -22 0
-21 -23 0
-21 -24 0
-21 -25 0
-21 -26 0
-21 -27 0
-21 -28 0
-21 -29 0
-21 -30 0
-21 -31 0
-21 -32 0
-21 -33 0
-21 -34 0
-22 -23 0
-22 -24 0
-22 -25 0
-22 -26 0
-22 -27 0
-22 -28 0
-22 -29 0
-22 -30 0
-22 -31 0
-22 -32 0
-22 -33 0
-22 -34 0
-23 -24 0
-23 -25 0
-23 -26 0
-23 -27 0
-23 -28 0
-23 -29 0
-23 -30 0
-23 -31 0
-23 -32 0
-23 -33 0
-23 -34 0
-24 -25 0
-24 -26 0
-24 -27 0
-24 -28 0
-24 -29 0
-24 -30 0
-24 -31 0
-24 -32 0
-24 -33 0
-24 -34 0
-25 -26 0
-25 -27 0
-25 -28 0
-25 -29 0
-25 -30 0
-25 -31 0
-25 -32 0
-25 -33 0
-25 -34 0
-26 -27 0
-26 -28 0
-26 -29 0
-26 -30 0
-26 -31 0
-26 -32 0
-26 -33 0
-26 -34 0
-27 -28 0
-27 -29 0
-27 -30 0
-27 -31 0
-27 -32 0
-27 -33 0
-27 -34 0
-28 -29 0
-28 -30 0
-28 -31 0
-28 -32 0
-28 -33 0
-28 -34 0
-29 -30 0
-29 -31 0
-29 -32 0
-29 -33 0
-29 -34 0
-30 -31 0
-30 -32 0
-30 -33 0
-30 -34 0
-31 -32 0
-31 -33 0
-31 -34 0
-32 -33 0
-32 -34 0
-33 -34 0
35 36 37 38 39 40 41 42 43 44 45 46 47 48 49 50 51 0
-35 -36 0
-35 -37 0
-35 -38 0
-35 -39 0
-35 -40 0
-35 -41 0
-35 -42 0
-35 -43 0
-35 -44 0
-35 -45 0
-35 -46 0
-35 -47 0
-35 -48 0
-35 -49 0
-35 -50 0
-35 -51 0
-36 -37 0
-36 -38 0
-36 -39 0
-36 -40 0
-36 -41 0
-36 -42 0
-36 -43 0
-36 -44 0
-36 -45 0
-36 -46 0
-36 -47 0
-36 -48 0
-36 -49 0
-36 -50 0
-36 -51 0
-37 -38 0
-37 -39 0
-37 -40 0
-37 -41 0
-37 -42 0
-37 -43 0
-37 -44 0
-37 -45 0
-37 -46 0
-37 -47 0
-37 -48 0
-37 -49 0
-37 -50 0
-37 -51 0
-38 -39 0
-38 -40 0
-38 -41 0
-38 -42 0
-38 -43 0
-38 -44 0
-38 -45 0
-38 -46 0
-38 -47 0
-38 -48 0
-38 -49 0
-38 -50 0
-38 -51 0
-39 -40 0
-39 -41 0
-39 -42 0
-39 -43 0
-39 -44 0
-39 -45 0
-39 -46 0
-39 -47 0
-39 -48 0
-39 -49 0
-39 -50 0
-39 -51 0
-40 -41 0
-40 -42 0
-40 -43 0
-40 -44 0
-40 -45 0
-40 -46 0
-40 -47 0
-40 -48 0
-40 -49 0
-40 -50 0
-40 -51 0
-41 -42 0
-41 -43 0
-41 -44 0
-41 -45 0
-41 -46 0
-41 -47 0
-41 -48 0
-41 -49 0
-41 -50 0
-41 -51 0
-42 -43 0
-42 -44 0
-42 -45 0
-42 -46 0
-42 -47 0
-42 -48 0
-42 -49 0
-42 -50 0
-42 -51 0
-43 -44 0
-43 -45 0
-43 -46 0
-43 -47 0
-43 -48 0
-43 -49 0
-43 -50 0
-43 -51 0
-44 -45 0
-44 -46 0
-44 -47 0
-44 -48 0
-44 -49 0
-44 -50 0
-44 -51 0
-45 -46 0
-45 -47 0
-45 -48 0
-45 -49 0
-45 -50 0
-45 -51 0
-46 -47 0
-46 -48 0
-46 -49 0
-46 -50 0
-46 -51 0
-47 -48 0
-47 -49 0
-47 -50 0
-47 -51 0
-48 -49 0
-48 -50 0
-48 -51 0
-49 -50 0
-49 -51 0
-50 -51 0
52 53 54 55 56 57 58 59 60 61 62 63 64 65 66 67 68 0
-52 -53 0
-52 -54 0
-52 -55 0
-52 -56 0
-52 -57 0
-52 -58 0
-52 -59 0
-52 -60 0
-52 -61 0
-52 -62 0
-52 -63 0
-52 -64 0
-52 -65 0
-52 -66 0
-52 -67 0
-52 -68 0
-53 -54 0
-53 -55 0
-53 -56 0
-53 -57 0
-53 -58 0
-53 -59 0
-53 -60 0
-53 -61 0
-53 -62 0
-53 -63 0
-53 -64 0
-53 -65 0
-53 -66 0
-53 -67 0
-53 -68 0
-54 -55 0
-54 -56 0
-54 -57 0
-54 -58 0
-54 -59 0
-54 -60 0
-54 -61 0
-54 -62 0
-54 -63 0
-54 -64 0
-54 -65 0
-54 -66 0
-54 -67 0
-54 -68 0
-55 -56 0
-55 -57 0
-55 -58 0
-55 -59 0
-55 -60 0
-55 -61 0
-55 -62 0
-55 -63 0
-55 -64 0
-55 -65 0
-55 -66 0
-55 -67 0
-55 -68 0
-56 -57 0
-56 -58 0
-56 -59 0
-56 -60 0
-56 -61 0
-56 -62 0
-56 -63 0
-56 -64 0
-56 -65 0
-56 -66 0
-56 -67 0
-56 -68 0
-57 -58 0
-57 -59 0
-57 -60 0
-57 -61 0
-57 -62 0
-57 -63 0
-57 -64 0
-57 -65 0
-57 -66 0
-57 -67 0
-57 -68 0
-58 -59 0
-58 -60 0
-58 -61 0
-58 -62 0
-58 -63 0
-58 -64 0
-58 -65 0
-58 -66 0
-58 -67 0
-58 -68 0
-59 -60 0
-59 -61 0
-59 -62 0
-59 -63 0
-59 -64 0
-59 -65 0
-59 -66 0
-59 -67 0
-59 -68 0
-60 -61 0
-60 -62 0
-60 -63 0
-60 -64 0
-60 -65 0
-60 -66 0
-60 -67 0
-60 -68 0
-61 -62 0
-61 -63 0
-61 -64 0
-61 -65 0
-61 -66 0
-61 -67 0
-61 -68 0
-62 -63 0
-62 -64 0
-62 -65 0
-62 -66 0
-62 -67 0
-62 -68 0
-63 -64 0
-63 -65 0
-63 -66 0
-63 -67 0
-63 -68 0
-64 -65 0
-64 -66 0
-64 -67 0
-64 -68 0
-65 -66 0
-65 -67 0
-65 -68 0
-66 -67 0
-66 -68 0
-67 -68 0
69 70 71 72 73 74 75 76 77 78 79 80 81 82 83 84 85 0
-69 -70 0
-69 -71 0
-69 -72 0
-69 -73 0
-69 -74 0
-69 -75 0
-69 -76 0
-69 -77 0
-69 -78 0
-69 -79 0
-69 -80 0
-69 -81 0
-69 -82 0
-69 -83 0
-69 -84 0
-69 -85 0
-70 -71 0
-70 -72 0
-70 -73 0
-70 -74 0
-70 -75 0
-70 -76 0
-70 -77 0
-70 -78 0
-70 -79 0
-70 -80 0
-70 -81 0
-70 -82 0
-70 -83 0
-70 -84 0
-70 -85 0
-71 -72 0
-71 -73 0
-71 -74 0
-71 -75 0
-71 -76 0
-71 -77 0
-71 -78 0
-71 -79 0
-71 -80 0
-71 -81 0
-71 -82 0
-71 -83 0
-71 -84 0
-71 -85 0
-72 -73 0
-72 -74 0
-72 -75 0
-72 -76 0
-72 -77 0
-72 -78 0
-72 -79 0
-72 -80 0
-72 -81 0
-72 -82 0
-72 -83 0
-72 -84 0
-72 -85 0
-73 -74 0
-73 -75 0
-73 -76 0
-73 -77 0
-73 -78 0
-73 -79 0
-73 -80 0
-73 -81 0
-73 -82 0
-73 -83 0
-73 -84 0
-73 -85 0
-74 -75 0
-74 -76 0
-74 -77 0
-74 -78 0
-74 -79 0
-74 -80 0
-74 -81 0
-74 -82 0
-74 -83 0
-74 -84 0
-74 -85 0
-75 -76 0
-75 -77 0
-75 -78 0
-75 -79 0
-75 -80 0
-75 -81 0
-75 -82 0
-75 -83 0
-75 -84 0
-75 -85 0
-76 -77 0
-76 -78 0
-76 -79 0
-76 -80 0
-76 -81 0
-76 -82 0
-76 -83 0
-76 -84 0
-76 -85 0
-77 -78 0
-77 -79 0
-77 -80 0
-77 -81 0
-77 -82 0
-77 -83 0
-77 -84 0
-77 -85 0
-78 -79 0
-78 -80 0
-78 -81 0
-78 -82 0
-78 -83 0
-78 -84 0
-78 -85 0
-79 -80 0
-79 -81 0
-79 -82 0
-79 -83 0
-79 -84 0
-79 -85 0
-80 -81 0
-80 -82 0
-80 -83 0
-80 -84 0
-80 -85 0
-81 -82 0
-81 -83 0
-81 -84 0
-81 -85 0
-82 -83 0
-82 -84 0
-82 -85 0
-83 -84 0
-83 -85 0
-84 -85 0
86 87 88 89 90 91 92 93 94 95 96 97 98 99 100 101 102 0
-86 -87 0
-86 -88 0
-86 -89 0
-86 -90 0
-86 -91 0
-86 -92 0
-86 -93 0
-86 -94 0
-86 -95 0
-86 -96 0
-86 -97 0
-86 -98 0
-86 -99 0
-86 -100 0
-86 -101 0
-86 -102 0
-87 -88 0
-87 -89 0
-87 -90 0
-87 -91 0
-87 -92 0
-87 -93 0
-87 -94 0
-87 -95 0
-87 -96 0
-87 -97 0
-87 -98 0
-87 -99 0
-87 -100 0
-87 -101 0
-87 -102 0
-88 -89 0
-88 -90 0
-88 -91 0
-88 -92 0
-88 -93 0
-88 -94 0
-88 -95 0
-88 -96 0
-88 -97 0
-88 -98 0
-88 -99 0
-88 -100 0
-88 -101 0
-88 -102 0
-89 -90 0
-89 -91 0
-89 -92 0
-89 -93 0
-89 -94 0
-89 -95 0
-89 -96 0
-89 -97 0
-89 -98 0
-89 -99 0
-89 -100 0
-89 -101 0
-89 -102 0
-90 -91 0
-90 -92 0
-90 -93 0
-90 -94 0
-90 -95 0
-90 -96 0
-90 -97 0
-90 -98 0
-90 -99 0
-90 -100 0
-90 -101 0
-90 -102 0
-91 -92 0
-91 -93 0
-91 -94 0
-91 -95 0
-91 -96 0
-91 -97 0
-91 -98 0
-91 -99 0
-91 -100 0
-91 -101 0
-91 -102 0
-92 -93 0
-92 -94 0
-92 -95 0
-92 -96 0
-92 -97 0
-92 -98 0
-92 -99 0
-92 -100 0
-92 -101 0
-92 -102 0
-93 -94 0
-93 -95 0
-93 -96 0
-93 -97 0
-93 -98 0
-93 -99 0
-93 -100 0
-93 -101 0
-93 -102 0
-94 -95 0
-94 -96 0
-94 -97 0
-94 -98 0
-94 -99 0
-94 -100 0
-94 -101 0
-94 -102 0
-95 -96 0
-95 -97 0
-95 -98 0
-95 -99 0
-95 -100 0
-95 -101 0
-95 -102 0
-96 -97 0
-96 -98 0
-96 -99 0
-96 -100 0
-96 -101 0
-96 -102 0
-97 -98 0
-97 -99 0
-97 -100 0
-97 -101 0
-97 -102 0
-98 -99 0
-98 -100 0
-98 -101 0
-98 -102 0
-99 -100 0
-99 -101 0
-99 -102 0
-100 -101 0
-100 -102 0
-101 -102 0
103 104 105 106 107 108 109 110 111 112 113 114 115 116 117 118 119 0
-103 -104 0
-103 -105 0
-103 -106 0
-103 -107 0
-103 -108 0
-103 -109 0
-103 -110 0
-103 -111 0
-103 -112 0
-103 -113 0
-103 -114 0
-103 -115 0
-103 -116 0
-103 -117 0
-103 -118 0
-103 -119 0
-104 -105 0
-104 -106 0
-104 -107 0
-104 -108 0
-104 -109 0
-104 -110 0
-104 -111 0
-104 -112 0
-104 -113 0
-104 -114 0
-104 -115 0
-104 -116 0
-104 -117 0
-104 -118 0
-104 -119 0
-105 -106 0
-105 -107 0
-105 -108 0
-105 -109 0
-105 -110 0
-105 -111 0
-105 -112 0
-105 -113 0
-105 -114 0
-105 -115 0
-105 -116 0
-105 -117 0
-105 -118 0
-105 -119 0
-106 -107 0
-106 -108 0
-106 -109 0
-106 -110 0
-106 -111 0
-106 -112 0
-106 -113 0
-106 -114 0
-106 -115 0
-106 -116 0
-106 -117 0
-106 -118 0
-106 -119 0
-107 -108 0
-107 -109 0
-107 -110 0
-107 -111 0
-107 -112 0
-107 -113 0
-107 -114 0
-107 -115 0
-107 -116 0
-107 -117 0
-107 -118 0
-107 -119 0
-108 -109 0
-108 -110 0
-108 -111 0
-108 -112 0
-108 -113 0
-108 -114 0
-108 -115 0
-108 -116 0
-108 -117 0
-108 -118 0
-108 -119 0
-109 -110 0
-109 -111 0
-109 -112 0
-109 -113 0
-109 -114 0
-109 -115 0
-109 -116 0
-109 -117 0
-109 -118 0
-109 -119 0
-110 -111 0
-110 -112 0
-110 -113 0
-110 -114 0
-110 -115 0
-110 -116 0
-110 -117 0
-110 -118 0
-110 -119 0
-111 -112 0
-111 -113 0
-111 -114 0
-111 -115 0
-111 -116 0
-111 -117 0
-111 -118 0
-111 -119 0
-112 -113 0
-112 -114 0
-112 -115 0
-112 -116 0
-112 -117 0
-112 -118 0
-112 -119 0
-113 -114 0
-113 -115 0
-113 -116 0
-113 -117 0
-113 -118 0
-113 -119 0
-114 -115 0
-114 -116 0
-114 -117 0
-114 -118 0
-114 -119 0
-115 -116 0
-115 -117 0
-115 -118 0
-115 -119 0
-116 -117 0
-116 -118 0
-116 -119 0
-117 -118 0
-117 -119 0
-118 -119 0
120 121 122 123 124 125 126 127 128 129 130 131 132 133 134 135 136 0
-120 -121 0
-120 -122 0
-120 -123 0
-120 -124 0
-120 -125 0
-120 -126 0
-120 -127 0
-120 -128 0
-120 -129 0
-120 -130 0
-120 -131 0
-120 -132 0
-120 -133 0
-120 -134 0
-120 -135 0
-120 -136 0
-121 -122 0
-121 -123 0
-121 -124 0
-121 -125 0
-121 -126 0
-121 -127 0
-121 -128 0
-121 -129 0
-121 -130 0
-121 -131 0
-121 -132 0
-121 -133 0
-121 -134 0
-121 -135 0
-121 -136 0
-122 -123 0
-122 -124 0
-122 -125 0
-122 -126 0
-122 -127 0
-122 -128 0
-122 -129 0
-122 -130 0
-122 -131 0
-122 -132 0
-122 -133 0
-122 -134 0
-122 -135 0
-122 -136 0
-123 -124 0
-123 -125 0
-123 -126 0
-123 -127 0
-123 -128 0
-123 -129 0
-123 -130 0
-123 -131 0
-123 -132 0
-123 -133 0
-123 -134 0
-123 -135 0
-123 -136 0
-124 -125 0
-124 -126 0
-124 -127 0
-124 -128 0
-124 -129 0
-124 -130 0
-124 -131 0
-124 -132 0
-124 -133 0
-124 -134 0
-124 -135 0
-124 -136 0
-125 -126 0
-125 -127 0
-125 -128 0
-125 -129 0
-125 -130 0
-125 -131 0
-125 -132 0
-125 -133 0
-125 -134 0
-125 -135 0
-125 -136 0
-126 -127 0
-126 -128 0
-126 -129 0
-126 -130 0
-126 -131 0
-126 -132 0
-126 -133 0
-126 -134 0
-126 -135 0
-126 -136 0
-127 -128 0
-127 -129 0
-127 -130 0
-127 -131 0
-127 -132 0
-127 -133 0
-127 -134 0
-127 -135 0
-127 -136 0
-128 -129 0
-128 -130 0
-128 -131 0
-128 -132 0
-128 -133 0
-128 -134 0
-128 -135 0
-128 -136 0
-129 -130 0
-129 -131 0
-129 -132 0
-129 -133 0
-129 -134 0
-129 -135 0
-129 -136 0
-130 -131 0
-130 -132 0
-130 -133 0
-130 -134 0
-130 -135 0
-130 -136 0
-131 -132 0
-131 -133 0
-131 -134 0
-131 -135 0
-131 -136 0
-132 -133 0
-132 -134 0
-132 -135 0
-132 -136 0
-133 -134 0
-133 -135 0
-133 -136 0
-134 -135 0
-134 -136 0
-135 -136 0
137 138 139 140 141 142 143 144 145 146 147 148 149 150 151 152 153 0
-137 -138 0
-137 -139 0
-137 -140 0
-137 -141 0
-137 -142 0
-137 -143 0
-137 -144 0
-137 -145 0
-137 -146 0
-137 -147 0
-137 -148 0
-137 -149 0
-137 -150 0
-137 -151 0
-137 -152 0
-137 -153 0
-138 -139 0
-138 -140 0
-138 -141 0
-138 -142 0
-138 -143 0
-138 -144 0
-138 -145 0
-138 -146 0
-138 -147 0
-138 -148 0
-138 -149 0
-138 -150 0
-138 -151 0
-138 -152 0
-138 -153 0
-139 -140 0
-139 -141 0
-139 -142 0
-139 -143 0
-139 -144 0
-139 -145 0
-139 -146 0
-139 -147 0
-139 -148 0
-139 -149 0
-139 -150 0
-139 -151 0
-139 -152 0
-139 -153 0
-140 -141 0
-140 -142 0
-140 -143 0
-140 -144 0
-140 -145 0
-140 -146 0
-140 -147 0
-140 -148 0
-140 -149 0
-140 -150 0
-140 -151 0
-140 -152 0
-140 -153 0
-141 -142 0
-141 -143 0
-141 -144 0
-141 -145 0
-141 -146 0
-141 -147 0
-141 -148 0
-141 -149 0
-141 -150 0
-141 -151 0
-141 -152 0
-141 -153 0
-142 -143 0
-142 -144 0
-142 -145 0
-142 -146 0
-142 -147 0
-142 -148 0
-142 -149 0
-142 -150 0
-142 -151 0
-142 -152 0
-142 -153 0
-143 -144 0
-143 -145 0
-143 -146 0
-143 -147 0
-143 -148 0
-143 -149 0
-143 -150 0
-143 -151 0
-143 -152 0
-143 -153 0
-144 -145 0
-144 -146 0
-144 -147 0
-144 -148 0
-144 -149 0
-144 -150 0
-144 -151 0
-144 -152 0
-144 -153 0
-145 -146 0
-145 -147 0
-145 -148 0
-145 -149 0
-145 -150 0
-145 -151 0
-145 -152 0
-145 -153 0
-146 -147 0
-146 -148 0
-146 -149 0
-146 -150 0
-146 -151 0
-146 -152 0
-146 -153 0
-147 -148 0
-147 -149 0
-147 -150 0
-147 -151 0
-147 -152 0
-147 -153 0
-148 -149 0
-148 -150 0
-148 -151 0
-148 -152 0
-148 -153 0
-149 -150 0
-149 -151 0
-149 -152 0
-149 -153 0
-150 -151 0
-150 -152 0
-150 -153 0
-151 -152 0
-151 -153 0
-152 -153 0
154 155 156 157 158 159 160 161 162 163 164 165 166 167 168 169 170 0
-154 -155 0
-154 -156 0
-154 -157 0
-154 -158 0
-154 -159 0
-154 -160 0
-154 -161 0
-154 -162 0
-154 -163 0
-154 -164 0
-154 -165 0
-154 -166 0
-154 -167 0
-154 -168 0
-154 -169 0
-154 -170 0
-155 -156 0
-155 -157 0
-155 -158 0
-155 -159 0
-155 -160 0
-155 -161 0
-155 -162 0
-155 -163 0
-155 -164 0
-155 -165 0
-155 -166 0
-155 -167 0
-155 -168 0
-155 -169 0
-155 -170 0
-156 -157 0
-156 -158 0
-156 -159 0
-156 -160 0
-156 -161 0
-156 -162 0
-156 -163 0
-156 -164 0
-156 -165 0
-156 -166 0
-156 -167 0
-156 -168 0
-156 -169 0
-156 -170 0
-157 -158 0
-157 -159 0
-157 -160 0
-157 -161 0
-157 -162 0
-157 -163 0
-157 -164 0
-157 -165 0
-157 -166 0
-157 -167 0
-157 -168 0
-157 -169 0
-157 -170 0
-158 -159 0
-158 -160 0
-158 -161 0
-158 -162 0
-158 -163 0
-158 -164 0
-158 -165 0
-158 -166 0
-158 -167 0
-158 -168 0
-158 -169 0
-158 -170 0
-159 -160 0
-159 -161 0
-159 -162 0
-159 -163 0
-159 -164 0
-159 -165 0
-159 -166 0
-159 -167 0
-159 -168 0
-159 -169 0
-159 -170 0
-160 -161 0
-160 -162 0
-160 -163 0
-160 -164 0
-160 -165 0
-160 -166 0
-160 -167 0
-160 -168 0
-160 -169 0
-160 -170 0
-161 -162 0
-161 -163 0
-161 -164 0
-161 -165 0
-161 -166 0
-161 -167 0
-161 -168 0
-161 -169 0
-161 -170 0
-162 -163 0
-162 -164 0
-162 -165 0
-162 -166 0
-162 -167 0
-162 -168 0
-162 -169 0
-162 -170 0
-163 -164 0
-163 -165 0
-163 -166 0
-163 -167 0
-163 -168 0
-163 -169 0
-163 -170 0
-164 -165 0
-164 -166 0
-164 -167 0
-164 -168 0
-164 -169 0
-164 -170 0
-165 -166 0
-165 -167 0
-165 -168 0
-165 -169 0
-165 -170 0
-166 -167 0
-166 -168 0
-166 -169 0
-166 -170 0
-167 -168 0
-167 -169 0
-167 -170 0
-168 -169 0
-168 -170 0
-169 -170 0
171 172 173 174 175 176 177 178 179 180 181 182 183 184 185 186 187 0
-171 -172 0
-171 -173 0
-171 -174 0
-171 -175 0
-171 -176 0
-171 -177 0
-171 -178 0
-171 -179 0
-171 -180 0
-171 -181 0
-171 -182 0
-171 -183 0
-171 -184 0
-171 -185 0
-171 -186 0
-171 -187 0
-172 -173 0
-172 -174 0
-172 -175 0
-172 -176 0
-172 -177 0
-172 -178 0
-172 -179 0
-172 -180 0
-172 -181 0
-172 -182 0
-172 -183 0
-172 -184 0
-172 -185 0
-172 -186 0
-172 -187 0
-173 -174 0
-173 -175 0
-173 -176 0
-173 -177 0
-173 -178 0
-173 -179 0
-173 -180 0
-173 -181 0
-173 -182 0
-173 -183 0
-173 -184 0
-173 -185 0
-173 -186 0
-173 -187 0
-174 -175 0
-174 -176 0
-174 -177 0
-174 -178 0
-174 -179 0
-174 -180 0
-174 -181 0
-174 -182 0
-174 -183 0
-174 -184 0
-174 -185 0
-174 -186 0
-174 -187 0
-175 -176 0
-175 -177 0
-175 -178 0
-175 -179 0
-175 -180 0
-175 -181 0
-175 -182 0
-175 -183 0
-175 -184 0
-175 -185 0
-175 -186 0
-175 -187 0
-176 -177 0
-176 -178 0
-176 -179 0
-176 -180 0
-176 -181 0
-176 -182 0
-176 -183 0
-176 -184 0
-176 -185 0
-176 -186 0
-176 -187 0
-177 -178 0
-177 -179 0
-177 -180 0
-177 -181 0
-177 -182 0
-177 -183 0
-177 -184 0
-177 -185 0
-177 -186 0
-177 -187 0
-178 -179 0
-178 -180 0
-178 -181 0
-178 -182 0
-178 -183 0
-178 -184 0
-178 -185 0
-178 -186 0
-178 -187 0
-179 -180 0
-179 -181 0
-179 -182 0
-179 -183 0
-179 -184 0
-179 -185 0
-179 -186 0
-179 -187 0
-180 -181 0
-180 -182 0
-180 -183 0
-180 -184 0
-180 -185 0
-180 -186 0
-180 -187 0
-181 -182 0
-181 -183 0
-181 -184 0
-181 -185 0
-181 -186 0
-181 -187 0
-182 -183 0
-182 -184 0
-182 -185 0
-182 -186 0
-182 -187 0
-183 -184 0
-183 -185 0
-183 -186 0
-183 -187 0
-184 -185 0
-184 -186 0
-184 -187 0
-185 -186 0
-185 -187 0
-186 -187 0
188 189 190 191 192 193 194 195 196 197 198 199 200 201 202 203 204 0
-188 -189 0
-188 -190 0
-188 -191 0
-188 -192 0
-188 -193 0
-188 -194 0
-188 -195 0
-188 -196 0
-188 -197 0
-188 -198 0
-188 -199 0
-188 -200 0
-188 -201 0
-188 -202 0
-188 -203 0
-188 -204 0
-189 -190 0
-189 -191 0
-189 -192 0
-189 -193 0
-189 -194 0
-189 -195 0
-189 -196 0
-189 -197 0
-189 -198 0
-189 -199 0
-189 -200 0
-189 -201 0
-189 -202 0
-189 -203 0
-189 -204 0
-190 -191 0
-190 -192 0
-190 -193 0
-190 -194 0
-190 -195 0
-190 -196 0
-190 -197 0
-190 -198 0
-190 -199 0
-190 -200 0
-190 -201 0
-190 -202 0
-190 -203 0
-190 -204 0
-191 -192 0
-191 -193 0
-191 -194 0
-191 -195 0
-191 -196 0
-191 -197 0
-191 -198 0
-191 -199 0
-191 -200 0
-191 -201 0
-191 -202 0
-191 -203 0
-191 -204 0
-192 -193 0
-192 -194 0
-192 -195 0
-192 -196 0
-192 -197 0
-192 -198 0
-192 -199 0
-192 -200 0
-192 -201 0
-192 -202 0
-192 -203 0
-192 -204 0
-193 -194 0
-193 -195 0
-193 -196 0
-193 -197 0
-193 -198 0
-193 -199 0
-193 -200 0
-193 -201 0
-193 -202 0
-193 -203 0
-193 -204 0
-194 -195 0
-194 -196 0
-194 -197 0
-194 -198 0
-194 -199 0
-194 -200 0
-194 -201 0
-194 -202 0
-194 -203 0
-194 -204 0
-195 -196 0
-195 -197 0
-195 -198 0
-195 -199 0
-195 -200 0
-195 -201 0
-195 -202 0
-195 -203 0
-195 -204 0
-196 -197 0
-196 -198 0
-196 -199 0
-196 -200 0
-196 -201 0
-196 -202 0
-196 -203 0
-196 -204 0
-197 -198 0
-197 -199 0
-197 -200 0
-197 -201 0
-197 -202 0
-197 -203 0
-197 -204 0
-198 -199 0
-198 -200 0
-198 -201 0
-198 -202 0
-198 -203 0
-198 -204 0
-199 -200 0
-199 -201 0
-199 -202 0
-199 -203 0
-199 -204 0
-200 -201 0
-200 -202 0
-200 -203 0
-200 -204 0
-201 -202 0
-201 -203 0
-201 -204 0
-202 -203 0
-202 -204 0
-203 -204 0
205 206 207 208 209 210 211 212 213 214 215 216 217 218 219 220 221 0
-205 -206 0
-205 -207 0
-205 -208 0
-205 -209 0
-205 -210 0
-205 -211 0
-205 -212 0
-205 -213 0
-205 -214 0
-205 -215 0
-205 -216 0
-205 -217 0
-205 -218 0
-205 -219 0
-205 -220 0
-205 -221 0
-206 -207 0
-206 -208 0
-206 -209 0
-206 -210 0
-206 -211 0
-206 -212 0
-206 -213 0
-206 -214 0
-206 -215 0
-206 -216 0
-206 -217 0
-206 -218 0
-206 -219 0
-206 -220 0
-206 -221 0
-207 -208 0
-207 -209 0
-207 -210 0
-207 -211 0
-207 -212 0
-207 -213 0
-207 -214 0
-207 -215 0
-207 -216 0
-207 -217 0
-207 -218 0
-207 -219 0
-207 -220 0
-207 -221 0
-208 -209 0
-208 -210 0
-208 -211 0
-208 -212 0
-208 -213 0
-208 -214 0
-208 -215 0
-208 -216 0
-208 -217 0
-208 -218 0
-208 -219 0
-208 -220 0
-208 -221 0
-209 -210 0
-209 -211 0
-209 -212 0
-209 -213 0
-209 -214 0
-209 -215 0
-209 -216 0
-209 -217 0
-209 -218 0
-209 -219 0
-209 -220 0
-209 -221 0
-210 -211 0
-210 -212 0
-210 -213 0
-210 -214 0
-210 -215 0
-210 -216 0
-210 -217 0
-210 -218 0
-210 -219 0
-210 -220 0
-210 -221 0
-211 -212 0
-211 -213 0
-211 -214 0
-211 -215 0
-211 -216 0
-211 -217 0
-211 -218 0
-211 -219 0
-211 -220 0
-211 -221 0
-212 -213 0
-212 -214 0
-212 -215 0
-212 -216 0
-212 -217 0
-212 -218 0
-212 -219 0
-212 -220 0
-212 -221 0
-213 -214 0
-213 -215 0
-213 -216 0
-213 -217 0
-213 -218 0
-213 -219 0
-213 -220 0
-213 -221 0
-214 -215 0
-214 -216 0
-214 -217 0
-214 -218 0
-214 -219 0
-214 -220 0
-214 -221 0
-215 -216 0
-215 -217 0
-215 -218 0
-215 -219 0
-215 -220 0
-215 -221 0
-216 -217 0
-216 -218 0
-216 -219 0
-216 -220 0
-216 -221 0
-217 -218 0
-217 -219 0
-217 -220 0
-217 -221 0
-218 -219 0
-218 -220 0
-218 -221 0
-219 -220 0
-219 -221 0
-220 -221 0
222 223 224 225 226 227 228 229 230 231 232 233 234 235 236 237 238 0
-222 -223 0
-222 -224 0
-222 -225 0
-222 -226 0
-222 -227 0
-222 -228 0
-222 -229 0
-222 -230 0
-222 -231 0
-222 -232 0
-222 -233 0
-222 -234 0
-222 -235 0
-222 -236 0
-222 -237 0
-222 -238 0
-223 -224 0
-223 -225 0
-223 -226 0
-223 -227 0
-223 -228 0
-223 -229 0
-223 -230 0
-223 -231 0
-223 -232 0
-223 -233 0
-223 -234 0
-223 -235 0
-223 -236 0
-223 -237 0
-223 -238 0
-224 -225 0
-224 -226 0
-224 -227 0
-224 -228 0
-224 -229 0
-224 -230 0
-224 -231 0
-224 -232 0
-224 -233 0
-224 -234 0
-224 -235 0
-224 -236 0
-224 -237 0
-224 -238 0
-225 -226 0
-225 -227 0
-225 -228 0
-225 -229 0
-225 -230 0
-225 -231 0
-225 -232 0
-225 -233 0
-225 -234 0
-225 -235 0
-225 -236 0
-225 -237 0
-225 -238 0
-226 -227 0
-226 -228 0
-226 -229 0
-226 -230 0
-226 -231 0
-226 -232 0
-226 -233 0
-226 -234 0
-226 -235 0
-226 -236 0
-226 -237 0
-226 -238 0
-227 -228 0
-227 -229 0
-227 -230 0
-227 -231 0
-227 -232 0
-227 -233 0
-227 -234 0
-227 -235 0
-227 -236 0
-227 -237 0
-227 -238 0
-228 -229 0
-228 -230 0
-228 -231 0
-228 -232 0
-228 -233 0
-228 -234 0
-228 -235 0
-228 -236 0
-228 -237 0
-228 -238 0
-229 -230 0
-229 -231 0
-229 -232 0
-229 -233 0
-229 -234 0
-229 -235 0
-229 -236 0
-229 -237 0
-229 -238 0
-230 -231 0
-230 -232 0
-230 -233 0
-230 -234 0
-230 -235 0
-230 -236 0
-230 -237 0
-230 -238 0
-231 -232 0
-231 -233 0
-231 -234 0
-231 -235 0
-231 -236 0
-231 -237 0
-231 -238 0
-232 -233 0
-232 -234 0
-232 -235 0
-232 -236 0
-232 -237 0
-232 -238 0
-233 -234 0
-233 -235 0
-233 -236 0
-233 -237 0
-233 -238 0
-234 -235 0
-234 -236 0
-234 -237 0
-234 -238 0
-235 -236 0
-235 -237 0
-235 -238 0
-236 -237 0
-236 -238 0
-237 -238 0
239 240 241 242 243 244 245 246 247 248 249 250 251 252 253 254 255 0
-239 -240 0
-239 -241 0
-239 -242 0
-239 -243 0
-239 -244 0
-239 -245 0
-239 -246 0
-239 -247 0
-239 -248 0
-239 -249 0
-239 -250 0
-239 -251 0
-239 -252 0
-239 -253 0
-239 -254 0
-239 -255 0
-240 -241 0
-240 -242 0
-240 -243 0
-240 -244 0
-240 -245 0
-240 -246 0
-240 -247 0
-240 -248 0
-240 -249 0
-240 -250 0
-240 -251 0
-240 -252 0
-240 -253 0
-240 -254 0
-240 -255 0
-241 -242 0
-241 -243 0
-241 -244 0
-241 -245 0
-241 -246 0
-241 -247 0
-241 -248 0
-241 -249 0
-241 -250 0
-241 -251 0
-241 -252 0
-241 -253 0
-241 -254 0
-241 -255 0
-242 -243 0
-242 -244 0
-242 -245 0
-242 -246 0
-242 -247 0
-242 -248 0
-242 -249 0
-242 -250 0
-242 -251 0
-242 -252 0
-242 -253 0
-242 -254 0
-242 -255 0
-243 -244 0
-243 -245 0
-243 -246 0
-243 -247 0
-243 -248 0
-243 -249 0
-243 -250 0
-243 -251 0
-243 -252 0
-243 -253 0
-243 -254 0
-243 -255 0
-244 -245 0
-244 -246 0
-244 -247 0
-244 -248 0
-244 -249 0
-244 -250 0
-244 -251 0
-244 -252 0
-244 -253 0
-244 -254 0
-244 -255 0
-245 -246 0
-245 -247 0
-245 -248 0
-245 -249 0
-245 -250 0
-245 -251 0
-245 -252 0
-245 -253 0
-245 -254 0
-245 -255 0
-246 -247 0
-246 -248 0
-246 -249 0
-246 -250 0
-246 -251 0
-246 -252 0
-246 -253 0
-246 -254 0
-246 -255 0
-247 -248 0
-247 -249 0
-247 -250 0
-247 -251 0
-247 -252 0
-247 -253 0
-247 -254 0
-247 -255 0
-248 -249 0
-248 -250 0
-248 -251 0
-248 -252 0
-248 -253 0
-248 -254 0
-248 -255 0
-249 -250 0
-249 -251 0
-249 -252 0
-249 -253 0
-249 -254 0
-249 -255 0
-250 -251 0
-250 -252 0
-250 -253 0
-250 -254 0
-250 -255 0
-251 -252 0
-251 -253 0
-251 -254 0
-251 -255 0
-252 -253 0
-252 -254 0
-252 -255 0
-253 -254 0
-253 -255 0
-254 -255 0
256 257 258 259 260 261 262 263 264 265 266 267 268 269 270 271 272 0
-256 -257 0
-256 -258 0
-256 -259 0
-256 -260 0
-256 -261 0
-256 -262 0
-256 -263 0
-256 -264 0
-256 -265 0
-256 -266 0
-256 -267 0
-256 -268 0
-256 -269 0
-256 -270 0
-256 -271 0
-256 -272 0
-257 -258 0
-257 -259 0
-257 -260 0
-257 -261 0
-257 -262 0
-257 -263 0
-257 -264 0
-257 -265 0
-257 -266 0
-257 -267 0
-257 -268 0
-257 -269 0
-257 -270 0
-257 -271 0
-257 -272 0
-258 -259 0
-258 -260 0
-258 -261 0
-258 -262 0
-258 -263 0
-258 -264 0
-258 -265 0
-258 -266 0
-258 -267 0
-258 -268 0
-258 -269 0
-258 -270 0
-258 -271 0
-258 -272 0
-259 -260 0
-259 -261 0
-259 -262 0
-259 -263 0
-259 -264 0
-259 -265 0
-259 -266 0
-259 -267 0
-259 -268 0
-259 -269 0
-259 -270 0
-259 -271 0
-259 -272 0
-260 -261 0
-260 -262 0
-260 -263 0
-260 -264 0
-260 -265 0
-260 -266 0
-260 -267 0
-260 -268 0
-260 -269 0
-260 -270 0
-260 -271 0
-260 -272 0
-261 -262 0
-261 -263 0
-261 -264 0
-261 -265 0
-261 -266 0
-261 -267 0
-261 -268 0
-261 -269 0
-261 -270 0
-261 -271 0
-261 -272 0
-262 -263 0
-262 -264 0
-262 -265 0
-262 -266 0
-262 -267 0
-262 -268 0
-262 -269 0
-262 -270 0
-262 -271 0
-262 -272 0
-263 -264 0
-263 -265 0
-263 -266 0
-263 -267 0
-263 -268 0
-263 -269 0
-263 -270 0
-263 -271 0
-263 -272 0
-264 -265 0
-264 -266 0
-264 -267 0
-264 -268 0
-264 -269 0
-264 -270 0
-264 -271 0
-264 -272 0
-265 -266 0
-265 -267 0
-265 -268 0
-265 -269 0
-265 -270 0
-265 -271 0
-265 -272 0
-266 -267 0
-266 -268 0
-266 -269 0
-266 -270 0
-266 -271 0
-266 -272 0
-267 -268 0
-267 -269 0
-267 -270 0
-267 -271 0
-267 -272 0
-268 -269 0
-268 -270 0
-268 -271 0
-268 -272 0
-269 -270 0
-269 -271 0
-269 -272 0
-270 -271 0
-270 -272 0
-271 -272 0
273 274 275 276 277 278 279 280 281 282 283 284 285 286 287 288 289 0
-273 -274 0
-273 -275 0
-273 -276 0
-273 -277 0
-273 -278 0
-273 -279 0
-273 -280 0
-273 -281 0
-273 -282 0
-273 -283 0
-273 -284 0
-273 -285 0
-273 -286 0
-273 -287 0
-273 -288 0
-273 -289 0
-274 -275 0
-274 -276 0
-274 -277 0
-274 -278 0
-274 -279 0
-274 -280 0
-274 -281 0
-274 -282 0
-274 -283 0
-274 -284 0
-274 -285 0
-274 -286 0
-274 -287 0
-274 -288 0
-274 -289 0
-275 -276 0
-275 -277 0
-275 -278 0
-275 -279 0
-275 -280 0
-275 -281 0
-275 -282 0
-275 -283 0
-275 -284 0
-275 -285 0
-275 -286 0
-275 -287 0
-275 -288 0
-275 -289 0
-276 -277 0
-276 -278 0
-276 -279 0
-276 -280 0
-276 -281 0
-276 -282 0
-276 -283 0
-276 -284 0
-276 -285 0
-276 -286 0
-276 -287 0
-276 -288 0
-276 -289 0
-277 -278 0
-277 -279 0
-277 -280 0
-277 -281 0
-277 -282 0
-277 -283 0
-277 -284 0
-277 -285 0
-277 -286 0
-277 -287 0
-277 -288 0
-277 -289 0
-278 -279 0
-278 -280 0
-278 -281 0
-278 -282 0
-278 -283 0
-278 -284 0
-278 -285 0
-278 -286 0
-278 -287 0
-278 -288 0
-278 -289 0
-279 -280 0
-279 -281 0
-279 -282 0
-279 -283 0
-279 -284 0
-279 -285 0
-279 -286 0
-279 -287 0
-279 -288 0
-279 -289 0
-280 -281 0
-280 -282 0
-280 -283 0
-280 -284 0
-280 -285 0
-280 -286 0
-280 -287 0
-280 -288 0
-280 -289 0
-281 -282 0
-281 -283 0
-281 -284 0
-281 -285 0
-281 -286 0
-281 -287 0
-281 -288 0
-281 -289 0
-282 -283 0
-282 -284 0
-282 -285 0
-282 -286 0
-282 -287 0
-282 -288 0
-282 -289 0
-283 -284 0
-283 -285 0
-283 -286 0
-283 -287 0
-283 -288 0
-283 -289 0
-284 -285 0
-284 -286 0
-284 -287 0
-284 -288 0
-284 -289 0
-285 -286 0
-285 -287 0
-285 -288 0
-285 -289 0
-286 -287 0
-286 -288 0
-286 -289 0
-287 -288 0
-287 -289 0
-288 -289 0
290 291 292 293 294 295 296 297 298 299 300 301 302 303 304 305 306 0
-290 -291 0
-290 -292 0
-290 -293 0
-290 -294 0
-290 -295 0
-290 -296 0
-290 -297 0
-290 -298 0
-290 -299 0
-290 -300 0
-290 -301 0
-290 -302 0
-290 -303 0
-290 -304 0
-290 -305 0
-290 -306 0
-291 -292 0
-291 -293 0
-291 -294 0
-291 -295 0
-291 -296 0
-291 -297 0
-291 -298 0
-291 -299 0
-291 -300 0
-291 -301 0
-291 -302 0
-291 -303 0
-291 -304 0
-291 -305 0
-291 -306 0
-292 -293 0
-292 -294 0
-292 -295 0
-292 -296 0
-292 -297 0
-292 -298 0
-292 -299 0
-292 -300 0
-292 -301 0
-292 -302 0
-292 -303 0
-292 -304 0
-292 -305 0
-292 -306 0
-293 -294 0
-293 -295 0
-293 -296 0
-293 -297 0
-293 -298 0
-293 -299 0
-293 -300 0
-293 -301 0
-293 -302 0
-293 -303 0
-293 -304 0
-293 -305 0
-293 -306 0
-294 -295 0
-294 -296 0
-294 -297 0
-294 -298 0
-294 -299 0
-294 -300 0
-294 -301 0
-294 -302 0
-294 -303 0
-294 -304 0
-294 -305 0
-294 -306 0
-295 -296 0
-295 -297 0
-295 -298 0
-295 -299 0
-295 -300 0
-295 -301 0
-295 -302 0
-295 -303 0
-295 -304 0
-295 -305 0
-295 -306 0
-296 -297 0
-296 -298 0
-296 -299 0
-296 -300 0
-296 -301 0
-296 -302 0
-296 -303 0
-296 -304 0
-296 -305 0
-296 -306 0
-297 -298 0
-297 -299 0
-297 -300 0
-297 -301 0
-297 -302 0
-297 -303 0
-297 -304 0
-297 -305 0
-297 -306 0
-298 -299 0
-298 -300 0
-298 -301 0
-298 -302 0
-298 -303 0
-298 -304 0
-298 -305 0
-298 -306 0
-299 -300 0
-299 -301 0
-299 -302 0
-299 -303 0
-299 -304 0
-299 -305 0
-299 -306 0
-300 -301 0
-300 -302 0
-300 -303 0
-300 -304 0
-300 -305 0
-300 -306 0
-301 -302 0
-301 -303 0
-301 -304 0
-301 -305 0
-301 -306 0
-302 -303 0
-302 -304 0
-302 -305 0
-302 -306 0
-303 -304 0
-303 -305 0
-303 -306 0
-304 -305 0
-304 -306 0
-305 -306 0
307 308 309 310 311 312 313 314 315 316 317 318 319 320 321 322 323 0
-307 -308 0
-307 -309 0
-307 -310 0
-307 -311 0
-307 -312 0
-307 -313 0
-307 -314 0
-307 -315 0
-307 -316 0
-307 -317 0
-307 -318 0
-307 -319 0
-307 -320 0
-307 -321 0
-307 -322 0
-307 -323 0
-308 -309 0
-308 -310 0
-308 -311 0
-308 -312 0
-308 -313 0
-308 -314 0
-308 -315 0
-308 -316 0
-308 -317 0
-308 -318 0
-308 -319 0
-308 -320 0
-308 -321 0
-308 -322 0
-308 -323 0
-309 -310 0
-309 -311 0
-309 -312 0
-309 -313 0
-309 -314 0
-309 -315 0
-309 -316 0
-309 -317 0
-309 -318 0
-309 -319 0
-309 -320 0
-309 -321 0
-309 -322 0
-309 -323 0
-310 -311 0
-310 -312 0
-310 -313 0
-310 -314 0
-310 -315 0
-310 -316 0
-310 -317 0
-310 -318 0
-310 -319 0
-310 -320 0
-310 -321 0
-310 -322 0
-310 -323 0
-311 -312 0
-311 -313 0
-311 -314 0
-311 -315 0
-311 -316 0
-311 -317 0
-311 -318 0
-311 -319 0
-311 -320 0
-311 -321 0
-311 -322 0
-311 -323 0
-312 -313 0
-312 -314 0
-312 -315 0
-312 -316 0
-312 -317 0
-312 -318 0
-312 -319 0
-312 -320 0
-312 -321 0
-312 -322 0
-312 -323 0
-313 -314 0
-313 -315 0
-313 -316 0
-313 -317 0
-313 -318 0
-313 -319 0
-313 -320 0
-313 -321 0
-313 -322 0
-313 -323 0
-314 -315 0
-314 -316 0
-314 -317 0
-314 -318 0
-314 -319 0
-314 -320 0
-314 -321 0
-314 -322 0
-314 -323 0
-315 -316 0
-315 -317 0
-315 -318 0
-315 -319 0
-315 -320 0
-315 -321 0
-315 -322 0
-315 -323 0
-316 -317 0
-316 -318 0
-316 -319 0
-316 -320 0
-316 -321 0
-316 -322 0
-316 -323 0
-317 -318 0
-317 -319 0
-317 -320 0
-317 -321 0
-317 -322 0
-317 -323 0
-318 -319 0
-318 -320 0
-318 -321 0
-318 -322 0
-318 -323 0
-319 -320 0
-319 -321 0
-319 -322 0
-319 -323 0
-320 -321 0
-320 -322 0
-320 -323 0
-321 -322 0
-321 -323 0
-322 -323 0
324 325 326 327 328 329 330 331 332 333 334 335 336 337 338 339 340 0
-324 -325 0
-324 -326 0
-324 -327 0
-324 -328 0
-324 -329 0
-324 -330 0
-324 -331 0
-324 -332 0
-324 -333 0
-324 -334 0
-324 -335 0
-324 -336 0
-324 -337 0
-324 -338 0
-324 -339 0
-324 -340 0
-325 -326 0
-325 -327 0
-325 -328 0
-325 -329 0
-325 -330 0
-325 -331 0
-325 -332 0
-325 -333 0
-325 -334 0
-325 -335 0
-325 -336 0
-325 -337 0
-325 -338 0
-325 -339 0
-325 -340 0
-326 -327 0
-326 -328 0
-326 -329 0
-326 -330 0
-326 -331 0
-326 -332 0
-326 -333 0
-326 -334 0
-326 -335 0
-326 -336 0
-326 -337 0
-326 -338 0
-326 -339 0
-326 -340 0
-327 -328 0
-327 -329 0
-327 -330 0
-327 -331 0
-327 -332 0
-327 -333 0
-327 -334 0
-327 -335 0
-327 -336 0
-327 -337 0
-327 -338 0
-327 -339 0
-327 -340 0
-328 -329 0
-328 -330 0
-328 -331 0
-328 -332 0
-328 -333 0
-328 -334 0
-328 -335 0
-328 -336 0
-328 -337 0
-328 -338 0
-328 -339 0
-328 -340 0
-329 -330 0
-329 -331 0
-329 -332 0
-329 -333 0
-329 -334 0
-329 -335 0
-329 -336 0
-329 -337 0
-329 -338 0
-329 -339 0
-329 -340 0
-330 -331 0
-330 -332 0
-330 -333 0
-330 -334 0
-330 -335 0
-330 -336 0
-330 -337 0
-330 -338 0
-330 -339 0
-330 -340 0
-331 -332 0
-331 -333 0
-331 -334 0
-331 -335 0
-331 -336 0
-331 -337 0
-331 -338 0
-331 -339 0
-331 -340 0
-332 -333 0
-332 -334 0
-332 -335 0
-332 -336 0
-332 -337 0
-332 -338 0
-332 -339 0
-332 -340 0
-333 -334 0
-333 -335 0
-333 -336 0
-333 -337 0
-333 -338 0
-333 -339 0
-333 -340 0
-334 -335 0
-334 -336 0
-334 -337 0
-334 -338 0
-334 -339 0
-334 -340 0
-335 -336 0
-335 -337 0
-335 -338 0
-335 -339 0
-335 -340 0
-336 -337 0
-336 -338 0
-336 -339 0
-336 -340 0
-337 -338 0
-337 -339 0
-337 -340 0
-338 -339 0
-338 -340 0
-339 -340 0
341 342 343 344 345 346 347 348 349 350 351 352 353 354 355 356 357 0
-341 -342 0
-341 -343 0
-341 -344 0
-341 -345 0
-341 -346 0
-341 -347 0
-341 -348 0
-341 -349 0
-341 -350 0
-341 -351 0
-341 -352 0
-341 -353 0
-341 -354 0
-341 -355 0
-341 -356 0
-341 -357 0
-342 -343 0
-342 -344 0
-342 -345 0
-342 -346 0
-342 -347 0
-342 -348 0
-342 -349 0
-342 -350 0
-342 -351 0
-342 -352 0
-342 -353 0
-342 -354 0
-342 -355 0
-342 -356 0
-342 -357 0
-343 -344 0
-343 -345 0
-343 -346 0
-343 -347 0
-343 -348 0
-343 -349 0
-343 -350 0
-343 -351 0
-343 -352 0
-343 -353 0
-343 -354 0
-343 -355 0
-343 -356 0
-343 -357 0
-344 -345 0
-344 -346 0
-344 -347 0
-344 -348 0
-344 -349 0
-344 -350 0
-344 -351 0
-344 -352 0
-344 -353 0
-344 -354 0
-344 -355 0
-344 -356 0
-344 -357 0
-345 -346 0
-345 -347 0
-345 -348 0
-345 -349 0
-345 -350 0
-345 -351 0
-345 -352 0
-345 -353 0
-345 -354 0
-345 -355 0
-345 -356 0
-345 -357 0
-346 -347 0
-346 -348 0
-346 -349 0
-346 -350 0
-346 -351 0
-346 -352 0
-346 -353 0
-346 -354 0
-346 -355 0
-346 -356 0
-346 -357 0
-347 -348 0
-347 -349 0
-347 -350 0
-347 -351 0
-347 -352 0
-347 -353 0
-347 -354 0
-347 -355 0
-347 -356 0
-347 -357 0
-348 -349 0
-348 -350 0
-348 -351 0
-348 -352 0
-348 -353 0
-348 -354 0
-348 -355 0
-348 -356 0
-348 -357 0
-349 -350 0
-349 -351 0
-349 -352 0
-349 -353 0
-349 -354 0
-349 -355 0
-349 -356 0
-349 -357 0
-350 -351 0
-350 -352 0
-350 -353 0
-350 -354 0
-350 -355 0
-350 -356 0
-350 -357 0
-351 -352 0
-351 -353 0
-351 -354 0
-351 -355 0
-351 -356 0
-351 -357 0
-352 -353 0
-352 -354 0
-352 -355 0
-352 -356 0
-352 -357 0
-353 -354 0
-353 -355 0
-353 -356 0
-353 -357 0
-354 -355 0
-354 -356 0
-354 -357 0
-355 -356 0
-355 -357 0
-356 -357 0
358 359 360 361 362 363 364 365 366 367 368 369 370 371 372 373 374 0
-358 -359 0
-358 -360 0
-358 -361 0
-358 -362 0
-358 -363 0
-358 -364 0
-358 -365 0
-358 -366 0
-358 -367 0
-358 -368 0
-358 -369 0
-358 -370 0
-358 -371 0
-358 -372 0
-358 -373 0
-358 -374 0
-359 -360 0
-359 -361 0
-359 -362 0
-359 -363 0
-359 -364 0
-359 -365 0
-359 -366 0
-359 -367 0
-359 -368 0
-359 -369 0
-359 -370 0
-359 -371 0
-359 -372 0
-359 -373 0
-359 -374 0
-360 -361 0
-360 -362 0
-360 -363 0
-360 -364 0
-360 -365 0
-360 -366 0
-360 -367 0
-360 -368 0
-360 -369 0
-360 -370 0
-360 -371 0
-360 -372 0
-360 -373 0
-360 -374 0
-361 -362 0
-361 -363 0
-361 -364 0
-361 -365 0
-361 -366 0
-361 -367 0
-361 -368 0
-361 -369 0
-361 -370 0
-361 -371 0
-361 -372 0
-361 -373 0
-361 -374 0
-362 -363 0
-362 -364 0
-362 -365 0
-362 -366 0
-362 -367 0
-362 -368 0
-362 -369 0
-362 -370 0
-362 -371 0
-362 -372 0
-362 -373 0
-362 -374 0
-363 -364 0
-363 -365 0
-363 -366 0
-363 -367 0
-363 -368 0
-363 -369 0
-363 -370 0
-363 -371 0
-363 -372 0
-363 -373 0
-363 -374 0
-364 -365 0
-364 -366 0
-364 -367 0
-364 -368 0
-364 -369 0
-364 -370 0
-364 -371 0
-364 -372 0
-364 -373 0
-364 -374 0
-365 -366 0
-365 -367 0
-365 -368 0
-365 -369 0
-365 -370 0
-365 -371 0
-365 -372 0
-365 -373 0
-365 -374 0
-366 -367 0
-366 -368 0
-366 -369 0
-366 -370 0
-366 -371 0
-366 -372 0
-366 -373 0
-366 -374 0
-367 -368 0
-367 -369 0
-367 -370 0
-367 -371 0
-367 -372 0
-367 -373 0
-367 -374 0
-368 -369 0
-368 -370 0
-368 -371 0
-368 -372 0
-368 -373 0
-368 -374 0
-369 -370 0
-369 -371 0
-369 -372 0
-369 -373 0
-369 -374 0
-370 -371 0
-370 -372 0
-370 -373 0
-370 -374 0
-371 -372 0
-371 -373 0
-371 -374 0
-372 -373 0
-372 -374 0
-373 -374 0
375 376 377 378 379 380 381 382 383 384 385 386 387 388 389 390 391 0
-375 -376 0
-375 -377 0
-375 -378 0
-375 -379 0
-375 -380 0
-375 -381 0
-375 -382 0
-375 -383 0
-375 -384 0
-375 -385 0
-375 -386 0
-375 -387 0
-375 -388 0
-375 -389 0
-375 -390 0
-375 -391 0
-376 -377 0
-376 -378 0
-376 -379 0
-376 -380 0
-376 -381 0
-376 -382 0
-376 -383 0
-376 -384 0
-376 -385 0
-376 -386 0
-376 -387 0
-376 -388 0
-376 -389 0
-376 -390 0
-376 -391 0
-377 -378 0
-377 -379 0
-377 -380 0
-377 -381 0
-377 -382 0
-377 -383 0
-377 -384 0
-377 -385 0
-377 -386 0
-377 -387 0
-377 -388 0
-377 -389 0
-377 -390 0
-377 -391 0
-378 -379 0
-378 -380 0
-378 -381 0
-378 -382 0
-378 -383 0
-378 -384 0
-378 -385 0
-378 -386 0
-378 -387 0
-378 -388 0
-378 -389 0
-378 -390 0
-378 -391 0
-379 -380 0
-379 -381 0
-379 -382 0
-379 -383 0
-379 -384 0
-379 -385 0
-379 -386 0
-379 -387 0
-379 -388 0
-379 -389 0
-379 -390 0
-379 -391 0
-380 -381 0
-380 -382 0
-380 -383 0
-380 -384 0
-380 -385 0
-380 -386 0
-380 -387 0
-380 -388 0
-380 -389 0
-380 -390 0
-380 -391 0
-381 -382 0
-381 -383 0
-381 -384 0
-381 -385 0
-381 -386 0
-381 -387 0
-381 -388 0
-381 -389 0
-381 -390 0
-381 -391 0
-382 -383 0
-382 -384 0
-382 -385 0
-382 -386 0
-382 -387 0
-382 -388 0
-382 -389 0
-382 -390 0
-382 -391 0
-383 -384 0
-383 -385 0
-383 -386 0
-383 -387 0
-383 -388 0
-383 -389 0
-383 -390 0
-383 -391 0
-384 -385 0
-384 -386 0
-384 -387 0
-384 -388 0
-384 -389 0
-384 -390 0
-384 -391 0
-385 -386 0
-385 -387 0
-385 -388 0
-385 -389 0
-385 -390 0
-385 -391 0
-386 -387 0
-386 -388 0
-386 -389 0
-386 -390 0
-386 -391 0
-387 -388 0
-387 -389 0
-387 -390 0
-387 -391 0
-388 -389 0
-388 -390 0
-388 -391 0
-389 -390 0
-389 -391 0
-390 -391 0
392 393 394 395 396 397 398 399 400 401 402 403 404 405 406 407 408 0
-392 -393 0
-392 -394 0
-392 -395 0
-392 -396 0
-392 -397 0
-392 -398 0
-392 -399 0
-392 -400 0
-392 -401 0
-392 -402 0
-392 -403 0
-392 -404 0
-392 -405 0
-392 -406 0
-392 -407 0
-392 -408 0
-393 -394 0
-393 -395 0
-393 -396 0
-393 -397 0
-393 -398 0
-393 -399 0
-393 -400 0
-393 -401 0
-393 -402 0
-393 -403 0
-393 -404 0
-393 -405 0
-393 -406 0
-393 -407 0
-393 -408 0
-394 -395 0
-394 -396 0
-394 -397 0
-394 -398 0
-394 -399 0
-394 -400 0
-394 -401 0
-394 -402 0
-394 -403 0
-394 -404 0
-394 -405 0
-394 -406 0
-394 -407 0
-394 -408 0
-395 -396 0
-395 -397 0
-395 -398 0
-395 -399 0
-395 -400 0
-395 -401 0
-395 -402 0
-395 -403 0
-395 -404 0
-395 -405 0
-395 -406 0
-395 -407 0
-395 -408 0
-396 -397 0
-396 -398 0
-396 -399 0
-396 -400 0
-396 -401 0
-396 -402 0
-396 -403 0
-396 -404 0
-396 -405 0
-396 -406 0
-396 -407 0
-396 -408 0
-397 -398 0
-397 -399 0
-397 -400 0
-397 -401 0
-397 -402 0
-397 -403 0
-397 -404 0
-397 -405 0
-397 -406 0
-397 -407 0
-397 -408 0
-398 -399 0
-398 -400 0
-398 -401 0
-398 -402 0
-398 -403 0
-398 -404 0
-398 -405 0
-398 -406 0
-398 -407 0
-398 -408 0
-399 -400 0
-399 -401 0
-399 -402 0
-399 -403 0
-399 -404 0
-399 -405 0
-399 -406 0
-399 -407 0
-399 -408 0
-400 -401 0
-400 -402 0
-400 -403 0
-400 -404 0
-400 -405 0
-400 -406 0
-400 -407 0
-400 -408 0
-401 -402 0
-401 -403 0
-401 -404 0
-401 -405 0
-401 -406 0
-401 -407 0
-401 -408 0
-402 -403 0
-402 -404 0
-402 -405 0
-402 -406 0
-402 -407 0
-402 -408 0
-403 -404 0
-403 -405 0
-403 -406 0
-403 -407 0
-403 -408 0
-404 -405 0
-404 -406 0
-404 -407 0
-404 -408 0
-405 -406 0
-405 -407 0
-405 -408 0
-406 -407 0
-406 -408 0
-407 -408 0
409 410 411 412 413 414 415 416 417 418 419 420 421 422 423 424 425 0
-409 -410 0
-409 -411 0
-409 -412 0
-409 -413 0
-409 -414 0
-409 -415 0
-409 -416 0
-409 -417 0
-409 -418 0
-409 -419 0
-409 -420 0
-409 -421 0
-409 -422 0
-409 -423 0
-409 -424 0
-409 -425 0
-410 -411 0
-410 -412 0
-410 -413 0
-410 -414 0
-410 -415 0
-410 -416 0
-410 -417 0
-410 -418 0
-410 -419 0
-410 -420 0
-410 -421 0
-410 -422 0
-410 -423 0
-410 -424 0
-410 -425 0
-411 -412 0
-411 -413 0
-411 -414 0
-411 -415 0
-411 -416 0
-411 -417 0
-411 -418 0
-411 -419 0
-411 -420 0
-411 -421 0
-411 -422 0
-411 -423 0
-411 -424 0
-411 -425 0
-412 -413 0
-412 -414 0
-412 -415 0
-412 -416 0
-412 -417 0
-412 -418 0
-412 -419 0
-412 -420 0
-412 -421 0
-412 -422 0
-412 -423 0
-412 -424 0
-412 -425 0
-413 -414 0
-413 -415 0
-413 -416 0
-413 -417 0
-413 -418 0
-413 -419 0
-413 -420 0
-413 -421 0
-413 -422 0
-413 -423 0
-413 -424 0
-413 -425 0
-414 -415 0
-414 -416 0
-414 -417 0
-414 -418 0
-414 -419 0
-414 -420 0
-414 -421 0
-414 -422 0
-414 -423 0
-414 -424 0
-414 -425 0
-415 -416 0
-415 -417 0
-415 -418 0
-415 -419 0
-415 -420 0
-415 -421 0
-415 -422 0
-415 -423 0
-415 -424 0
-415 -425 0
-416 -417 0
-416 -418 0
-416 -419 0
-416 -420 0
-416 -421 0
-416 -422 0
-416 -423 0
-416 -424 0
-416 -425 0
-417 -418 0
-417 -419 0
-417 -420 0
-417 -421 0
-417 -422 0
-417 -423 0
-417 -424 0
-417 -425 0
-418 -419 0
-418 -420 0
-418 -421 0
-418 -422 0
-418 -423 0
-418 -424 0
-418 -425 0
-419 -420 0
-419 -421 0
-419 -422 0
-419 -423 0
-419 -424 0
-419 -425 0
-420 -421 0
-420 -422 0
-420 -423 0
-420 -424 0
-420 -425 0
-421 -422 0
-421 -423 0
-421 -424 0
-421 -425 0
-422 -423 0
-422 -424 0
-422 -425 0
-423 -424 0
-423 -425 0
-424 -425 0
426 427 428 429 430 431 432 433 434 435 436 437 438 439 440 441 442 0
-426 -427 0
-426 -428 0
-426 -429 0
-426 -430 0
-426 -431 0
-426 -432 0
-426 -433 0
-426 -434 0
-426 -435 0
-426 -436 0
-426 -437 0
-426 -438 0
-426 -439 0
-426 -440 0
-426 -441 0
-426 -442 0
-427 -428 0
-427 -429 0
-427 -430 0
-427 -431 0
-427 -432 0
-427 -433 0
-427 -434 0
-427 -435 0
-427 -436 0
-427 -437 0
-427 -438 0
-427 -439 0
-427 -440 0
-427 -441 0
-427 -442 0
-428 -429 0
-428 -430 0
-428 -431 0
-428 -432 0
-428 -433 0
-428 -434 0
-428 -435 0
-428 -436 0
-428 -437 0
-428 -438 0
-428 -439 0
-428 -440 0
-428 -441 0
-428 -442 0
-429 -430 0
-429 -431 0
-429 -432 0
-429 -433 0
-429 -434 0
-429 -435 0
-429 -436 0
-429 -437 0
-429 -438 0
-429 -439 0
-429 -440 0
-429 -441 0
-429 -442 0
-430 -431 0
-430 -432 0
-430 -433 0
-430 -434 0
-430 -435 0
-430 -436 0
-430 -437 0
-430 -438 0
-430 -439 0
-430 -440 0
-430 -441 0
-430 -442 0
-431 -432 0
-431 -433 0
-431 -434 0
-431 -435 0
-431 -436 0
-431 -437 0
-431 -438 0
-431 -439 0
-431 -440 0
-431 -441 0
-431 -442 0
-432 -433 0
-432 -434 0
-432 -435 0
-432 -436 0
-432 -437 0
-432 -438 0
-432 -439 0
-432 -440 0
-432 -441 0
-432 -442 0
-433 -434 0
-433 -435 0
-433 -436 0
-433 -437 0
-433 -438 0
-433 -439 0
-433 -440 0
-433 -441 0
-433 -442 0
-434 -435 0
-434 -436 0
-434 -437 0
-434 -438 0
-434 -439 0
-434 -440 0
-434 -441 0
-434 -442 0
-435 -436 0
-435 -437 0
-435 -438 0
-435 -439 0
-435 -440 0
-435 -441 0
-435 -442 0
-436 -437 0
-436 -438 0
-436 -439 0
-436 -440 0
-436 -441 0
-436 -442 0
-437 -438 0
-437 -439 0
-437 -440 0
-437 -441 0
-437 -442 0
-438 -439 0
-438 -440 0
-438 -441 0
-438 -442 0
-439 -440 0
-439 -441 0
-439 -442 0
-440 -441 0
-440 -442 0
-441 -442 0
443 444 445 446 447 448 449 450 451 452 453 454 455 456 457 458 459 0
-443 -444 0
-443 -445 0
-443 -446 0
-443 -447 0
-443 -448 0
-443 -449 0
-443 -450 0
-443 -451 0
-443 -452 0
-443 -453 0
-443 -454 0
-443 -455 0
-443 -456 0
-443 -457 0
-443 -458 0
-443 -459 0
-444 -445 0
-444 -446 0
-444 -447 0
-444 -448 0
-444 -449 0
-444 -450 0
-444 -451 0
-444 -452 0
-444 -453 0
-444 -454 0
-444 -455 0
-444 -456 0
-444 -457 0
-444 -458 0
-444 -459 0
-445 -446 0
-445 -447 0
-445 -448 0
-445 -449 0
-445 -450 0
-445 -451 0
-445 -452 0
-445 -453 0
-445 -454 0
-445 -455 0
-445 -456 0
-445 -457 0
-445 -458 0
-445 -459 0
-446 -447 0
-446 -448 0
-446 -449 0
-446 -450 0
-446 -451 0
-446 -452 0
-446 -453 0
-446 -454 0
-446 -455 0
-446 -456 0
-446 -457 0
-446 -458 0
-446 -459 0
-447 -448 0
-447 -449 0
-447 -450 0
-447 -451 0
-447 -452 0
-447 -453 0
-447 -454 0
-447 -455 0
-447 -456 0
-447 -457 0
-447 -458 0
-447 -459 0
-448 -449 0
-448 -450 0
-448 -451 0
-448 -452 0
-448 -453 0
-448 -454 0
-448 -455 0
-448 -456 0
-448 -457 0
-448 -458 0
-448 -459 0
-449 -450 0
-449 -451 0
-449 -452 0
-449 -453 0
-449 -454 0
-449 -455 0
-449 -456 0
-449 -457 0
-449 -458 0
-449 -459 0
-450 -451 0
-450 -452 0
-450 -453 0
-450 -454 0
-450 -455 0
-450 -456 0
-450 -457 0
-450 -458 0
-450 -459 0
-451 -452 0
-451 -453 0
-451 -454 0
-451 -455 0
-451 -456 0
-451 -457 0
-451 -458 0
-451 -459 0
-452 -453 0
-452 -454 0
-452 -455 0
-452 -456 0
-452 -457 0
-452 -458 0
-452 -459 0
-453 -454 0
-453 -455 0
-453 -456 0
-453 -457 0
-453 -458 0
-453 -459 0
-454 -455 0
-454 -456 0
-454 -457 0
-454 -458 0
-454 -459 0
-455 -456 0
-455 -457 0
-455 -458 0
-455 -459 0
-456 -457 0
-456 -458 0
-456 -459 0
-457 -458 0
-457 -459 0
-458 -459 0
460 461 462 463 464 465 466 467 468 469 470 471 472 473 474 475 476 0
-460 -461 0
-460 -462 0
-460 -463 0
-460 -464 0
-460 -465 0
-460 -466 0
-460 -467 0
-460 -468 0
-460 -469 0
-460 -470 0
-460 -471 0
-460 -472 0
-460 -473 0
-460 -474 0
-460 -475 0
-460 -476 0
-461 -462 0
-461 -463 0
-461 -464 0
-461 -465 0
-461 -466 0
-461 -467 0
-461 -468 0
-461 -469 0
-461 -470 0
-461 -471 0
-461 -472 0
-461 -473 0
-461 -474 0
-461 -475 0
-461 -476 0
-462 -463 0
-462 -464 0
-462 -465 0
-462 -466 0
-462 -467 0
-462 -468 0
-462 -469 0
-462 -470 0
-462 -471 0
-462 -472 0
-462 -473 0
-462 -474 0
-462 -475 0
-462 -476 0
-463 -464 0
-463 -465 0
-463 -466 0
-463 -467 0
-463 -468 0
-463 -469 0
-463 -470 0
-463 -471 0
-463 -472 0
-463 -473 0
-463 -474 0
-463 -475 0
-463 -476 0
-464 -465 0
-464 -466 0
-464 -467 0
-464 -468 0
-464 -469 0
-464 -470 0
-464 -471 0
-464 -472 0
-464 -473 0
-464 -474 0
-464 -475 0
-464 -476 0
-465 -466 0
-465 -467 0
-465 -468 0
-465 -469 0
-465 -470 0
-465 -471 0
-465 -472 0
-465 -473 0
-465 -474 0
-465 -475 0
-465 -476 0
-466 -467 0
-466 -468 0
-466 -469 0
-466 -470 0
-466 -471 0
-466 -472 0
-466 -473 0
-466 -474 0
-466 -475 0
-466 -476 0
-467 -468 0
-467 -469 0
-467 -470 0
-467 -471 0
-467 -472 0
-467 -473 0
-467 -474 0
-467 -475 0
-467 -476 0
-468 -469 0
-468 -470 0
-468 -471 0
-468 -472 0
-468 -473 0
-468 -474 0
-468 -475 0
-468 -476 0
-469 -470 0
-469 -471 0
-469 -472 0
-469 -473 0
-469 -474 0
-469 -475 0
-469 -476 0
-470 -471 0
-470 -472 0
-470 -473 0
-470 -474 0
-470 -475 0
-470 -476 0
-471 -472 0
-471 -473 0
-471 -474 0
-471 -475 0
-471 -476 0
-472 -473 0
-472 -474 0
-472 -475 0
-472 -476 0
-473 -474 0
-473 -475 0
-473 -476 0
-474 -475 0
-474 -476 0
-475 -476 0
477 478 479 480 481 482 483 484 485 486 487 488 489 490 491 492 493 0
-477 -478 0
-477 -479 0
-477 -480 0
-477 -481 0
-477 -482 0
-477 -483 0
-477 -484 0
-477 -485 0
-477 -486 0
-477 -487 0
-477 -488 0
-477 -489 0
-477 -490 0
-477 -491 0
-477 -492 0
-477 -493 0
-478 -479 0
-478 -480 0
-478 -481 0
-478 -482 0
-478 -483 0
-478 -484 0
-478 -485 0
-478 -486 0
-478 -487 0
-478 -488 0
-478 -489 0
-478 -490 0
-478 -491 0
-478 -492 0
-478 -493 0
-479 -480 0
-479 -481 0
-479 -482 0
-479 -483 0
-479 -484 0
-479 -485 0
-479 -486 0
-479 -487 0
-479 -488 0
-479 -489 0
-479 -490 0
-479 -491 0
-479 -492 0
-479 -493 0
-480 -481 0
-480 -482 0
-480 -483 0
-480 -484 0
-480 -485 0
-480 -486 0
-480 -487 0
-480 -488 0
-480 -489 0
-480 -490 0
-480 -491 0
-480 -492 0
-480 -493 0
-481 -482 0
-481 -483 0
-481 -484 0
-481 -485 0
-481 -486 0
-481 -487 0
-481 -488 0
-481 -489 0
-481 -490 0
-481 -491 0
-481 -492 0
-481 -493 0
-482 -483 0
-482 -484 0
-482 -485 0
-482 -486 0
-482 -487 0
-482 -488 0
-482 -489 0
-482 -490 0
-482 -491 0
-482 -492 0
-482 -493 0
-483 -484 0
-483 -485 0
-483 -486 0
-483 -487 0
-483 -488 0
-483 -489 0
-483 -490 0
-483 -491 0
-483 -492 0
-483 -493 0
-484 -485 0
-484 -486 0
-484 -487 0
-484 -488 0
-484 -489 0
-484 -490 0
-484 -491 0
-484 -492 0
-484 -493 0
-485 -486 0
-485 -487 0
-485 -488 0
-485 -489 0
-485 -490 0
-485 -491 0
-485 -492 0
-485 -493 0
-486 -487 0
-486 -488 0
-486 -489 0
-486 -490 0
-486 -491 0
-486 -492 0
-486 -493 0
-487 -488 0
-487 -489 0
-487 -490 0
-487 -491 0
-487 -492 0
-487 -493 0
-488 -489 0
-488 -490 0
-488 -491 0
-488 -492 0
-488 -493 0
-489 -490 0
-489 -491 0
-489 -492 0
-489 -493 0
-490 -491 0
-490 -492 0
-490 -493 0
-491 -492 0
-491 -493 0
-492 -493 0
494 495 496 497 498 499 500 501 502 503 504 505 506 507 508 509 510 0
-494 -495 0
-494 -496 0
-494 -497 0
-494 -498 0
-494 -499 0
-494 -500 0
-494 -501 0
-494 -502 0
-494 -503 0
-494 -504 0
-494 -505 0
-494 -506 0
-494 -507 0
-494 -508 0
-494 -509 0
-494 -510 0
-495 -496 0
-495 -497 0
-495 -498 0
-495 -499 0
-495 -500 0
-495 -501 0
-495 -502 0
-495 -503 0
-495 -504 0
-495 -505 0
-495 -506 0
-495 -507 0
-495 -508 0
-495 -509 0
-495 -510 0
-496 -497 0
-496 -498 0
-496 -499 0
-496 -500 0
-496 -501 0
-496 -502 0
-496 -503 0
-496 -504 0
-496 -505 0
-496 -506 0
-496 -507 0
-496 -508 0
-496 -509 0
-496 -510 0
-497 -498 0
-497 -499 0
-497 -500 0
-497 -501 0
-497 -502 0
-497 -503 0
-497 -504 0
-497 -505 0
-497 -506 0
-497 -507 0
-497 -508 0
-497 -509 0
-497 -510 0
-498 -499 0
-498 -500 0
-498 -501 0
-498 -502 0
-498 -503 0
-498 -504 0
-498 -505 0
-498 -506 0
-498 -507 0
-498 -508 0
-498 -509 0
-498 -510 0
-499 -500 0
-499 -501 0
-499 -502 0
-499 -503 0
-499 -504 0
-499 -505 0
-499 -506 0
-499 -507 0
-499 -508 0
-499 -509 0
-499 -510 0
-500 -501 0
-500 -502 0
-500 -503 0
-500 -504 0
-500 -505 0
-500 -506 0
-500 -507 0
-500 -508 0
-500 -509 0
-500 -510 0
-501 -502 0
-501 -503 0
-501 -504 0
-501 -505 0
-501 -506 0
-501 -507 0
-501 -508 0
-501 -509 0
-501 -510 0
-502 -503 0
-502 -504 0
-502 -505 0
-502 -506 0
-502 -507 0
-502 -508 0
-502 -509 0
-502 -510 0
-503 -504 0
-503 -505 0
-503 -506 0
-503 -507 0
-503 -508 0
-503 -509 0
-503 -510 0
-504 -505 0
-504 -506 0
-504 -507 0
-504 -508 0
-504 -509 0
-504 -510 0
-505 -506 0
-505 -507 0
-505 -508 0
-505 -509 0
-505 -510 0
-506 -507 0
-506 -508 0
-506 -509 0
-506 -510 0
-507 -508 0
-507 -509 0
-507 -510 0
-508 -509 0
-508 -510 0
-509 -510 0
511 512 513 514 515 516 517 518 519 520 521 522 523 524 525 526 527 0
-511 -512 0
-511 -513 0
-511 -514 0
-511 -515 0
-511 -516 0
-511 -517 0
-511 -518 0
-511 -519 0
-511 -520 0
-511 -521 0
-511 -522 0
-511 -523 0
-511 -524 0
-511 -525 0
-511 -526 0
-511 -527 0
-512 -513 0
-512 -514 0
-512 -515 0
-512 -516 0
-512 -517 0
-512 -518 0
-512 -519 0
-512 -520 0
-512 -521 0
-512 -522 0
-512 -523 0
-512 -524 0
-512 -525 0
-512 -526 0
-512 -527 0
-513 -514 0
-513 -515 0
-513 -516 0
-513 -517 0
-513 -518 0
-513 -519 0
-513 -520 0
-513 -521 0
-513 -522 0
-513 -523 0
-513 -524 0
-513 -525 0
-513 -526 0
-513 -527 0
-514 -515 0
-514 -516 0
-514 -517 0
-514 -518 0
-514 -519 0
-514 -520 0
-514 -521 0
-514 -522 0
-514 -523 0
-514 -524 0
-514 -525 0
-514 -526 0
-514 -527 0
-515 -516 0
-515 -517 0
-515 -518 0
-515 -519 0
-515 -520 0
-515 -521 0
-515 -522 0
-515 -523 0
-515 -524 0
-515 -525 0
-515 -526 0
-515 -527 0
-516 -517 0
-516 -518 0
-516 -519 0
-516 -520 0
-516 -521 0
-516 -522 0
-516 -523 0
-516 -524 0
-516 -525 0
-516 -526 0
-516 -527 0
-517 -518 0
-517 -519 0
-517 -520 0
-517 -521 0
-517 -522 0
-517 -523 0
-517 -524 0
-517 -525 0
-517 -526 0
-517 -527 0
-518 -519 0
-518 -520 0
-518 -521 0
-518 -522 0
-518 -523 0
-518 -524 0
-518 -525 0
-518 -526 0
-518 -527 0
-519 -520 0
-519 -521 0
-519 -522 0
-519 -523 0
-519 -524 0
-519 -525 0
-519 -526 0
-519 -527 0
-520 -521 0
-520 -522 0
-520 -523 0
-520 -524 0
-520 -525 0
-520 -526 0
-520 -527 0
-521 -522 0
-521 -523 0
-521 -524 0
-521 -525 0
-521 -526 0
-521 -527 0
-522 -523 0
-522 -524 0
-522 -525 0
-522 -526 0
-522 -527 0
-523 -524 0
-523 -525 0
-523 -526 0
-523 -527 0
-524 -525 0
-524 -526 0
-524 -527 0
-525 -526 0
-525 -527 0
-526 -527 0
528 529 530 531 532 533 534 535 536 537 538 539 540 541 542 543 544 0
-528 -529 0
-528 -530 0
-528 -531 0
-528 -532 0
-528 -533 0
-528 -534 0
-528 -535 0
-528 -536 0
-528 -537 0
-528 -538 0
-528 -539 0
-528 -540 0
-528 -541 0
-528 -542 0
-528 -543 0
-528 -544 0
-529 -530 0
-529 -531 0
-529 -532 0
-529 -533 0
-529 -534 0
-529 -535 0
-529 -536 0
-529 -537 0
-529 -538 0
-529 -539 0
-529 -540 0
-529 -541 0
-529 -542 0
-529 -543 0
-529 -544 0
-530 -531 0
-530 -532 0
-530 -533 0
-530 -534 0
-530 -535 0
-530 -536 0
-530 -537 0
-530 -538 0
-530 -539 0
-530 -540 0
-530 -541 0
-530 -542 0
-530 -543 0
-530 -544 0
-531 -532 0
-531 -533 0
-531 -534 0
-531 -535 0
-531 -536 0
-531 -537 0
-531 -538 0
-531 -539 0
-531 -540 0
-531 -541 0
-531 -542 0
-531 -543 0
-531 -544 0
-532 -533 0
-532 -534 0
-532 -535 0
-532 -536 0
-532 -537 0
-532 -538 0
-532 -539 0
-532 -540 0
-532 -541 0
-532 -542 0
-532 -543 0
-532 -544 0
-533 -534 0
-533 -535 0
-533 -536 0
-533 -537 0
-533 -538 0
-533 -539 0
-533 -540 0
-533 -541 0
-533 -542 0
-533 -543 0
-533 -544 0
-534 -535 0
-534 -536 0
-534 -537 0
-534 -538 0
-534 -539 0
-534 -540 0
-534 -541 0
-534 -542 0
-534 -543 0
-534 -544 0
-535 -536 0
-535 -537 0
-535 -538 0
-535 -539 0
-535 -540 0
-535 -541 0
-535 -542 0
-535 -543 0
-535 -544 0
-536 -537 0
-536 -538 0
-536 -539 0
-536 -540 0
-536 -541 0
-536 -542 0
-536 -543 0
-536 -544 0
-537 -538 0
-537 -539 0
-537 -540 0
-537 -541 0
-537 -542 0
-537 -543 0
-537 -544 0
-538 -539 0
-538 -540 0
-538 -541 0
-538 -542 0
-538 -543 0
-538 -544 0
-539 -540 0
-539 -541 0
-539 -542 0
-539 -543 0
-539 -544 0
-540 -541 0
-540 -542 0
-540 -543 0
-540 -544 0
-541 -542 0
-541 -543 0
-541 -544 0
-542 -543 0
-542 -544 0
-543 -544 0
545 546 547 548 549 550 551 552 553 554 555 556 557 558 559 560 561 0
-545 -546 0
-545 -547 0
-545 -548 0
-545 -549 0
-545 -550 0
-545 -551 0
-545 -552 0
-545 -553 0
-545 -554 0
-545 -555 0
-545 -556 0
-545 -557 0
-545 -558 0
-545 -559 0
-545 -560 0
-545 -561 0
-546 -547 0
-546 -548 0
-546 -549 0
-546 -550 0
-546 -551 0
-546 -552 0
-546 -553 0
-546 -554 0
-546 -555 0
-546 -556 0
-546 -557 0
-546 -558 0
-546 -559 0
-546 -560 0
-546 -561 0
-547 -548 0
-547 -549 0
-547 -550 0
-547 -551 0
-547 -552 0
-547 -553 0
-547 -554 0
-547 -555 0
-547 -556 0
-547 -557 0
-547 -558 0
-547 -559 0
-547 -560 0
-547 -561 0
-548 -549 0
-548 -550 0
-548 -551 0
-548 -552 0
-548 -553 0
-548 -554 0
-548 -555 0
-548 -556 0
-548 -557 0
-548 -558 0
-548 -559 0
-548 -560 0
-548 -561 0
-549 -550 0
-549 -551 0
-549 -552 0
-549 -553 0
-549 -554 0
-549 -555 0
-549 -556 0
-549 -557 0
-549 -558 0
-549 -559 0
-549 -560 0
-549 -561 0
-550 -551 0
-550 -552 0
-550 -553 0
-550 -554 0
-550 -555 0
-550 -556 0
-550 -557 0
-550 -558 0
-550 -559 0
-550 -560 0
-550 -561 0
-551 -552 0
-551 -553 0
-551 -554 0
-551 -555 0
-551 -556 0
-551 -557 0
-551 -558 0
-551 -559 0
-551 -560 0
-551 -561 0
-552 -553 0
-552 -554 0
-552 -555 0
-552 -556 0
-552 -557 0
-552 -558 0
-552 -559 0
-552 -560 0
-552 -561 0
-553 -554 0
-553 -555 0
-553 -556 0
-553 -557 0
-553 -558 0
-553 -559 0
-553 -560 0
-553 -561 0
-554 -555 0
-554 -556 0
-554 -557 0
-554 -558 0
-554 -559 0
-554 -560 0
-554 -561 0
-555 -556 0
-555 -557 0
-555 -558 0
-555 -559 0
-555 -560 0
-555 -561 0
-556 -557 0
-556 -558 0
-556 -559 0
-556 -560 0
-556 -561 0
-557 -558 0
-557 -559 0
-557 -560 0
-557 -561 0
-558 -559 0
-558 -560 0
-558 -561 0
-559 -560 0
-559 -561 0
-560 -561 0
562 563 564 565 566 567 568 569 570 571 572 573 574 575 576 577 578 0
-562 -563 0
-562 -564 0
-562 -565 0
-562 -566 0
-562 -567 0
-562 -568 0
-562 -569 0
-562 -570 0
-562 -571 0
-562 -572 0
-562 -573 0
-562 -574 0
-562 -575 0
-562 -576 0
-562 -577 0
-562 -578 0
-563 -564 0
-563 -565 0
-563 -566 0
-563 -567 0
-563 -568 0
-563 -569 0
-563 -570 0
-563 -571 0
-563 -572 0
-563 -573 0
-563 -574 0
-563 -575 0
-563 -576 0
-563 -577 0
-563 -578 0
-564 -565 0
-564 -566 0
-564 -567 0
-564 -568 0
-564 -569 0
-564 -570 0
-564 -571 0
-564 -572 0
-564 -573 0
-564 -574 0
-564 -575 0
-564 -576 0
-564 -577 0
-564 -578 0
-565 -566 0
-565 -567 0
-565 -568 0
-565 -569 0
-565 -570 0
-565 -571 0
-565 -572 0
-565 -573 0
-565 -574 0
-565 -575 0
-565 -576 0
-565 -577 0
-565 -578 0
-566 -567 0
-566 -568 0
-566 -569 0
-566 -570 0
-566 -571 0
-566 -572 0
-566 -573 0
-566 -574 0
-566 -575 0
-566 -576 0
-566 -577 0
-566 -578 0
-567 -568 0
-567 -569 0
-567 -570 0
-567 -571 0
-567 -572 0
-567 -573 0
-567 -574 0
-567 -575 0
-567 -576 0
-567 -577 0
-567 -578 0
-568 -569 0
-568 -570 0
-568 -571 0
-568 -572 0
-568 -573 0
-568 -574 0
-568 -575 0
-568 -576 0
-568 -577 0
-568 -578 0
-569 -570 0
-569 -571 0
-569 -572 0
-569 -573 0
-569 -574 0
-569 -575 0
-569 -576 0
-569 -577 0
-569 -578 0
-570 -571 0
-570 -572 0
-570 -573 0
-570 -574 0
-570 -575 0
-570 -576 0
-570 -577 0
-570 -578 0
-571 -572 0
-571 -573 0
-571 -574 0
-571 -575 0
-571 -576 0
-571 -577 0
-571 -578 0
-572 -573 0
-572 -574 0
-572 -575 0
-572 -576 0
-572 -577 0
-572 -578 0
-573 -574 0
-573 -575 0
-573 -576 0
-573 -577 0
-573 -578 0
-574 -575 0
-574 -576 0
-574 -577 0
-574 -578 0
-575 -576 0
-575 -577 0
-575 -578 0
-576 -577 0
-576 -578 0
-577 -578 0
-1 -18 0
-1 -35 0
-1 -52 0
-18 -35 0
-18 -52 0
-35 -52 0
-2 -19 0
-2 -36 0
-2 -53 0
-19 -36 0
-19 -53 0
-36 -53 0
-3 -20 0
-3 -37 0
-3 -54 0
-20 -37 0
-20 -54 0
-37 -54 0
-4 -21 0
-4 -38 0
-4 -55 0
-21 -38 0
-21 -55 0
-38 -55 0
-5 -22 0
-5 -39 0
-5 -56 0
-22 -39 0
-22 -56 0
-39 -56 0
-6 -23 0
-6 -40 0
-6 -57 0
-23 -40 0
-23 -57 0
-40 -57 0
-7 -24 0
-7 -41 0
-7 -58 0
-24 -41 0
-24 -58 0
-41 -58 0
-8 -25 0
-8 -42 0
-8 -59 0
-25 -42 0
-25 -59 0
-42 -59 0
-9 -26 0
-9 -43 0
-9 -60 0
-26 -43 0
-26 -60 0
-43 -60 0
-10 -27 0
-10 -44 0
-10 -61 0
-27 -44 0
-27 -61 0
-44 -61 0
-11 -28 0
-11 -45 0
-11 -62 0
-28 -45 0
-28 -62 0
-45 -62 0
-12 -29 0
-12 -46 0
-12 -63 0
-29 -46 0
-29 -63 0
-46 -63 0
-13 -30 0
-13 -47 0
-13 -64 0
-30 -47 0
-30 -64 0
-47 -64 0
-14 -31 0
-14 -48 0
-14 -65 0
-31 -48 0
-31 -65 0
-48 -65 0
-15 -32 0
-15 -49 0
-15 -66 0
-32 -49 0
-32 -66 0
-49 -66 0
-16 -33 0
-16 -50 0
-16 -67 0
-33 -50 0
-33 -67 0
-50 -67 0
-17 -34 0
-17 -51 0
-17 -68 0
-34 -51 0
-34 -68 0
-51 -68 0
579 580 581 582 583 584 585 586 587 588 589 590 591 592 0
-579 -580 0
-579 -581 0
-579 -582 0
-579 -583 0
-579 -584 0
-579 -585 0
-579 -586 0
-579 -587 0
-579 -588 0
-579 -589 0
-579 -590 0
-579 -591 0
-579 -592 0
-580 -581 0
-580 -582 0
-580 -583 0
-580 -584 0
-580 -585 0
-580 -586 0
-580 -587 0
-580 -588 0
-580 -589 0
-580 -590 0
-580 -591 0
-580 -592 0
-581 -582 0
-581 -583 0
-581 -584 0
-581 -585 0
-581 -586 0
-581 -587 0
-581 -588 0
-581 -589 0
-581 -590 0
-581 -591 0
-581 -592 0
-582 -583 0
-582 -584 0
-582 -585 0
-582 -586 0
-582 -587 0
-582 -588 0
-582 -589 0
-582 -590 0
-582 -591 0
-582 -592 0
-583 -584 0
-583 -585 0
-583 -586 0
-583 -587 0
-583 -588 0
-583 -589 0
-583 -590 0
-583 -591 0
-583 -592 0
-584 -585 0
-584 -586 0
-584 -587 0
-584 -588 0
-584 -589 0
-584 -590 0
-584 -591 0
-584 -592 0
-585 -586 0
-585 -587 0
-585 -588 0
-585 -589 0
-585 -590 0
-585 -591 0
-585 -592 0
-586 -587 0
-586 -588 0
-586 -589 0
-586 -590 0
-586 -591 0
-586 -592 0
-587 -588 0
-587 -589 0
-587 -590 0
-587 -591 0
-587 -592 0
-588 -589 0
-588 -590 0
-588 -591 0
-588 -592 0
-589 -590 0
-589 -591 0
-589 -592 0
-590 -591 0
-590 -592 0
-591 -592 0
-1 579 0
-2 579 580 0
-3 579 580 581 0
-4 579 580 581 582 0
-5 580 581 582 583 0
-6 581 582 583 584 0
-7 582 583 584 585 0
-8 583 584 585 586 0
-9 584 585 586 587 0
-10 585 586 587 588 0
-11 586 587 588 589 0
-12 587 588 589 590 0
-13 588 589 590 591 0
-14 589 590 591 592 0
-15 590 591 592 0
-16 591 592 0
-17 592 0
-18 579 0
-19 579 580 0
-20 579 580 581 0
-21 579 580 581 582 0
-22 580 581 582 583 0
-23 581 582 583 584 0
-24 582 583 584 585 0
-25 583 584 585 586 0
-26 584 585 586 587 0
-27 585 586 587 588 0
-28 586 587 588 589 0
-29 587 588 589 590 0
-30 588 589 590 591 0
-31 589 590 591 592 0
-32 590 591 592 0
-33 591 592 0
-34 592 0
-35 579 0
-36 579 580 0
-37 579 580 581 0
-38 579 580 581 582 0
-39 580 581 582 583 0
-40 581 582 583 584 0
-41 582 583 584 585 0
-42 583 584 585 586 0
-43 584 585 586 587 0
-44 585 586 587 588 0
-45 586 587 588 589 0
-46 587 588 589 590 0
-47 588 589 590 591 0
-48 589 590 591 592 0
-49 590 591 592 0
-50 591 592 0
-51 592 0
-52 579 0
-53 579 580 0
-54 579 580 581 0
-55 579 580 581 582 0
-56 580 581 582 583 0
-57 581 582 583 584 0
-58 582 583 584 585 0
-59 583 584 585 586 0
-60 584 585 586 587 0
-61 585 586 587 588 0
-62 586 587 588 589 0
-63 587 588 589 590 0
-64 588 589 590 591 0
-65 589 590 591 592 0
-66 590 591 592 0
-67 591 592 0
-68 592 0
-579 -5 0
-579 -6 0
-579 -7 0
-579 -8 0
-579 -9 0
-579 -10 0
-579 -11 0
-579 -12 0
-579 -13 0
-579 -14 0
-579 -15 0
-579 -16 0
-579 -17 0
-579 -22 0
-579 -23 0
-579 -24 0
-579 -25 0
-579 -26 0
-579 -27 0
-579 -28 0
-579 -29 0
-579 -30 0
-579 -31 0
-579 -32 0
-579 -33 0
-579 -34 0
-579 -39 0
-579 -40 0
-579 -41 0
-579 -42 0
-579 -43 0
-579 -44 0
-579 -45 0
-579 -46 0
-579 -47 0
-579 -48 0
-579 -49 0
-579 -50 0
-579 -51 0
-579 -56 0
-579 -57 0
-579 -58 0
-579 -59 0
-579 -60 0
-579 -61 0
-579 -62 0
-579 -63 0
-579 -64 0
-579 -65 0
-579 -66 0
-579 -67 0
-579 -68 0
-580 -1 0
-580 -6 0
-580 -7 0
-580 -8 0
-580 -9 0
-580 -10 0
-580 -11 0
-580 -12 0
-580 -13 0
-580 -14 0
-580 -15 0
-580 -16 0
-580 -17 0
-580 -18 0
-580 -23 0
-580 -24 0
-580 -25 0
-580 -26 0
-580 -27 0
-580 -28 0
-580 -29 0
-580 -30 0
-580 -31 0
-580 -32 0
-580 -33 0
-580 -34 0
-580 -35 0
-580 -40 0
-580 -41 0
-580 -42 0
-580 -43 0
-580 -44 0
-580 -45 0
-580 -46 0
-580 -47 0
-580 -48 0
-580 -49 0
-580 -50 0
-580 -51 0
-580 -52 0
-580 -57 0
-580 -58 0
-580 -59 0
-580 -60 0
-580 -61 0
-580 -62 0
-580 -63 0
-580 -64 0
-580 -65 0
-580 -66 0
-580 -67 0
-580 -68 0
-581 -1 0
-581 -2 0
-581 -7 0
-581 -8 0
-581 -9 0
-581 -10 0
-581 -11 0
-581 -12 0
-581 -13 0
-581 -14 0
-581 -15 0
-581 -16 0
-581 -17 0
-581 -18 0
-581 -19 0
-581 -24 0
-581 -25 0
-581 -26 0
-581 -27 0
-581 -28 0
-581 -29 0
-581 -30 0
-581 -31 0
-581 -32 0
-581 -33 0
-581 -34 0
-581 -35 0
-581 -36 0
-581 -41 0
-581 -42 0
-581 -43 0
-581 -44 0
-581 -45 0
-581 -46 0
-581 -47 0
-581 -48 0
-581 -49 0
-581 -50 0
-581 -51 0
-581 -52 0
-581 -53 0
-581 -58 0
-581 -59 0
-581 -60 0
-581 -61 0
-581 -62 0
-581 -63 0
-581 -64 0
-581 -65 0
-581 -66 0
-581 -67 0
-581 -68 0
-582 -1 0
-582 -2 0
-582 -3 0
-582 -8 0
-582 -9 0
-582 -10 0
-582 -11 0
-582 -12 0
-582 -13 0
-582 -14 0
-582 -15 0
-582 -16 0
-582 -17 0
-582 -18 0
-582 -19 0
-582 -20 0
-582 -25 0
-582 -26 0
-582 -27 0
-582 -28 0
-582 -29 0
-582 -30 0
-582 -31 0
-582 -32 0
-582 -33 0
-582 -34 0
-582 -35 0
-582 -36 0
-582 -37 0
-582 -42 0
-582 -43 0
-582 -44 0
-582 -45 0
-582 -46 0
-582 -47 0
-582 -48 0
-582 -49 0
-582 -50 0
-582 -51 0
-582 -52 0
-582 -53 0
-582 -54 0
-582 -59 0
-582 -60 0
-582 -61 0
-582 -62 0
-582 -63 0
-582 -64 0
-582 -65 0
-582 -66 0
-582 -67 0
-582 -68 0
-583 -1 0
-583 -2 0
-583 -3 0
-583 -4 0
-583 -9 0
-583 -10 0
-583 -11 0
-583 -12 0
-583 -13 0
-583 -14 0
-583 -15 0
-583 -16 0
-583 -17 0
-583 -18 0
-583 -19 0
-583 -20 0
-583 -21 0
-583 -26 0
-583 -27 0
-583 -28 0
-583 -29 0
-583 -30 0
-583 -31 0
-583 -32 0
-583 -33 0
-583 -34 0
-583 -35 0
-583 -36 0
-583 -37 0
-583 -38 0
-583 -43 0
-583 -44 0
-583 -45 0
-583 -46 0
-583 -47 0
-583 -48 0
-583 -49 0
-583 -50 0
-583 -51 0
-583 -52 0
-583 -53 0
-583 -54 0
-583 -55 0
-583 -60 0
-583 -61 0
-583 -62 0
-583 -63 0
-583 -64 0
-583 -65 0
-583 -66 0
-583 -67 0
-583 -68 0
-584 -1 0
-584 -2 0
-584 -3 0
-584 -4 0
-584 -5 0
-584 -10 0
-584 -11 0
-584 -12 0
-584 -13 0
-584 -14 0
-584 -15 0
-584 -16 0
-584 -17 0
-584 -18 0
-584 -19 0
-584 -20 0
-584 -21 0
-584 -22 0
-584 -27 0
-584 -28 0
-584 -29 0
-584 -30 0
-584 -31 0
-584 -32 0
-584 -33 0
-584 -34 0
-584 -35 0
-584 -36 0
-584 -37 0
-584 -38 0
-584 -39 0
-584 -44 0
-584 -45 0
-584 -46 0
-584 -47 0
-584 -48 0
-584 -49 0
-584 -50 0
-584 -51 0
-584 -52 0
-584 -53 0
-584 -54 0
-584 -55 0
-584 -56 0
-584 -61 0
-584 -62 0
-584 -63 0
-584 -64 0
-584 -65 0
-584 -66 0
-584 -67 0
-584 -68 0
-585 -1 0
-585 -2 0
-585 -3 0
-585 -4 0
-585 -5 0
-585 -6 0
-585 -11 0
-585 -12 0
-585 -13 0
-585 -14 0
-585 -15 0
-585 -16 0
-585 -17 0
-585 -18 0
-585 -19 0
-585 -20 0
-585 -21 0
-585 -22 0
-585 -23 0
-585 -28 0
-585 -29 0
-585 -30 0
-585 -31 0
-585 -32 0
-585 -33 0
-585 -34 0
-585 -35 0
-585 -36 0
-585 -37 0
-585 -38 0
-585 -39 0
-585 -40 0
-585 -45 0
-585 -46 0
-585 -47 0
-585 -48 0
-585 -49 0
-585 -50 0
-585 -51 0
-585 -52 0
-585 -53 0
-585 -54 0
-585 -55 0
-585 -56 0
-585 -57 0
-585 -62 0
-585 -63 0
-585 -64 0
-585 -65 0
-585 -66 0
-585 -67 0
-585 -68 0
-586 -1 0
-586 -2 0
-586 -3 0
-586 -4 0
-586 -5 0
-586 -6 0
-586 -7 0
-586 -12 0
-586 -13 0
-586 -14 0
-586 -15 0
-586 -16 0
-586 -17 0
-586 -18 0
-586 -19 0
-586 -20 0
-586 -21 0
-586 -22 0
-586 -23 0
-586 -24 0
-586 -29 0
-586 -30 0
-586 -31 0
-586 -32 0
-586 -33 0
-586 -34 0
-586 -35 0
-586 -36 0
-586 -37 0
-586 -38 0
-586 -39 0
-586 -40 0
-586 -41 0
-586 -46 0
-586 -47 0
-586 -48 0
-586 -49 0
-586 -50 0
-586 -51 0
-586 -52 0
-586 -53 0
-586 -54 0
-586 -55 0
-586 -56 0
-586 -57 0
-586 -58 0
-586 -63 0
-586 -64 0
-586 -65 0
-586 -66 0
-586 -67 0
-586 -68 0
-587 -1 0
-587 -2 0
-587 -3 0
-587 -4 0
-587 -5 0
-587 -6 0
-587 -7 0
-587 -8 0
-587 -13 0
-587 -14 0
-587 -15 0
-587 -16 0
-587 -17 0
-587 -18 0
-587 -19 0
-587 -20 0
-587 -21 0
-587 -22 0
-587 -23 0
-587 -24 0
-587 -25 0
-587 -30 0
-587 -31 0
-587 -32 0
-587 -33 0
-587 -34 0
-587 -35 0
-587 -36 0
-587 -37 0
-587 -38 0
-587 -39 0
-587 -40 0
-587 -41 0
-587 -42 0
-587 -47 0
-587 -48 0
-587 -49 0
-587 -50 0
-587 -51 0
-587 -52 0
-587 -53 0
-587 -54 0
-587 -55 0
-587 -56 0
-587 -57 0
-587 -58 0
-587 -59 0
-587 -64 0
-587 -65 0
-587 -66 0
-587 -67 0
-587 -68 0
-588 -1 0
-588 -2 0
-588 -3 0
-588 -4 0
-588 -5 0
-588 -6 0
-588 -7 0
-588 -8 0
-588 -9 0
-588 -14 0
-588 -15 0
-588 -16 0
-588 -17 0
-588 -18 0
-588 -19 0
-588 -20 0
-588 -21 0
-588 -22 0
-588 -23 0
-588 -24 0
-588 -25 0
-588 -26 0
-588 -31 0
-588 -32 0
-588 -33 0
-588 -34 0
-588 -35 0
-588 -36 0
-588 -37 0
-588 -38 0
-588 -39 0
-588 -40 0
-588 -41 0
-588 -42 0
-588 -43 0
-588 -48 0
-588 -49 0
-588 -50 0
-588 -51 0
-588 -52 0
-588 -53 0
-588 -54 0
-588 -55 0
-588 -56 0
-588 -57 0
-588 -58 0
-588 -59 0
-588 -60 0
-588 -65 0
-588 -66 0
-588 -67 0
-588 -68 0
-589 -1 0
-589 -2 0
-589 -3 0
-589 -4 0
-589 -5 0
-589 -6 0
-589 -7 0
-589 -8 0
-589 -9 0
-589 -10 0
-589 -15 0
-589 -16 0
-589 -17 0
-589 -18 0
-589 -19 0
-589 -20 0
-589 -21 0
-589 -22 0
-589 -23 0
-589 -24 0
-589 -25 0
-589 -26 0
-589 -27 0
-589 -32 0
-589 -33 0
-589 -34 0
-589 -35 0
-589 -36 0
-589 -37 0
-589 -38 0
-589 -39 0
-589 -40 0
-589 -41 0
-589 -42 0
-589 -43 0
-589 -44 0
-589 -49 0
-589 -50 0
-589 -51 0
-589 -52 0
-589 -53 0
-589 -54 0
-589 -55 0
-589 -56 0
-589 -57 0
-589 -58 0
-589 -59 0
-589 -60 0
-589 -61 0
-589 -66 0
-589 -67 0
-589 -68 0
-590 -1 0
-590 -2 0
-590 -3 0
-590 -4 0
-590 -5 0
-590 -6 0
-590 -7 0
-590 -8 0
-590 -9 0
-590 -10 0
-590 -11 0
-590 -16 0
-590 -17 0
-590 -18 0
-590 -19 0
-590 -20 0
-590 -21 0
-590 -22 0
-590 -23 0
-590 -24 0
-590 -25 0
-590 -26 0
-590 -27 0
-590 -28 0
-590 -33 0
-590 -34 0
-590 -35 0
-590 -36 0
-590 -37 0
-590 -38 0
-590 -39 0
-590 -40 0
-590 -41 0
-590 -42 0
-590 -43 0
-590 -44 0
-590 -45 0
-590 -50 0
-590 -51 0
-590 -52 0
-590 -53 0
-590 -54 0
-590 -55 0
-590 -56 0
-590 -57 0
-590 -58 0
-590 -59 0
-590 -60 0
-590 -61 0
-590 -62 0
-590 -67 0
-590 -68 0
-591 -1 0
-591 -2 0
-591 -3 0
-591 -4 0
-591 -5 0
-591 -6 0
-591 -7 0
-591 -8 0
-591 -9 0
-591 -10 0
-591 -11 0
-591 -12 0
-591 -17 0
-591 -18 0
-591 -19 0
-591 -20 0
-591 -21 0
-591 -22 0
-591 -23 0
-591 -24 0
-591 -25 0
-591 -26 0
-591 -27 0
-591 -28 0
-591 -29 0
-591 -34 0
-591 -35 0
-591 -36 0
-591 -37 0
-591 -38 0
-591 -39 0
-591 -40 0
-591 -41 0
-591 -42 0
-591 -43 0
-591 -44 0
-591 -45 0
-591 -46 0
-591 -51 0
-591 -52 0
-591 -53 0
-591 -54 0
-591 -55 0
-591 -56 0
-591 -57 0
-591 -58 0
-591 -59 0
-591 -60 0
-591 -61 0
-591 -62 0
-591 -63 0
-591 -68 0
-592 -1 0
-592 -2 0
-592 -3 0
-592 -4 0
-592 -5 0
-592 -6 0
-592 -7 0
-592 -8 0
-592 -9 0
-592 -10 0
-592 -11 0
-592 -12 0
-592 -13 0
-592 -18 0
-592 -19 0
-592 -20 0
-592 -21 0
-592 -22 0
-592 -23 0
-592 -24 0
-592 -25 0
-592 -26 0
-592 -27 0
-592 -28 0
-592 -29 0
-592 -30 0
-592 -35 0
-592 -36 0
-592 -37 0
-592 -38 0
-592 -39 0
-592 -40 0
-592 -41 0
-592 -42 0
-592 -43 0
-592 -44 0
-592 -45 0
-592 -46 0
-592 -47 0
-592 -52 0
-592 -53 0
-592 -54 0
-592 -55 0
-592 -56 0
-592 -57 0
-592 -58 0
-592 -59 0
-592 -60 0
-592 -61 0
-592 -62 0
-592 -63 0
-592 -64 0
-69 -86 0
-69 -103 0
-86 -103 0
-70 -87 0
-70 -104 0
-87 -104 0
-71 -88 0
-71 -105 0
-88 -105 0
-72 -89 0
-72 -106 0
-89 -106 0
-73 -90 0
-73 -107 0
-90 -107 0
-74 -91 0
-74 -108 0
-91 -108 0
-75 -92 0
-75 -109 0
-92 -109 0
-76 -93 0
-76 -110 0
-93 -110 0
-77 -94 0
-77 -111 0
-94 -111 0
-78 -95 0
-78 -112 0
-95 -112 0
-79 -96 0
-79 -113 0
-96 -113 0
-80 -97 0
-80 -114 0
-97 -114 0
-81 -98 0
-81 -115 0
-98 -115 0
-82 -99 0
-82 -116 0
-99 -116 0
-83 -100 0
-83 -117 0
-100 -117 0
-84 -101 0
-84 -118 0
-101 -118 0
-85 -102 0
-85 -119 0
-102 -119 0
593 594 595 596 597 598 599 600 601 602 603 604 605 606 607 0
-593 -594 0
-593 -595 0
-593 -596 0
-593 -597 0
-593 -598 0
-593 -599 0
-593 -600 0
-593 -601 0
-593 -602 0
-593 -603 0
-593 -604 0
-593 -605 0
-593 -606 0
-593 -607 0
-594 -595 0
-594 -596 0
-594 -597 0
-594 -598 0
-594 -599 0
-594 -600 0
-594 -601 0
-594 -602 0
-594 -603 0
-594 -604 0
-594 -605 0
-594 -606 0
-594 -607 0
-595 -596 0
-595 -597 0
-595 -598 0
-595 -599 0
-595 -600 0
-595 -601 0
-595 -602 0
-595 -603 0
-595 -604 0
-595 -605 0
-595 -606 0
-595 -607 0
-596 -597 0
-596 -598 0
-596 -599 0
-596 -600 0
-596 -601 0
-596 -602 0
-596 -603 0
-596 -604 0
-596 -605 0
-596 -606 0
-596 -607 0
-597 -598 0
-597 -599 0
-597 -600 0
-597 -601 0
-597 -602 0
-597 -603 0
-597 -604 0
-597 -605 0
-597 -606 0
-597 -607 0
-598 -599 0
-598 -600 0
-598 -601 0
-598 -602 0
-598 -603 0
-598 -604 0
-598 -605 0
-598 -606 0
-598 -607 0
-599 -600 0
-599 -601 0
-599 -602 0
-599 -603 0
-599 -604 0
-599 -605 0
-599 -606 0
-599 -607 0
-600 -601 0
-600 -602 0
-600 -603 0
-600 -604 0
-600 -605 0
-600 -606 0
-600 -607 0
-601 -602 0
-601 -603 0
-601 -604 0
-601 -605 0
-601 -606 0
-601 -607 0
-602 -603 0
-602 -604 0
-602 -605 0
-602 -606 0
-602 -607 0
-603 -604 0
-603 -605 0
-603 -606 0
-603 -607 0
-604 -605 0
-604 -606 0
-604 -607 0
-605 -606 0
-605 -607 0
-606 -607 0
-69 593 0
-70 593 594 0
-71 593 594 595 0
-72 594 595 596 0
-73 595 596 597 0
-74 596 597 598 0
-75 597 598 599 0
-76 598 599 600 0
-77 599 600 601 0
-78 600 601 602 0
-79 601 602 603 0
-80 602 603 604 0
-81 603 604 605 0
-82 604 605 606 0
-83 605 606 607 0
-84 606 607 0
-85 607 0
-86 593 0
-87 593 594 0
-88 593 594 595 0
-89 594 595 596 0
-90 595 596 597 0
-91 596 597 598 0
-92 597 598 599 0
-93 598 599 600 0
-94 599 600 601 0
-95 600 601 602 0
-96 601 602 603 0
-97 602 603 604 0
-98 603 604 605 0
-99 604 605 606 0
-100 605 606 607 0
-101 606 607 0
-102 607 0
-103 593 0
-104 593 594 0
-105 593 594 595 0
-106 594 595 596 0
-107 595 596 597 0
-108 596 597 598 0
-109 597 598 599 0
-110 598 599 600 0
-111 599 600 601 0
-112 600 601 602 0
-113 601 602 603 0
-114 602 603 604 0
-115 603 604 605 0
-116 604 605 606 0
-117 605 606 607 0
-118 606 607 0
-119 607 0
-593 -72 0
-593 -73 0
-593 -74 0
-593 -75 0
-593 -76 0
-593 -77 0
-593 -78 0
-593 -79 0
-593 -80 0
-593 -81 0
-593 -82 0
-593 -83 0
-593 -84 0
-593 -85 0
-593 -89 0
-593 -90 0
-593 -91 0
-593 -92 0
-593 -93 0
-593 -94 0
-593 -95 0
-593 -96 0
-593 -97 0
-593 -98 0
-593 -99 0
-593 -100 0
-593 -101 0
-593 -102 0
-593 -106 0
-593 -107 0
-593 -108 0
-593 -109 0
-593 -110 0
-593 -111 0
-593 -112 0
-593 -113 0
-593 -114 0
-593 -115 0
-593 -116 0
-593 -117 0
-593 -118 0
-593 -119 0
-594 -69 0
-594 -73 0
-594 -74 0
-594 -75 0
-594 -76 0
-594 -77 0
-594 -78 0
-594 -79 0
-594 -80 0
-594 -81 0
-594 -82 0
-594 -83 0
-594 -84 0
-594 -85 0
-594 -86 0
-594 -90 0
-594 -91 0
-594 -92 0
-594 -93 0
-594 -94 0
-594 -95 0
-594 -96 0
-594 -97 0
-594 -98 0
-594 -99 0
-594 -100 0
-594 -101 0
-594 -102 0
-594 -103 0
-594 -107 0
-594 -108 0
-594 -109 0
-594 -110 0
-594 -111 0
-594 -112 0
-594 -113 0
-594 -114 0
-594 -115 0
-594 -116 0
-594 -117 0
-594 -118 0
-594 -119 0
-595 -69 0
-595 -70 0
-595 -74 0
-595 -75 0
-595 -76 0
-595 -77 0
-595 -78 0
-595 -79 0
-595 -80 0
-595 -81 0
-595 -82 0
-595 -83 0
-595 -84 0
-595 -85 0
-595 -86 0
-595 -87 0
-595 -91 0
-595 -92 0
-595 -93 0
-595 -94 0
-595 -95 0
-595 -96 0
-595 -97 0
-595 -98 0
-595 -99 0
-595 -100 0
-595 -101 0
-595 -102 0
-595 -103 0
-595 -104 0
-595 -108 0
-595 -109 0
-595 -110 0
-595 -111 0
-595 -112 0
-595 -113 0
-595 -114 0
-595 -115 0
-595 -116 0
-595 -117 0
-595 -118 0
-595 -119 0
-596 -69 0
-596 -70 0
-596 -71 0
-596 -75 0
-596 -76 0
-596 -77 0
-596 -78 0
-596 -79 0
-596 -80 0
-596 -81 0
-596 -82 0
-596 -83 0
-596 -84 0
-596 -85 0
-596 -86 0
-596 -87 0
-596 -88 0
-596 -92 0
-596 -93 0
-596 -94 0
-596 -95 0
-596 -96 0
-596 -97 0
-596 -98 0
-596 -99 0
-596 -100 0
-596 -101 0
-596 -102 0
-596 -103 0
-596 -104 0
-596 -105 0
-596 -109 0
-596 -110 0
-596 -111 0
-596 -112 0
-596 -113 0
-596 -114 0
-596 -115 0
-596 -116 0
-596 -117 0
-596 -118 0
-596 -119 0
-597 -69 0
-597 -70 0
-597 -71 0
-597 -72 0
-597 -76 0
-597 -77 0
-597 -78 0
-597 -79 0
-597 -80 0
-597 -81 0
-597 -82 0
-597 -83 0
-597 -84 0
-597 -85 0
-597 -86 0
-597 -87 0
-597 -88 0
-597 -89 0
-597 -93 0
-597 -94 0
-597 -95 0
-597 -96 0
-597 -97 0
-597 -98 0
-597 -99 0
-597 -100 0
-597 -101 0
-597 -102 0
-597 -103 0
-597 -104 0
-597 -105 0
-597 -106 0
-597 -110 0
-597 -111 0
-597 -112 0
-597 -113 0
-597 -114 0
-597 -115 0
-597 -116 0
-597 -117 0
-597 -118 0
-597 -119 0
-598 -69 0
-598 -70 0
-598 -71 0
-598 -72 0
-598 -73 0
-598 -77 0
-598 -78 0
-598 -79 0
-598 -80 0
-598 -81 0
-598 -82 0
-598 -83 0
-598 -84 0
-598 -85 0
-598 -86 0
-598 -87 0
-598 -88 0
-598 -89 0
-598 -90 0
-598 -94 0
-598 -95 0
-598 -96 0
-598 -97 0
-598 -98 0
-598 -99 0
-598 -100 0
-598 -101 0
-598 -102 0
-598 -103 0
-598 -104 0
-598 -105 0
-598 -106 0
-598 -107 0
-598 -111 0
-598 -112 0
-598 -113 0
-598 -114 0
-598 -115 0
-598 -116 0
-598 -117 0
-598 -118 0
-598 -119 0
-599 -69 0
-599 -70 0
-599 -71 0
-599 -72 0
-599 -73 0
-599 -74 0
-599 -78 0
-599 -79 0
-599 -80 0
-599 -81 0
-599 -82 0
-599 -83 0
-599 -84 0
-599 -85 0
-599 -86 0
-599 -87 0
-599 -88 0
-599 -89 0
-599 -90 0
-599 -91 0
-599 -95 0
-599 -96 0
-599 -97 0
-599 -98 0
-599 -99 0
-599 -100 0
-599 -101 0
-599 -102 0
-599 -103 0
-599 -104 0
-599 -105 0
-599 -106 0
-599 -107 0
-599 -108 0
-599 -112 0
-599 -113 0
-599 -114 0
-599 -115 0
-599 -116 0
-599 -117 0
-599 -118 0
-599 -119 0
-600 -69 0
-600 -70 0
-600 -71 0
-600 -72 0
-600 -73 0
-600 -74 0
-600 -75 0
-600 -79 0
-600 -80 0
-600 -81 0
-600 -82 0
-600 -83 0
-600 -84 0
-600 -85 0
-600 -86 0
-600 -87 0
-600 -88 0
-600 -89 0
-600 -90 0
-600 -91 0
-600 -92 0
-600 -96 0
-600 -97 0
-600 -98 0
-600 -99 0
-600 -100 0
-600 -101 0
-600 -102 0
-600 -103 0
-600 -104 0
-600 -105 0
-600 -106 0
-600 -107 0
-600 -108 0
-600 -109 0
-600 -113 0
-600 -114 0
-600 -115 0
-600 -116 0
-600 -117 0
-600 -118 0
-600 -119 0
-601 -69 0
-601 -70 0
-601 -71 0
-601 -72 0
-601 -73 0
-601 -74 0
-601 -75 0
-601 -76 0
-601 -80 0
-601 -81 0
-601 -82 0
-601 -83 0
-601 -84 0
-601 -85 0
-601 -86 0
-601 -87 0
-601 -88 0
-601 -89 0
-601 -90 0
-601 -91 0
-601 -92 0
-601 -93 0
-601 -97 0
-601 -98 0
-601 -99 0
-601 -100 0
-601 -101 0
-601 -102 0
-601 -103 0
-601 -104 0
-601 -105 0
-601 -106 0
-601 -107 0
-601 -108 0
-601 -109 0
-601 -110 0
-601 -114 0
-601 -115 0
-601 -116 0
-601 -117 0
-601 -118 0
-601 -119 0
-602 -69 0
-602 -70 0
-602 -71 0
-602 -72 0
-602 -73 0
-602 -74 0
-602 -75 0
-602 -76 0
-602 -77 0
-602 -81 0
-602 -82 0
-602 -83 0
-602 -84 0
-602 -85 0
-602 -86 0
-602 -87 0
-602 -88 0
-602 -89 0
-602 -90 0
-602 -91 0
-602 -92 0
-602 -93 0
-602 -94 0
-602 -98 0
-602 -99 0
-602 -100 0
-602 -101 0
-602 -102 0
-602 -103 0
-602 -104 0
-602 -105 0
-602 -106 0
-602 -107 0
-602 -108 0
-602 -109 0
-602 -110 0
-602 -111 0
-602 -115 0
-602 -116 0
-602 -117 0
-602 -118 0
-602 -119 0
-603 -69 0
-603 -70 0
-603 -71 0
-603 -72 0
-603 -73 0
-603 -74 0
-603 -75 0
-603 -76 0
-603 -77 0
-603 -78 0
-603 -82 0
-603 -83 0
-603 -84 0
-603 -85 0
-603 -86 0
-603 -87 0
-603 -88 0
-603 -89 0
-603 -90 0
-603 -91 0
-603 -92 0
-603 -93 0
-603 -94 0
-603 -95 0
-603 -99 0
-603 -100 0
-603 -101 0
-603 -102 0
-603 -103 0
-603 -104 0
-603 -105 0
-603 -106 0
-603 -107 0
-603 -108 0
-603 -109 0
-603 -110 0
-603 -111 0
-603 -112 0
-603 -116 0
-603 -117 0
-603 -118 0
-603 -119 0
-604 -69 0
-604 -70 0
-604 -71 0
-604 -72 0
-604 -73 0
-604 -74 0
-604 -75 0
-604 -76 0
-604 -77 0
-604 -78 0
-604 -79 0
-604 -83 0
-604 -84 0
-604 -85 0
-604 -86 0
-604 -87 0
-604 -88 0
-604 -89 0
-604 -90 0
-604 -91 0
-604 -92 0
-604 -93 0
-604 -94 0
-604 -95 0
-604 -96 0
-604 -100 0
-604 -101 0
-604 -102 0
-604 -103 0
-604 -104 0
-604 -105 0
-604 -106 0
-604 -107 0
-604 -108 0
-604 -109 0
-604 -110 0
-604 -111 0
-604 -112 0
-604 -113 0
-604 -117 0
-604 -118 0
-604 -119 0
-605 -69 0
-605 -70 0
-605 -71 0
-605 -72 0
-605 -73 0
-605 -74 0
-605 -75 0
-605 -76 0
-605 -77 0
-605 -78 0
-605 -79 0
-605 -80 0
-605 -84 0
-605 -85 0
-605 -86 0
-605 -87 0
-605 -88 0
-605 -89 0
-605 -90 0
-605 -91 0
-605 -92 0
-605 -93 0
-605 -94 0
-605 -95 0
-605 -96 0
-605 -97 0
-605 -101 0
-605 -102 0
-605 -103 0
-605 -104 0
-605 -105 0
-605 -106 0
-605 -107 0
-605 -108 0
-605 -109 0
-605 -110 0
-605 -111 0
-605 -112 0
-605 -113 0
-605 -114 0
-605 -118 0
-605 -119 0
-606 -69 0
-606 -70 0
-606 -71 0
-606 -72 0
-606 -73 0
-606 -74 0
-606 -75 0
-606 -76 0
-606 -77 0
-606 -78 0
-606 -79 0
-606 -80 0
-606 -81 0
-606 -85 0
-606 -86 0
-606 -87 0
-606 -88 0
-606 -89 0
-606 -90 0
-606 -91 0
-606 -92 0
-606 -93 0
-606 -94 0
-606 -95 0
-606 -96 0
-606 -97 0
-606 -98 0
-606 -102 0
-606 -103 0
-606 -104 0
-606 -105 0
-606 -106 0
-606 -107 0
-606 -108 0
-606 -109 0
-606 -110 0
-606 -111 0
-606 -112 0
-606 -113 0
-606 -114 0
-606 -115 0
-606 -119 0
-607 -69 0
-607 -70 0
-607 -71 0
-607 -72 0
-607 -73 0
-607 -74 0
-607 -75 0
-607 -76 0
-607 -77 0
-607 -78 0
-607 -79 0
-607 -80 0
-607 -81 0
-607 -82 0
-607 -86 0
-607 -87 0
-607 -88 0
-607 -89 0
-607 -90 0
-607 -91 0
-607 -92 0
-607 -93 0
-607 -94 0
-607 -95 0
-607 -96 0
-607 -97 0
-607 -98 0
-607 -99 0
-607 -103 0
-607 -104 0
-607 -105 0
-607 -106 0
-607 -107 0
-607 -108 0
-607 -109 0
-607 -110 0
-607 -111 0
-607 -112 0
-607 -113 0
-607 -114 0
-607 -115 0
-607 -116 0
-120 -137 0
-120 -154 0
-137 -154 0
-121 -138 0
-121 -155 0
-138 -155 0
-122 -139 0
-122 -156 0
-139 -156 0
-123 -140 0
-123 -157 0
-140 -157 0
-124 -141 0
-124 -158 0
-141 -158 0
-125 -142 0
-125 -159 0
-142 -159 0
-126 -143 0
-126 -160 0
-143 -160 0
-127 -144 0
-127 -161 0
-144 -161 0
-128 -145 0
-128 -162 0
-145 -162 0
-129 -146 0
-129 -163 0
-146 -163 0
-130 -147 0
-130 -164 0
-147 -164 0
-131 -148 0
-131 -165 0
-148 -165 0
-132 -149 0
-132 -166 0
-149 -166 0
-133 -150 0
-133 -167 0
-150 -167 0
-134 -151 0
-134 -168 0
-151 -168 0
-135 -152 0
-135 -169 0
-152 -169 0
-136 -153 0
-136 -170 0
-153 -170 0
608 609 610 611 612 613 614 615 616 617 618 619 620 621 622 0
-608 -609 0
-608 -610 0
-608 -611 0
-608 -612 0
-608 -613 0
-608 -614 0
-608 -615 0
-608 -616 0
-608 -617 0
-608 -618 0
-608 -619 0
-608 -620 0
-608 -621 0
-608 -622 0
-609 -610 0
-609 -611 0
-609 -612 0
-609 -613 0
-609 -614 0
-609 -615 0
-609 -616 0
-609 -617 0
-609 -618 0
-609 -619 0
-609 -620 0
-609 -621 0
-609 -622 0
-610 -611 0
-610 -612 0
-610 -613 0
-610 -614 0
-610 -615 0
-610 -616 0
-610 -617 0
-610 -618 0
-610 -619 0
-610 -620 0
-610 -621 0
-610 -622 0
-611 -612 0
-611 -613 0
-611 -614 0
-611 -615 0
-611 -616 0
-611 -617 0
-611 -618 0
-611 -619 0
-611 -620 0
-611 -621 0
-611 -622 0
-612 -613 0
-612 -614 0
-612 -615 0
-612 -616 0
-612 -617 0
-612 -618 0
-612 -619 0
-612 -620 0
-612 -621 0
-612 -622 0
-613 -614 0
-613 -615 0
-613 -616 0
-613 -617 0
-613 -618 0
-613 -619 0
-613 -620 0
-613 -621 0
-613 -622 0
-614 -615 0
-614 -616 0
-614 -617 0
-614 -618 0
-614 -619 0
-614 -620 0
-614 -621 0
-614 -622 0
-615 -616 0
-615 -617 0
-615 -618 0
-615 -619 0
-615 -620 0
-615 -621 0
-615 -622 0
-616 -617 0
-616 -618 0
-616 -619 0
-616 -620 0
-616 -621 0
-616 -622 0
-617 -618 0
-617 -619 0
-617 -620 0
-617 -621 0
-617 -622 0
-618 -619 0
-618 -620 0
-618 -621 0
-618 -622 0
-619 -620 0
-619 -621 0
-619 -622 0
-620 -621 0
-620 -622 0
-621 -622 0
-120 608 0
-121 608 609 0
-122 608 609 610 0
-123 609 610 611 0
-124 610 611 612 0
-125 611 612 613 0
-126 612 613 614 0
-127 613 614 615 0
-128 614 615 616 0
-129 615 616 617 0
-130 616 617 618 0
-131 617 618 619 0
-132 618 619 620 0
-133 619 620 621 0
-134 620 621 622 0
-135 621 622 0
-136 622 0
-137 608 0
-138 608 609 0
-139 608 609 610 0
-140 609 610 611 0
-141 610 611 612 0
-142 611 612 613 0
-143 612 613 614 0
-144 613 614 615 0
-145 614 615 616 0
-146 615 616 617 0
-147 616 617 618 0
-148 617 618 619 0
-149 618 619 620 0
-150 619 620 621 0
-151 620 621 622 0
-152 621 622 0
-153 622 0
-154 608 0
-155 608 609 0
-156 608 609 610 0
-157 609 610 611 0
-158 610 611 612 0
-159 611 612 613 0
-160 612 613 614 0
-161 613 614 615 0
-162 614 615 616 0
-163 615 616 617 0
-164 616 617 618 0
-165 617 618 619 0
-166 618 619 620 0
-167 619 620 621 0
-168 620 621 622 0
-169 621 622 0
-170 622 0
-608 -123 0
-608 -124 0
-608 -125 0
-608 -126 0
-608 -127 0
-608 -128 0
-608 -129 0
-608 -130 0
-608 -131 0
-608 -132 0
-608 -133 0
-608 -134 0
-608 -135 0
-608 -136 0
-608 -140 0
-608 -141 0
-608 -142 0
-608 -143 0
-608 -144 0
-608 -145 0
-608 -146 0
-608 -147 0
-608 -148 0
-608 -149 0
-608 -150 0
-608 -151 0
-608 -152 0
-608 -153 0
-608 -157 0
-608 -158 0
-608 -159 0
-608 -160 0
-608 -161 0
-608 -162 0
-608 -163 0
-608 -164 0
-608 -165 0
-608 -166 0
-608 -167 0
-608 -168 0
-608 -169 0
-608 -170 0
-609 -120 0
-609 -124 0
-609 -125 0
-609 -126 0
-609 -127 0
-609 -128 0
-609 -129 0
-609 -130 0
-609 -131 0
-609 -132 0
-609 -133 0
-609 -134 0
-609 -135 0
-609 -136 0
-609 -137 0
-609 -141 0
-609 -142 0
-609 -143 0
-609 -144 0
-609 -145 0
-609 -146 0
-609 -147 0
-609 -148 0
-609 -149 0
-609 -150 0
-609 -151 0
-609 -152 0
-609 -153 0
-609 -154 0
-609 -158 0
-609 -159 0
-609 -160 0
-609 -161 0
-609 -162 0
-609 -163 0
-609 -164 0
-609 -165 0
-609 -166 0
-609 -167 0
-609 -168 0
-609 -169 0
-609 -170 0
-610 -120 0
-610 -121 0
-610 -125 0
-610 -126 0
-610 -127 0
-610 -128 0
-610 -129 0
-610 -130 0
-610 -131 0
-610 -132 0
-610 -133 0
-610 -134 0
-610 -135 0
-610 -136 0
-610 -137 0
-610 -138 0
-610 -142 0
-610 -143 0
-610 -144 0
-610 -145 0
-610 -146 0
-610 -147 0
-610 -148 0
-610 -149 0
-610 -150 0
-610 -151 0
-610 -152 0
-610 -153 0
-610 -154 0
-610 -155 0
-610 -159 0
-610 -160 0
-610 -161 0
-610 -162 0
-610 -163 0
-610 -164 0
-610 -165 0
-610 -166 0
-610 -167 0
-610 -168 0
-610 -169 0
-610 -170 0
-611 -120 0
-611 -121 0
-611 -122 0
-611 -126 0
-611 -127 0
-611 -128 0
-611 -129 0
-611 -130 0
-611 -131 0
-611 -132 0
-611 -133 0
-611 -134 0
-611 -135 0
-611 -136 0
-611 -137 0
-611 -138 0
-611 -139 0
-611 -143 0
-611 -144 0
-611 -145 0
-611 -146 0
-611 -147 0
-611 -148 0
-611 -149 0
-611 -150 0
-611 -151 0
-611 -152 0
-611 -153 0
-611 -154 0
-611 -155 0
-611 -156 0
-611 -160 0
-611 -161 0
-611 -162 0
-611 -163 0
-611 -164 0
-611 -165 0
-611 -166 0
-611 -167 0
-611 -168 0
-611 -169 0
-611 -170 0
-612 -120 0
-612 -121 0
-612 -122 0
-612 -123 0
-612 -127 0
-612 -128 0
-612 -129 0
-612 -130 0
-612 -131 0
-612 -132 0
-612 -133 0
-612 -134 0
-612 -135 0
-612 -136 0
-612 -137 0
-612 -138 0
-612 -139 0
-612 -140 0
-612 -144 0
-612 -145 0
-612 -146 0
-612 -147 0
-612 -148 0
-612 -149 0
-612 -150 0
-612 -151 0
-612 -152 0
-612 -153 0
-612 -154 0
-612 -155 0
-612 -156 0
-612 -157 0
-612 -161 0
-612 -162 0
-612 -163 0
-612 -164 0
-612 -165 0
-612 -166 0
-612 -167 0
-612 -168 0
-612 -169 0
-612 -170 0
-613 -120 0
-613 -121 0
-613 -122 0
-613 -123 0
-613 -124 0
-613 -128 0
-613 -129 0
-613 -130 0
-613 -131 0
-613 -132 0
-613 -133 0
-613 -134 0
-613 -135 0
-613 -136 0
-613 -137 0
-613 -138 0
-613 -139 0
-613 -140 0
-613 -141 0
-613 -145 0
-613 -146 0
-613 -147 0
-613 -148 0
-613 -149 0
-613 -150 0
-613 -151 0
-613 -152 0
-613 -153 0
-613 -154 0
-613 -155 0
-613 -156 0
-613 -157 0
-613 -158 0
-613 -162 0
-613 -163 0
-613 -164 0
-613 -165 0
-613 -166 0
-613 -167 0
-613 -168 0
-613 -169 0
-613 -170 0
-614 -120 0
-614 -121 0
-614 -122 0
-614 -123 0
-614 -124 0
-614 -125 0
-614 -129 0
-614 -130 0
-614 -131 0
-614 -132 0
-614 -133 0
-614 -134 0
-614 -135 0
-614 -136 0
-614 -137 0
-614 -138 0
-614 -139 0
-614 -140 0
-614 -141 0
-614 -142 0
-614 -146 0
-614 -147 0
-614 -148 0
-614 -149 0
-614 -150 0
-614 -151 0
-614 -152 0
-614 -153 0
-614 -154 0
-614 -155 0
-614 -156 0
-614 -157 0
-614 -158 0
-614 -159 0
-614 -163 0
-614 -164 0
-614 -165 0
-614 -166 0
-614 -167 0
-614 -168 0
-614 -169 0
-614 -170 0
-615 -120 0
-615 -121 0
-615 -122 0
-615 -123 0
-615 -124 0
-615 -125 0
-615 -126 0
-615 -130 0
-615 -131 0
-615 -132 0
-615 -133 0
-615 -134 0
-615 -135 0
-615 -136 0
-615 -137 0
-615 -138 0
-615 -139 0
-615 -140 0
-615 -141 0
-615 -142 0
-615 -143 0
-615 -147 0
-615 -148 0
-615 -149 0
-615 -150 0
-615 -151 0
-615 -152 0
-615 -153 0
-615 -154 0
-615 -155 0
-615 -156 0
-615 -157 0
-615 -158 0
-615 -159 0
-615 -160 0
-615 -164 0
-615 -165 0
-615 -166 0
-615 -167 0
-615 -168 0
-615 -169 0
-615 -170 0
-616 -120 0
-616 -121 0
-616 -122 0
-616 -123 0
-616 -124 0
-616 -125 0
-616 -126 0
-616 -127 0
-616 -131 0
-616 -132 0
-616 -133 0
-616 -134 0
-616 -135 0
-616 -136 0
-616 -137 0
-616 -138 0
-616 -139 0
-616 -140 0
-616 -141 0
-616 -142 0
-616 -143 0
-616 -144 0
-616 -148 0
-616 -149 0
-616 -150 0
-616 -151 0
-616 -152 0
-616 -153 0
-616 -154 0
-616 -155 0
-616 -156 0
-616 -157 0
-616 -158 0
-616 -159 0
-616 -160 0
-616 -161 0
-616 -165 0
-616 -166 0
-616 -167 0
-616 -168 0
-616 -169 0
-616 -170 0
-617 -120 0
-617 -121 0
-617 -122 0
-617 -123 0
-617 -124 0
-617 -125 0
-617 -126 0
-617 -127 0
-617 -128 0
-617 -132 0
-617 -133 0
-617 -134 0
-617 -135 0
-617 -136 0
-617 -137 0
-617 -138 0
-617 -139 0
-617 -140 0
-617 -141 0
-617 -142 0
-617 -143 0
-617 -144 0
-617 -145 0
-617 -149 0
-617 -150 0
-617 -151 0
-617 -152 0
-617 -153 0
-617 -154 0
-617 -155 0
-617 -156 0
-617 -157 0
-617 -158 0
-617 -159 0
-617 -160 0
-617 -161 0
-617 -162 0
-617 -166 0
-617 -167 0
-617 -168 0
-617 -169 0
-617 -170 0
-618 -120 0
-618 -121 0
-618 -122 0
-618 -123 0
-618 -124 0
-618 -125 0
-618 -126 0
-618 -127 0
-618 -128 0
-618 -129 0
-618 -133 0
-618 -134 0
-618 -135 0
-618 -136 0
-618 -137 0
-618 -138 0
-618 -139 0
-618 -140 0
-618 -141 0
-618 -142 0
-618 -143 0
-618 -144 0
-618 -145 0
-618 -146 0
-618 -150 0
-618 -151 0
-618 -152 0
-618 -153 0
-618 -154 0
-618 -155 0
-618 -156 0
-618 -157 0
-618 -158 0
-618 -159 0
-618 -160 0
-618 -161 0
-618 -162 0
-618 -163 0
-618 -167 0
-618 -168 0
-618 -169 0
-618 -170 0
-619 -120 0
-619 -121 0
-619 -122 0
-619 -123 0
-619 -124 0
-619 -125 0
-619 -126 0
-619 -127 0
-619 -128 0
-619 -129 0
-619 -130 0
-619 -134 0
-619 -135 0
-619 -136 0
-619 -137 0
-619 -138 0
-619 -139 0
-619 -140 0
-619 -141 0
-619 -142 0
-619 -143 0
-619 -144 0
-619 -145 0
-619 -146 0
-619 -147 0
-619 -151 0
-619 -152 0
-619 -153 0
-619 -154 0
-619 -155 0
-619 -156 0
-619 -157 0
-619 -158 0
-619 -159 0
-619 -160 0
-619 -161 0
-619 -162 0
-619 -163 0
-619 -164 0
-619 -168 0
-619 -169 0
-619 -170 0
-620 -120 0
-620 -121 0
-620 -122 0
-620 -123 0
-620 -124 0
-620 -125 0
-620 -126 0
-620 -127 0
-620 -128 0
-620 -129 0
-620 -130 0
-620 -131 0
-620 -135 0
-620 -136 0
-620 -137 0
-620 -138 0
-620 -139 0
-620 -140 0
-620 -141 0
-620 -142 0
-620 -143 0
-620 -144 0
-620 -145 0
-620 -146 0
-620 -147 0
-620 -148 0
-620 -152 0
-620 -153 0
-620 -154 0
-620 -155 0
-620 -156 0
-620 -157 0
-620 -158 0
-620 -159 0
-620 -160 0
-620 -161 0
-620 -162 0
-620 -163 0
-620 -164 0
-620 -165 0
-620 -169 0
-620 -170 0
-621 -120 0
-621 -121 0
-621 -122 0
-621 -123 0
-621 -124 0
-621 -125 0
-621 -126 0
-621 -127 0
-621 -128 0
-621 -129 0
-621 -130 0
-621 -131 0
-621 -132 0
-621 -136 0
-621 -137 0
-621 -138 0
-621 -139 0
-621 -140 0
-621 -141 0
-621 -142 0
-621 -143 0
-621 -144 0
-621 -145 0
-621 -146 0
-621 -147 0
-621 -148 0
-621 -149 0
-621 -153 0
-621 -154 0
-621 -155 0
-621 -156 0
-621 -157 0
-621 -158 0
-621 -159 0
-621 -160 0
-621 -161 0
-621 -162 0
-621 -163 0
-621 -164 0
-621 -165 0
-621 -166 0
-621 -170 0
-622 -120 0
-622 -121 0
-622 -122 0
-622 -123 0
-622 -124 0
-622 -125 0
-622 -126 0
-622 -127 0
-622 -128 0
-622 -129 0
-622 -130 0
-622 -131 0
-622 -132 0
-622 -133 0
-622 -137 0
-622 -138 0
-622 -139 0
-622 -140 0
-622 -141 0
-622 -142 0
-622 -143 0
-622 -144 0
-622 -145 0
-622 -146 0
-622 -147 0
-622 -148 0
-622 -149 0
-622 -150 0
-622 -154 0
-622 -155 0
-622 -156 0
-622 -157 0
-622 -158 0
-622 -159 0
-622 -160 0
-622 -161 0
-622 -162 0
-622 -163 0
-622 -164 0
-622 -165 0
-622 -166 0
-622 -167 0
-171 -188 0
-171 -205 0
-188 -205 0
-172 -189 0
-172 -206 0
-189 -206 0
-173 -190 0
-173 -207 0
-190 -207 0
-174 -191 0
-174 -208 0
-191 -208 0
-175 -192 0
-175 -209 0
-192 -209 0
-176 -193 0
-176 -210 0
-193 -210 0
-177 -194 0
-177 -211 0
-194 -211 0
-178 -195 0
-178 -212 0
-195 -212 0
-179 -196 0
-179 -213 0
-196 -213 0
-180 -197 0
-180 -214 0
-197 -214 0
-181 -198 0
-181 -215 0
-198 -215 0
-182 -199 0
-182 -216 0
-199 -216 0
-183 -200 0
-183 -217 0
-200 -217 0
-184 -201 0
-184 -218 0
-201 -218 0
-185 -202 0
-185 -219 0
-202 -219 0
-186 -203 0
-186 -220 0
-203 -220 0
-187 -204 0
-187 -221 0
-204 -221 0
623 624 625 626 627 628 629 630 631 632 633 634 635 636 637 0
-623 -624 0
-623 -625 0
-623 -626 0
-623 -627 0
-623 -628 0
-623 -629 0
-623 -630 0
-623 -631 0
-623 -632 0
-623 -633 0
-623 -634 0
-623 -635 0
-623 -636 0
-623 -637 0
-624 -625 0
-624 -626 0
-624 -627 0
-624 -628 0
-624 -629 0
-624 -630 0
-624 -631 0
-624 -632 0
-624 -633 0
-624 -634 0
-624 -635 0
-624 -636 0
-624 -637 0
-625 -626 0
-625 -627 0
-625 -628 0
-625 -629 0
-625 -630 0
-625 -631 0
-625 -632 0
-625 -633 0
-625 -634 0
-625 -635 0
-625 -636 0
-625 -637 0
-626 -627 0
-626 -628 0
-626 -629 0
-626 -630 0
-626 -631 0
-626 -632 0
-626 -633 0
-626 -634 0
-626 -635 0
-626 -636 0
-626 -637 0
-627 -628 0
-627 -629 0
-627 -630 0
-627 -631 0
-627 -632 0
-627 -633 0
-627 -634 0
-627 -635 0
-627 -636 0
-627 -637 0
-628 -629 0
-628 -630 0
-628 -631 0
-628 -632 0
-628 -633 0
-628 -634 0
-628 -635 0
-628 -636 0
-628 -637 0
-629 -630 0
-629 -631 0
-629 -632 0
-629 -633 0
-629 -634 0
-629 -635 0
-629 -636 0
-629 -637 0
-630 -631 0
-630 -632 0
-630 -633 0
-630 -634 0
-630 -635 0
-630 -636 0
-630 -637 0
-631 -632 0
-631 -633 0
-631 -634 0
-631 -635 0
-631 -636 0
-631 -637 0
-632 -633 0
-632 -634 0
-632 -635 0
-632 -636 0
-632 -637 0
-633 -634 0
-633 -635 0
-633 -636 0
-633 -637 0
-634 -635 0
-634 -636 0
-634 -637 0
-635 -636 0
-635 -637 0
-636 -637 0
-171 623 0
-172 623 624 0
-173 623 624 625 0
-174 624 625 626 0
-175 625 626 627 0
-176 626 627 628 0
-177 627 628 629 0
-178 628 629 630 0
-179 629 630 631 0
-180 630 631 632 0
-181 631 632 633 0
-182 632 633 634 0
-183 633 634 635 0
-184 634 635 636 0
-185 635 636 637 0
-186 636 637 0
-187 637 0
-188 623 0
-189 623 624 0
-190 623 624 625 0
-191 624 625 626 0
-192 625 626 627 0
-193 626 627 628 0
-194 627 628 629 0
-195 628 629 630 0
-196 629 630 631 0
-197 630 631 632 0
-198 631 632 633 0
-199 632 633 634 0
-200 633 634 635 0
-201 634 635 636 0
-202 635 636 637 0
-203 636 637 0
-204 637 0
-205 623 0
-206 623 624 0
-207 623 624 625 0
-208 624 625 626 0
-209 625 626 627 0
-210 626 627 628 0
-211 627 628 629 0
-212 628 629 630 0
-213 629 630 631 0
-214 630 631 632 0
-215 631 632 633 0
-216 632 633 634 0
-217 633 634 635 0
-218 634 635 636 0
-219 635 636 637 0
-220 636 637 0
-221 637 0
-623 -174 0
-623 -175 0
-623 -176 0
-623 -177 0
-623 -178 0
-623 -179 0
-623 -180 0
-623 -181 0
-623 -182 0
-623 -183 0
-623 -184 0
-623 -185 0
-623 -186 0
-623 -187 0
-623 -191 0
-623 -192 0
-623 -193 0
-623 -194 0
-623 -195 0
-623 -196 0
-623 -197 0
-623 -198 0
-623 -199 0
-623 -200 0
-623 -201 0
-623 -202 0
-623 -203 0
-623 -204 0
-623 -208 0
-623 -209 0
-623 -210 0
-623 -211 0
-623 -212 0
-623 -213 0
-623 -214 0
-623 -215 0
-623 -216 0
-623 -217 0
-623 -218 0
-623 -219 0
-623 -220 0
-623 -221 0
-624 -171 0
-624 -175 0
-624 -176 0
-624 -177 0
-624 -178 0
-624 -179 0
-624 -180 0
-624 -181 0
-624 -182 0
-624 -183 0
-624 -184 0
-624 -185 0
-624 -186 0
-624 -187 0
-624 -188 0
-624 -192 0
-624 -193 0
-624 -194 0
-624 -195 0
-624 -196 0
-624 -197 0
-624 -198 0
-624 -199 0
-624 -200 0
-624 -201 0
-624 -202 0
-624 -203 0
-624 -204 0
-624 -205 0
-624 -209 0
-624 -210 0
-624 -211 0
-624 -212 0
-624 -213 0
-624 -214 0
-624 -215 0
-624 -216 0
-624 -217 0
-624 -218 0
-624 -219 0
-624 -220 0
-624 -221 0
-625 -171 0
-625 -172 0
-625 -176 0
-625 -177 0
-625 -178 0
-625 -179 0
-625 -180 0
-625 -181 0
-625 -182 0
-625 -183 0
-625 -184 0
-625 -185 0
-625 -186 0
-625 -187 0
-625 -188 0
-625 -189 0
-625 -193 0
-625 -194 0
-625 -195 0
-625 -196 0
-625 -197 0
-625 -198 0
-625 -199 0
-625 -200 0
-625 -201 0
-625 -202 0
-625 -203 0
-625 -204 0
-625 -205 0
-625 -206 0
-625 -210 0
-625 -211 0
-625 -212 0
-625 -213 0
-625 -214 0
-625 -215 0
-625 -216 0
-625 -217 0
-625 -218 0
-625 -219 0
-625 -220 0
-625 -221 0
-626 -171 0
-626 -172 0
-626 -173 0
-626 -177 0
-626 -178 0
-626 -179 0
-626 -180 0
-626 -181 0
-626 -182 0
-626 -183 0
-626 -184 0
-626 -185 0
-626 -186 0
-626 -187 0
-626 -188 0
-626 -189 0
-626 -190 0
-626 -194 0
-626 -195 0
-626 -196 0
-626 -197 0
-626 -198 0
-626 -199 0
-626 -200 0
-626 -201 0
-626 -202 0
-626 -203 0
-626 -204 0
-626 -205 0
-626 -206 0
-626 -207 0
-626 -211 0
-626 -212 0
-626 -213 0
-626 -214 0
-626 -215 0
-626 -216 0
-626 -217 0
-626 -218 0
-626 -219 0
-626 -220 0
-626 -221 0
-627 -171 0
-627 -172 0
-627 -173 0
-627 -174 0
-627 -178 0
-627 -179 0
-627 -180 0
-627 -181 0
-627 -182 0
-627 -183 0
-627 -184 0
-627 -185 0
-627 -186 0
-627 -187 0
-627 -188 0
-627 -189 0
-627 -190 0
-627 -191 0
-627 -195 0
-627 -196 0
-627 -197 0
-627 -198 0
-627 -199 0
-627 -200 0
-627 -201 0
-627 -202 0
-627 -203 0
-627 -204 0
-627 -205 0
-627 -206 0
-627 -207 0
-627 -208 0
-627 -212 0
-627 -213 0
-627 -214 0
-627 -215 0
-627 -216 0
-627 -217 0
-627 -218 0
-627 -219 0
-627 -220 0
-627 -221 0
-628 -171 0
-628 -172 0
-628 -173 0
-628 -174 0
-628 -175 0
-628 -179 0
-628 -180 0
-628 -181 0
-628 -182 0
-628 -183 0
-628 -184 0
-628 -185 0
-628 -186 0
-628 -187 0
-628 -188 0
-628 -189 0
-628 -190 0
-628 -191 0
-628 -192 0
-628 -196 0
-628 -197 0
-628 -198 0
-628 -199 0
-628 -200 0
-628 -201 0
-628 -202 0
-628 -203 0
-628 -204 0
-628 -205 0
-628 -206 0
-628 -207 0
-628 -208 0
-628 -209 0
-628 -213 0
-628 -214 0
-628 -215 0
-628 -216 0
-628 -217 0
-628 -218 0
-628 -219 0
-628 -220 0
-628 -221 0
-629 -171 0
-629 -172 0
-629 -173 0
-629 -174 0
-629 -175 0
-629 -176 0
-629 -180 0
-629 -181 0
-629 -182 0
-629 -183 0
-629 -184 0
-629 -185 0
-629 -186 0
-629 -187 0
-629 -188 0
-629 -189 0
-629 -190 0
-629 -191 0
-629 -192 0
-629 -193 0
-629 -197 0
-629 -198 0
-629 -199 0
-629 -200 0
-629 -201 0
-629 -202 0
-629 -203 0
-629 -204 0
-629 -205 0
-629 -206 0
-629 -207 0
-629 -208 0
-629 -209 0
-629 -210 0
-629 -214 0
-629 -215 0
-629 -216 0
-629 -217 0
-629 -218 0
-629 -219 0
-629 -220 0
-629 -221 0
-630 -171 0
-630 -172 0
-630 -173 0
-630 -174 0
-630 -175 0
-630 -176 0
-630 -177 0
-630 -181 0
-630 -182 0
-630 -183 0
-630 -184 0
-630 -185 0
-630 -186 0
-630 -187 0
-630 -188 0
-630 -189 0
-630 -190 0
-630 -191 0
-630 -192 0
-630 -193 0
-630 -194 0
-630 -198 0
-630 -199 0
-630 -200 0
-630 -201 0
-630 -202 0
-630 -203 0
-630 -204 0
-630 -205 0
-630 -206 0
-630 -207 0
-630 -208 0
-630 -209 0
-630 -210 0
-630 -211 0
-630 -215 0
-630 -216 0
-630 -217 0
-630 -218 0
-630 -219 0
-630 -220 0
-630 -221 0
-631 -171 0
-631 -172 0
-631 -173 0
-631 -174 0
-631 -175 0
-631 -176 0
-631 -177 0
-631 -178 0
-631 -182 0
-631 -183 0
-631 -184 0
-631 -185 0
-631 -186 0
-631 -187 0
-631 -188 0
-631 -189 0
-631 -190 0
-631 -191 0
-631 -192 0
-631 -193 0
-631 -194 0
-631 -195 0
-631 -199 0
-631 -200 0
-631 -201 0
-631 -202 0
-631 -203 0
-631 -204 0
-631 -205 0
-631 -206 0
-631 -207 0
-631 -208 0
-631 -209 0
-631 -210 0
-631 -211 0
-631 -212 0
-631 -216 0
-631 -217 0
-631 -218 0
-631 -219 0
-631 -220 0
-631 -221 0
-632 -171 0
-632 -172 0
-632 -173 0
-632 -174 0
-632 -175 0
-632 -176 0
-632 -177 0
-632 -178 0
-632 -179 0
-632 -183 0
-632 -184 0
-632 -185 0
-632 -186 0
-632 -187 0
-632 -188 0
-632 -189 0
-632 -190 0
-632 -191 0
-632 -192 0
-632 -193 0
-632 -194 0
-632 -195 0
-632 -196 0
-632 -200 0
-632 -201 0
-632 -202 0
-632 -203 0
-632 -204 0
-632 -205 0
-632 -206 0
-632 -207 0
-632 -208 0
-632 -209 0
-632 -210 0
-632 -211 0
-632 -212 0
-632 -213 0
-632 -217 0
-632 -218 0
-632 -219 0
-632 -220 0
-632 -221 0
-633 -171 0
-633 -172 0
-633 -173 0
-633 -174 0
-633 -175 0
-633 -176 0
-633 -177 0
-633 -178 0
-633 -179 0
-633 -180 0
-633 -184 0
-633 -185 0
-633 -186 0
-633 -187 0
-633 -188 0
-633 -189 0
-633 -190 0
-633 -191 0
-633 -192 0
-633 -193 0
-633 -194 0
-633 -195 0
-633 -196 0
-633 -197 0
-633 -201 0
-633 -202 0
-633 -203 0
-633 -204 0
-633 -205 0
-633 -206 0
-633 -207 0
-633 -208 0
-633 -209 0
-633 -210 0
-633 -211 0
-633 -212 0
-633 -213 0
-633 -214 0
-633 -218 0
-633 -219 0
-633 -220 0
-633 -221 0
-634 -171 0
-634 -172 0
-634 -173 0
-634 -174 0
-634 -175 0
-634 -176 0
-634 -177 0
-634 -178 0
-634 -179 0
-634 -180 0
-634 -181 0
-634 -185 0
-634 -186 0
-634 -187 0
-634 -188 0
-634 -189 0
-634 -190 0
-634 -191 0
-634 -192 0
-634 -193 0
-634 -194 0
-634 -195 0
-634 -196 0
-634 -197 0
-634 -198 0
-634 -202 0
-634 -203 0
-634 -204 0
-634 -205 0
-634 -206 0
-634 -207 0
-634 -208 0
-634 -209 0
-634 -210 0
-634 -211 0
-634 -212 0
-634 -213 0
-634 -214 0
-634 -215 0
-634 -219 0
-634 -220 0
-634 -221 0
-635 -171 0
-635 -172 0
-635 -173 0
-635 -174 0
-635 -175 0
-635 -176 0
-635 -177 0
-635 -178 0
-635 -179 0
-635 -180 0
-635 -181 0
-635 -182 0
-635 -186 0
-635 -187 0
-635 -188 0
-635 -189 0
-635 -190 0
-635 -191 0
-635 -192 0
-635 -193 0
-635 -194 0
-635 -195 0
-635 -196 0
-635 -197 0
-635 -198 0
-635 -199 0
-635 -203 0
-635 -204 0
-635 -205 0
-635 -206 0
-635 -207 0
-635 -208 0
-635 -209 0
-635 -210 0
-635 -211 0
-635 -212 0
-635 -213 0
-635 -214 0
-635 -215 0
-635 -216 0
-635 -220 0
-635 -221 0
-636 -171 0
-636 -172 0
-636 -173 0
-636 -174 0
-636 -175 0
-636 -176 0
-636 -177 0
-636 -178 0
-636 -179 0
-636 -180 0
-636 -181 0
-636 -182 0
-636 -183 0
-636 -187 0
-636 -188 0
-636 -189 0
-636 -190 0
-636 -191 0
-636 -192 0
-636 -193 0
-636 -194 0
-636 -195 0
-636 -196 0
-636 -197 0
-636 -198 0
-636 -199 0
-636 -200 0
-636 -204 0
-636 -205 0
-636 -206 0
-636 -207 0
-636 -208 0
-636 -209 0
-636 -210 0
-636 -211 0
-636 -212 0
-636 -213 0
-636 -214 0
-636 -215 0
-636 -216 0
-636 -217 0
-636 -221 0
-637 -171 0
-637 -172 0
-637 -173 0
-637 -174 0
-637 -175 0
-637 -176 0
-637 -177 0
-637 -178 0
-637 -179 0
-637 -180 0
-637 -181 0
-637 -182 0
-637 -183 0
-637 -184 0
-637 -188 0
-637 -189 0
-637 -190 0
-637 -191 0
-637 -192 0
-637 -193 0
-637 -194 0
-637 -195 0
-637 -196 0
-637 -197 0
-637 -198 0
-637 -199 0
-637 -200 0
-637 -201 0
-637 -205 0
-637 -206 0
-637 -207 0
-637 -208 0
-637 -209 0
-637 -210 0
-637 -211 0
-637 -212 0
-637 -213 0
-637 -214 0
-637 -215 0
-637 -216 0
-637 -217 0
-637 -218 0
-222 -239 0
-222 -256 0
-239 -256 0
-223 -240 0
-223 -257 0
-240 -257 0
-224 -241 0
-224 -258 0
-241 -258 0
-225 -242 0
-225 -259 0
-242 -259 0
-226 -243 0
-226 -260 0
-243 -260 0
-227 -244 0
-227 -261 0
-244 -261 0
-228 -245 0
-228 -262 0
-245 -262 0
-229 -246 0
-229 -263 0
-246 -263 0
-230 -247 0
-230 -264 0
-247 -264 0
-231 -248 0
-231 -265 0
-248 -265 0
-232 -249 0
-232 -266 0
-249 -266 0
-233 -250 0
-233 -267 0
-250 -267 0
-234 -251 0
-234 -268 0
-251 -268 0
-235 -252 0
-235 -269 0
-252 -269 0
-236 -253 0
-236 -270 0
-253 -270 0
-237 -254 0
-237 -271 0
-254 -271 0
-238 -255 0
-238 -272 0
-255 -272 0
638 639 640 641 642 643 644 645 646 647 648 649 650 651 652 0
-638 -639 0
-638 -640 0
-638 -641 0
-638 -642 0
-638 -643 0
-638 -644 0
-638 -645 0
-638 -646 0
-638 -647 0
-638 -648 0
-638 -649 0
-638 -650 0
-638 -651 0
-638 -652 0
-639 -640 0
-639 -641 0
-639 -642 0
-639 -643 0
-639 -644 0
-639 -645 0
-639 -646 0
-639 -647 0
-639 -648 0
-639 -649 0
-639 -650 0
-639 -651 0
-639 -652 0
-640 -641 0
-640 -642 0
-640 -643 0
-640 -644 0
-640 -645 0
-640 -646 0
-640 -647 0
-640 -648 0
-640 -649 0
-640 -650 0
-640 -651 0
-640 -652 0
-641 -642 0
-641 -643 0
-641 -644 0
-641 -645 0
-641 -646 0
-641 -647 0
-641 -648 0
-641 -649 0
-641 -650 0
-641 -651 0
-641 -652 0
-642 -643 0
-642 -644 0
-642 -645 0
-642 -646 0
-642 -647 0
-642 -648 0
-642 -649 0
-642 -650 0
-642 -651 0
-642 -652 0
-643 -644 0
-643 -645 0
-643 -646 0
-643 -647 0
-643 -648 0
-643 -649 0
-643 -650 0
-643 -651 0
-643 -652 0
-644 -645 0
-644 -646 0
-644 -647 0
-644 -648 0
-644 -649 0
-644 -650 0
-644 -651 0
-644 -652 0
-645 -646 0
-645 -647 0
-645 -648 0
-645 -649 0
-645 -650 0
-645 -651 0
-645 -652 0
-646 -647 0
-646 -648 0
-646 -649 0
-646 -650 0
-646 -651 0
-646 -652 0
-647 -648 0
-647 -649 0
-647 -650 0
-647 -651 0
-647 -652 0
-648 -649 0
-648 -650 0
-648 -651 0
-648 -652 0
-649 -650 0
-649 -651 0
-649 -652 0
-650 -651 0
-650 -652 0
-651 -652 0
-222 638 0
-223 638 639 0
-224 638 639 640 0
-225 639 640 641 0
-226 640 641 642 0
-227 641 642 643 0
-228 642 643 644 0
-229 643 644 645 0
-230 644 645 646 0
-231 645 646 647 0
-232 646 647 648 0
-233 647 648 649 0
-234 648 649 650 0
-235 649 650 651 0
-236 650 651 652 0
-237 651 652 0
-238 652 0
-239 638 0
-240 638 639 0
-241 638 639 640 0
-242 639 640 641 0
-243 640 641 642 0
-244 641 642 643 0
-245 642 643 644 0
-246 643 644 645 0
-247 644 645 646 0
-248 645 646 647 0
-249 646 647 648 0
-250 647 648 649 0
-251 648 649 650 0
-252 649 650 651 0
-253 650 651 652 0
-254 651 652 0
-255 652 0
-256 638 0
-257 638 639 0
-258 638 639 640 0
-259 639 640 641 0
-260 640 641 642 0
-261 641 642 643 0
-262 642 643 644 0
-263 643 644 645 0
-264 644 645 646 0
-265 645 646 647 0
-266 646 647 648 0
-267 647 648 649 0
-268 648 649 650 0
-269 649 650 651 0
-270 650 651 652 0
-271 651 652 0
-272 652 0
-638 -225 0
-638 -226 0
-638 -227 0
-638 -228 0
-638 -229 0
-638 -230 0
-638 -231 0
-638 -232 0
-638 -233 0
-638 -234 0
-638 -235 0
-638 -236 0
-638 -237 0
-638 -238 0
-638 -242 0
-638 -243 0
-638 -244 0
-638 -245 0
-638 -246 0
-638 -247 0
-638 -248 0
-638 -249 0
-638 -250 0
-638 -251 0
-638 -252 0
-638 -253 0
-638 -254 0
-638 -255 0
-638 -259 0
-638 -260 0
-638 -261 0
-638 -262 0
-638 -263 0
-638 -264 0
-638 -265 0
-638 -266 0
-638 -267 0
-638 -268 0
-638 -269 0
-638 -270 0
-638 -271 0
-638 -272 0
-639 -222 0
-639 -226 0
-639 -227 0
-639 -228 0
-639 -229 0
-639 -230 0
-639 -231 0
-639 -232 0
-639 -233 0
-639 -234 0
-639 -235 0
-639 -236 0
-639 -237 0
-639 -238 0
-639 -239 0
-639 -243 0
-639 -244 0
-639 -245 0
-639 -246 0
-639 -247 0
-639 -248 0
-639 -249 0
-639 -250 0
-639 -251 0
-639 -252 0
-639 -253 0
-639 -254 0
-639 -255 0
-639 -256 0
-639 -260 0
-639 -261 0
-639 -262 0
-639 -263 0
-639 -264 0
-639 -265 0
-639 -266 0
-639 -267 0
-639 -268 0
-639 -269 0
-639 -270 0
-639 -271 0
-639 -272 0
-640 -222 0
-640 -223 0
-640 -227 0
-640 -228 0
-640 -229 0
-640 -230 0
-640 -231 0
-640 -232 0
-640 -233 0
-640 -234 0
-640 -235 0
-640 -236 0
-640 -237 0
-640 -238 0
-640 -239 0
-640 -240 0
-640 -244 0
-640 -245 0
-640 -246 0
-640 -247 0
-640 -248 0
-640 -249 0
-640 -250 0
-640 -251 0
-640 -252 0
-640 -253 0
-640 -254 0
-640 -255 0
-640 -256 0
-640 -257 0
-640 -261 0
-640 -262 0
-640 -263 0
-640 -264 0
-640 -265 0
-640 -266 0
-640 -267 0
-640 -268 0
-640 -269 0
-640 -270 0
-640 -271 0
-640 -272 0
-641 -222 0
-641 -223 0
-641 -224 0
-641 -228 0
-641 -229 0
-641 -230 0
-641 -231 0
-641 -232 0
-641 -233 0
-641 -234 0
-641 -235 0
-641 -236 0
-641 -237 0
-641 -238 0
-641 -239 0
-641 -240 0
-641 -241 0
-641 -245 0
-641 -246 0
-641 -247 0
-641 -248 0
-641 -249 0
-641 -250 0
-641 -251 0
-641 -252 0
-641 -253 0
-641 -254 0
-641 -255 0
-641 -256 0
-641 -257 0
-641 -258 0
-641 -262 0
-641 -263 0
-641 -264 0
-641 -265 0
-641 -266 0
-641 -267 0
-641 -268 0
-641 -269 0
-641 -270 0
-641 -271 0
-641 -272 0
-642 -222 0
-642 -223 0
-642 -224 0
-642 -225 0
-642 -229 0
-642 -230 0
-642 -231 0
-642 -232 0
-642 -233 0
-642 -234 0
-642 -235 0
-642 -236 0
-642 -237 0
-642 -238 0
-642 -239 0
-642 -240 0
-642 -241 0
-642 -242 0
-642 -246 0
-642 -247 0
-642 -248 0
-642 -249 0
-642 -250 0
-642 -251 0
-642 -252 0
-642 -253 0
-642 -254 0
-642 -255 0
-642 -256 0
-642 -257 0
-642 -258 0
-642 -259 0
-642 -263 0
-642 -264 0
-642 -265 0
-642 -266 0
-642 -267 0
-642 -268 0
-642 -269 0
-642 -270 0
-642 -271 0
-642 -272 0
-643 -222 0
-643 -223 0
-643 -224 0
-643 -225 0
-643 -226 0
-643 -230 0
-643 -231 0
-643 -232 0
-643 -233 0
-643 -234 0
-643 -235 0
-643 -236 0
-643 -237 0
-643 -238 0
-643 -239 0
-643 -240 0
-643 -241 0
-643 -242 0
-643 -243 0
-643 -247 0
-643 -248 0
-643 -249 0
-643 -250 0
-643 -251 0
-643 -252 0
-643 -253 0
-643 -254 0
-643 -255 0
-643 -256 0
-643 -257 0
-643 -258 0
-643 -259 0
-643 -260 0
-643 -264 0
-643 -265 0
-643 -266 0
-643 -267 0
-643 -268 0
-643 -269 0
-643 -270 0
-643 -271 0
-643 -272 0
-644 -222 0
-644 -223 0
-644 -224 0
-644 -225 0
-644 -226 0
-644 -227 0
-644 -231 0
-644 -232 0
-644 -233 0
-644 -234 0
-644 -235 0
-644 -236 0
-644 -237 0
-644 -238 0
-644 -239 0
-644 -240 0
-644 -241 0
-644 -242 0
-644 -243 0
-644 -244 0
-644 -248 0
-644 -249 0
-644 -250 0
-644 -251 0
-644 -252 0
-644 -253 0
-644 -254 0
-644 -255 0
-644 -256 0
-644 -257 0
-644 -258 0
-644 -259 0
-644 -260 0
-644 -261 0
-644 -265 0
-644 -266 0
-644 -267 0
-644 -268 0
-644 -269 0
-644 -270 0
-644 -271 0
-644 -272 0
-645 -222 0
-645 -223 0
-645 -224 0
-645 -225 0
-645 -226 0
-645 -227 0
-645 -228 0
-645 -232 0
-645 -233 0
-645 -234 0
-645 -235 0
-645 -236 0
-645 -237 0
-645 -238 0
-645 -239 0
-645 -240 0
-645 -241 0
-645 -242 0
-645 -243 0
-645 -244 0
-645 -245 0
-645 -249 0
-645 -250 0
-645 -251 0
-645 -252 0
-645 -253 0
-645 -254 0
-645 -255 0
-645 -256 0
-645 -257 0
-645 -258 0
-645 -259 0
-645 -260 0
-645 -261 0
-645 -262 0
-645 -266 0
-645 -267 0
-645 -268 0
-645 -269 0
-645 -270 0
-645 -271 0
-645 -272 0
-646 -222 0
-646 -223 0
-646 -224 0
-646 -225 0
-646 -226 0
-646 -227 0
-646 -228 0
-646 -229 0
-646 -233 0
-646 -234 0
-646 -235 0
-646 -236 0
-646 -237 0
-646 -238 0
-646 -239 0
-646 -240 0
-646 -241 0
-646 -242 0
-646 -243 0
-646 -244 0
-646 -245 0
-646 -246 0
-646 -250 0
-646 -251 0
-646 -252 0
-646 -253 0
-646 -254 0
-646 -255 0
-646 -256 0
-646 -257 0
-646 -258 0
-646 -259 0
-646 -260 0
-646 -261 0
-646 -262 0
-646 -263 0
-646 -267 0
-646 -268 0
-646 -269 0
-646 -270 0
-646 -271 0
-646 -272 0
-647 -222 0
-647 -223 0
-647 -224 0
-647 -225 0
-647 -226 0
-647 -227 0
-647 -228 0
-647 -229 0
-647 -230 0
-647 -234 0
-647 -235 0
-647 -236 0
-647 -237 0
-647 -238 0
-647 -239 0
-647 -240 0
-647 -241 0
-647 -242 0
-647 -243 0
-647 -244 0
-647 -245 0
-647 -246 0
-647 -247 0
-647 -251 0
-647 -252 0
-647 -253 0
-647 -254 0
-647 -255 0
-647 -256 0
-647 -257 0
-647 -258 0
-647 -259 0
-647 -260 0
-647 -261 0
-647 -262 0
-647 -263 0
-647 -264 0
-647 -268 0
-647 -269 0
-647 -270 0
-647 -271 0
-647 -272 0
-648 -222 0
-648 -223 0
-648 -224 0
-648 -225 0
-648 -226 0
-648 -227 0
-648 -228 0
-648 -229 0
-648 -230 0
-648 -231 0
-648 -235 0
-648 -236 0
-648 -237 0
-648 -238 0
-648 -239 0
-648 -240 0
-648 -241 0
-648 -242 0
-648 -243 0
-648 -244 0
-648 -245 0
-648 -246 0
-648 -247 0
-648 -248 0
-648 -252 0
-648 -253 0
-648 -254 0
-648 -255 0
-648 -256 0
-648 -257 0
-648 -258 0
-648 -259 0
-648 -260 0
-648 -261 0
-648 -262 0
-648 -263 0
-648 -264 0
-648 -265 0
-648 -269 0
-648 -270 0
-648 -271 0
-648 -272 0
-649 -222 0
-649 -223 0
-649 -224 0
-649 -225 0
-649 -226 0
-649 -227 0
-649 -228 0
-649 -229 0
-649 -230 0
-649 -231 0
-649 -232 0
-649 -236 0
-649 -237 0
-649 -238 0
-649 -239 0
-649 -240 0
-649 -241 0
-649 -242 0
-649 -243 0
-649 -244 0
-649 -245 0
-649 -246 0
-649 -247 0
-649 -248 0
-649 -249 0
-649 -253 0
-649 -254 0
-649 -255 0
-649 -256 0
-649 -257 0
-649 -258 0
-649 -259 0
-649 -260 0
-649 -261 0
-649 -262 0
-649 -263 0
-649 -264 0
-649 -265 0
-649 -266 0
-649 -270 0
-649 -271 0
-649 -272 0
-650 -222 0
-650 -223 0
-650 -224 0
-650 -225 0
-650 -226 0
-650 -227 0
-650 -228 0
-650 -229 0
-650 -230 0
-650 -231 0
-650 -232 0
-650 -233 0
-650 -237 0
-650 -238 0
-650 -239 0
-650 -240 0
-650 -241 0
-650 -242 0
-650 -243 0
-650 -244 0
-650 -245 0
-650 -246 0
-650 -247 0
-650 -248 0
-650 -249 0
-650 -250 0
-650 -254 0
-650 -255 0
-650 -256 0
-650 -257 0
-650 -258 0
-650 -259 0
-650 -260 0
-650 -261 0
-650 -262 0
-650 -263 0
-650 -264 0
-650 -265 0
-650 -266 0
-650 -267 0
-650 -271 0
-650 -272 0
-651 -222 0
-651 -223 0
-651 -224 0
-651 -225 0
-651 -226 0
-651 -227 0
-651 -228 0
-651 -229 0
-651 -230 0
-651 -231 0
-651 -232 0
-651 -233 0
-651 -234 0
-651 -238 0
-651 -239 0
-651 -240 0
-651 -241 0
-651 -242 0
-651 -243 0
-651 -244 0
-651 -245 0
-651 -246 0
-651 -247 0
-651 -248 0
-651 -249 0
-651 -250 0
-651 -251 0
-651 -255 0
-651 -256 0
-651 -257 0
-651 -258 0
-651 -259 0
-651 -260 0
-651 -261 0
-651 -262 0
-651 -263 0
-651 -264 0
-651 -265 0
-651 -266 0
-651 -267 0
-651 -268 0
-651 -272 0
-652 -222 0
-652 -223 0
-652 -224 0
-652 -225 0
-652 -226 0
-652 -227 0
-652 -228 0
-652 -229 0
-652 -230 0
-652 -231 0
-652 -232 0
-652 -233 0
-652 -234 0
-652 -235 0
-652 -239 0
-652 -240 0
-652 -241 0
-652 -242 0
-652 -243 0
-652 -244 0
-652 -245 0
-652 -246 0
-652 -247 0
-652 -248 0
-652 -249 0
-652 -250 0
-652 -251 0
-652 -252 0
-652 -256 0
-652 -257 0
-652 -258 0
-652 -259 0
-652 -260 0
-652 -261 0
-652 -262 0
-652 -263 0
-652 -264 0
-652 -265 0
-652 -266 0
-652 -267 0
-652 -268 0
-652 -269 0
-273 -290 0
-273 -307 0
-290 -307 0
-274 -291 0
-274 -308 0
-291 -308 0
-275 -292 0
-275 -309 0
-292 -309 0
-276 -293 0
-276 -310 0
-293 -310 0
-277 -294 0
-277 -311 0
-294 -311 0
-278 -295 0
-278 -312 0
-295 -312 0
-279 -296 0
-279 -313 0
-296 -313 0
-280 -297 0
-280 -314 0
-297 -314 0
-281 -298 0
-281 -315 0
-298 -315 0
-282 -299 0
-282 -316 0
-299 -316 0
-283 -300 0
-283 -317 0
-300 -317 0
-284 -301 0
-284 -318 0
-301 -318 0
-285 -302 0
-285 -319 0
-302 -319 0
-286 -303 0
-286 -320 0
-303 -320 0
-287 -304 0
-287 -321 0
-304 -321 0
-288 -305 0
-288 -322 0
-305 -322 0
-289 -306 0
-289 -323 0
-306 -323 0
653 654 655 656 657 658 659 660 661 662 663 664 665 666 667 0
-653 -654 0
-653 -655 0
-653 -656 0
-653 -657 0
-653 -658 0
-653 -659 0
-653 -660 0
-653 -661 0
-653 -662 0
-653 -663 0
-653 -664 0
-653 -665 0
-653 -666 0
-653 -667 0
-654 -655 0
-654 -656 0
-654 -657 0
-654 -658 0
-654 -659 0
-654 -660 0
-654 -661 0
-654 -662 0
-654 -663 0
-654 -664 0
-654 -665 0
-654 -666 0
-654 -667 0
-655 -656 0
-655 -657 0
-655 -658 0
-655 -659 0
-655 -660 0
-655 -661 0
-655 -662 0
-655 -663 0
-655 -664 0
-655 -665 0
-655 -666 0
-655 -667 0
-656 -657 0
-656 -658 0
-656 -659 0
-656 -660 0
-656 -661 0
-656 -662 0
-656 -663 0
-656 -664 0
-656 -665 0
-656 -666 0
-656 -667 0
-657 -658 0
-657 -659 0
-657 -660 0
-657 -661 0
-657 -662 0
-657 -663 0
-657 -664 0
-657 -665 0
-657 -666 0
-657 -667 0
-658 -659 0
-658 -660 0
-658 -661 0
-658 -662 0
-658 -663 0
-658 -664 0
-658 -665 0
-658 -666 0
-658 -667 0
-659 -660 0
-659 -661 0
-659 -662 0
-659 -663 0
-659 -664 0
-659 -665 0
-659 -666 0
-659 -667 0
-660 -661 0
-660 -662 0
-660 -663 0
-660 -664 0
-660 -665 0
-660 -666 0
-660 -667 0
-661 -662 0
-661 -663 0
-661 -664 0
-661 -665 0
-661 -666 0
-661 -667 0
-662 -663 0
-662 -664 0
-662 -665 0
-662 -666 0
-662 -667 0
-663 -664 0
-663 -665 0
-663 -666 0
-663 -667 0
-664 -665 0
-664 -666 0
-664 -667 0
-665 -666 0
-665 -667 0
-666 -667 0
-273 653 0
-274 653 654 0
-275 653 654 655 0
-276 654 655 656 0
-277 655 656 657 0
-278 656 657 658 0
-279 657 658 659 0
-280 658 659 660 0
-281 659 660 661 0
-282 660 661 662 0
-283 661 662 663 0
-284 662 663 664 0
-285 663 664 665 0
-286 664 665 666 0
-287 665 666 667 0
-288 666 667 0
-289 667 0
-290 653 0
-291 653 654 0
-292 653 654 655 0
-293 654 655 656 0
-294 655 656 657 0
-295 656 657 658 0
-296 657 658 659 0
-297 658 659 660 0
-298 659 660 661 0
-299 660 661 662 0
-300 661 662 663 0
-301 662 663 664 0
-302 663 664 665 0
-303 664 665 666 0
-304 665 666 667 0
-305 666 667 0
-306 667 0
-307 653 0
-308 653 654 0
-309 653 654 655 0
-310 654 655 656 0
-311 655 656 657 0
-312 656 657 658 0
-313 657 658 659 0
-314 658 659 660 0
-315 659 660 661 0
-316 660 661 662 0
-317 661 662 663 0
-318 662 663 664 0
-319 663 664 665 0
-320 664 665 666 0
-321 665 666 667 0
-322 666 667 0
-323 667 0
-653 -276 0
-653 -277 0
-653 -278 0
-653 -279 0
-653 -280 0
-653 -281 0
-653 -282 0
-653 -283 0
-653 -284 0
-653 -285 0
-653 -286 0
-653 -287 0
-653 -288 0
-653 -289 0
-653 -293 0
-653 -294 0
-653 -295 0
-653 -296 0
-653 -297 0
-653 -298 0
-653 -299 0
-653 -300 0
-653 -301 0
-653 -302 0
-653 -303 0
-653 -304 0
-653 -305 0
-653 -306 0
-653 -310 0
-653 -311 0
-653 -312 0
-653 -313 0
-653 -314 0
-653 -315 0
-653 -316 0
-653 -317 0
-653 -318 0
-653 -319 0
-653 -320 0
-653 -321 0
-653 -322 0
-653 -323 0
-654 -273 0
-654 -277 0
-654 -278 0
-654 -279 0
-654 -280 0
-654 -281 0
-654 -282 0
-654 -283 0
-654 -284 0
-654 -285 0
-654 -286 0
-654 -287 0
-654 -288 0
-654 -289 0
-654 -290 0
-654 -294 0
-654 -295 0
-654 -296 0
-654 -297 0
-654 -298 0
-654 -299 0
-654 -300 0
-654 -301 0
-654 -302 0
-654 -303 0
-654 -304 0
-654 -305 0
-654 -306 0
-654 -307 0
-654 -311 0
-654 -312 0
-654 -313 0
-654 -314 0
-654 -315 0
-654 -316 0
-654 -317 0
-654 -318 0
-654 -319 0
-654 -320 0
-654 -321 0
-654 -322 0
-654 -323 0
-655 -273 0
-655 -274 0
-655 -278 0
-655 -279 0
-655 -280 0
-655 -281 0
-655 -282 0
-655 -283 0
-655 -284 0
-655 -285 0
-655 -286 0
-655 -287 0
-655 -288 0
-655 -289 0
-655 -290 0
-655 -291 0
-655 -295 0
-655 -296 0
-655 -297 0
-655 -298 0
-655 -299 0
-655 -300 0
-655 -301 0
-655 -302 0
-655 -303 0
-655 -304 0
-655 -305 0
-655 -306 0
-655 -307 0
-655 -308 0
-655 -312 0
-655 -313 0
-655 -314 0
-655 -315 0
-655 -316 0
-655 -317 0
-655 -318 0
-655 -319 0
-655 -320 0
-655 -321 0
-655 -322 0
-655 -323 0
-656 -273 0
-656 -274 0
-656 -275 0
-656 -279 0
-656 -280 0
-656 -281 0
-656 -282 0
-656 -283 0
-656 -284 0
-656 -285 0
-656 -286 0
-656 -287 0
-656 -288 0
-656 -289 0
-656 -290 0
-656 -291 0
-656 -292 0
-656 -296 0
-656 -297 0
-656 -298 0
-656 -299 0
-656 -300 0
-656 -301 0
-656 -302 0
-656 -303 0
-656 -304 0
-656 -305 0
-656 -306 0
-656 -307 0
-656 -308 0
-656 -309 0
-656 -313 0
-656 -314 0
-656 -315 0
-656 -316 0
-656 -317 0
-656 -318 0
-656 -319 0
-656 -320 0
-656 -321 0
-656 -322 0
-656 -323 0
-657 -273 0
-657 -274 0
-657 -275 0
-657 -276 0
-657 -280 0
-657 -281 0
-657 -282 0
-657 -283 0
-657 -284 0
-657 -285 0
-657 -286 0
-657 -287 0
-657 -288 0
-657 -289 0
-657 -290 0
-657 -291 0
-657 -292 0
-657 -293 0
-657 -297 0
-657 -298 0
-657 -299 0
-657 -300 0
-657 -301 0
-657 -302 0
-657 -303 0
-657 -304 0
-657 -305 0
-657 -306 0
-657 -307 0
-657 -308 0
-657 -309 0
-657 -310 0
-657 -314 0
-657 -315 0
-657 -316 0
-657 -317 0
-657 -318 0
-657 -319 0
-657 -320 0
-657 -321 0
-657 -322 0
-657 -323 0
-658 -273 0
-658 -274 0
-658 -275 0
-658 -276 0
-658 -277 0
-658 -281 0
-658 -282 0
-658 -283 0
-658 -284 0
-658 -285 0
-658 -286 0
-658 -287 0
-658 -288 0
-658 -289 0
-658 -290 0
-658 -291 0
-658 -292 0
-658 -293 0
-658 -294 0
-658 -298 0
-658 -299 0
-658 -300 0
-658 -301 0
-658 -302 0
-658 -303 0
-658 -304 0
-658 -305 0
-658 -306 0
-658 -307 0
-658 -308 0
-658 -309 0
-658 -310 0
-658 -311 0
-658 -315 0
-658 -316 0
-658 -317 0
-658 -318 0
-658 -319 0
-658 -320 0
-658 -321 0
-658 -322 0
-658 -323 0
-659 -273 0
-659 -274 0
-659 -275 0
-659 -276 0
-659 -277 0
-659 -278 0
-659 -282 0
-659 -283 0
-659 -284 0
-659 -285 0
-659 -286 0
-659 -287 0
-659 -288 0
-659 -289 0
-659 -290 0
-659 -291 0
-659 -292 0
-659 -293 0
-659 -294 0
-659 -295 0
-659 -299 0
-659 -300 0
-659 -301 0
-659 -302 0
-659 -303 0
-659 -304 0
-659 -305 0
-659 -306 0
-659 -307 0
-659 -308 0
-659 -309 0
-659 -310 0
-659 -311 0
-659 -312 0
-659 -316 0
-659 -317 0
-659 -318 0
-659 -319 0
-659 -320 0
-659 -321 0
-659 -322 0
-659 -323 0
-660 -273 0
-660 -274 0
-660 -275 0
-660 -276 0
-660 -277 0
-660 -278 0
-660 -279 0
-660 -283 0
-660 -284 0
-660 -285 0
-660 -286 0
-660 -287 0
-660 -288 0
-660 -289 0
-660 -290 0
-660 -291 0
-660 -292 0
-660 -293 0
-660 -294 0
-660 -295 0
-660 -296 0
-660 -300 0
-660 -301 0
-660 -302 0
-660 -303 0
-660 -304 0
-660 -305 0
-660 -306 0
-660 -307 0
-660 -308 0
-660 -309 0
-660 -310 0
-660 -311 0
-660 -312 0
-660 -313 0
-660 -317 0
-660 -318 0
-660 -319 0
-660 -320 0
-660 -321 0
-660 -322 0
-660 -323 0
-661 -273 0
-661 -274 0
-661 -275 0
-661 -276 0
-661 -277 0
-661 -278 0
-661 -279 0
-661 -280 0
-661 -284 0
-661 -285 0
-661 -286 0
-661 -287 0
-661 -288 0
-661 -289 0
-661 -290 0
-661 -291 0
-661 -292 0
-661 -293 0
-661 -294 0
-661 -295 0
-661 -296 0
-661 -297 0
-661 -301 0
-661 -302 0
-661 -303 0
-661 -304 0
-661 -305 0
-661 -306 0
-661 -307 0
-661 -308 0
-661 -309 0
-661 -310 0
-661 -311 0
-661 -312 0
-661 -313 0
-661 -314 0
-661 -318 0
-661 -319 0
-661 -320 0
-661 -321 0
-661 -322 0
-661 -323 0
-662 -273 0
-662 -274 0
-662 -275 0
-662 -276 0
-662 -277 0
-662 -278 0
-662 -279 0
-662 -280 0
-662 -281 0
-662 -285 0
-662 -286 0
-662 -287 0
-662 -288 0
-662 -289 0
-662 -290 0
-662 -291 0
-662 -292 0
-662 -293 0
-662 -294 0
-662 -295 0
-662 -296 0
-662 -297 0
-662 -298 0
-662 -302 0
-662 -303 0
-662 -304 0
-662 -305 0
-662 -306 0
-662 -307 0
-662 -308 0
-662 -309 0
-662 -310 0
-662 -311 0
-662 -312 0
-662 -313 0
-662 -314 0
-662 -315 0
-662 -319 0
-662 -320 0
-662 -321 0
-662 -322 0
-662 -323 0
-663 -273 0
-663 -274 0
-663 -275 0
-663 -276 0
-663 -277 0
-663 -278 0
-663 -279 0
-663 -280 0
-663 -281 0
-663 -282 0
-663 -286 0
-663 -287 0
-663 -288 0
-663 -289 0
-663 -290 0
-663 -291 0
-663 -292 0
-663 -293 0
-663 -294 0
-663 -295 0
-663 -296 0
-663 -297 0
-663 -298 0
-663 -299 0
-663 -303 0
-663 -304 0
-663 -305 0
-663 -306 0
-663 -307 0
-663 -308 0
-663 -309 0
-663 -310 0
-663 -311 0
-663 -312 0
-663 -313 0
-663 -314 0
-663 -315 0
-663 -316 0
-663 -320 0
-663 -321 0
-663 -322 0
-663 -323 0
-664 -273 0
-664 -274 0
-664 -275 0
-664 -276 0
-664 -277 0
-664 -278 0
-664 -279 0
-664 -280 0
-664 -281 0
-664 -282 0
-664 -283 0
-664 -287 0
-664 -288 0
-664 -289 0
-664 -290 0
-664 -291 0
-664 -292 0
-664 -293 0
-664 -294 0
-664 -295 0
-664 -296 0
-664 -297 0
-664 -298 0
-664 -299 0
-664 -300 0
-664 -304 0
-664 -305 0
-664 -306 0
-664 -307 0
-664 -308 0
-664 -309 0
-664 -310 0
-664 -311 0
-664 -312 0
-664 -313 0
-664 -314 0
-664 -315 0
-664 -316 0
-664 -317 0
-664 -321 0
-664 -322 0
-664 -323 0
-665 -273 0
-665 -274 0
-665 -275 0
-665 -276 0
-665 -277 0
-665 -278 0
-665 -279 0
-665 -280 0
-665 -281 0
-665 -282 0
-665 -283 0
-665 -284 0
-665 -288 0
-665 -289 0
-665 -290 0
-665 -291 0
-665 -292 0
-665 -293 0
-665 -294 0
-665 -295 0
-665 -296 0
-665 -297 0
-665 -298 0
-665 -299 0
-665 -300 0
-665 -301 0
-665 -305 0
-665 -306 0
-665 -307 0
-665 -308 0
-665 -309 0
-665 -310 0
-665 -311 0
-665 -312 0
-665 -313 0
-665 -314 0
-665 -315 0
-665 -316 0
-665 -317 0
-665 -318 0
-665 -322 0
-665 -323 0
-666 -273 0
-666 -274 0
-666 -275 0
-666 -276 0
-666 -277 0
-666 -278 0
-666 -279 0
-666 -280 0
-666 -281 0
-666 -282 0
-666 -283 0
-666 -284 0
-666 -285 0
-666 -289 0
-666 -290 0
-666 -291 0
-666 -292 0
-666 -293 0
-666 -294 0
-666 -295 0
-666 -296 0
-666 -297 0
-666 -298 0
-666 -299 0
-666 -300 0
-666 -301 0
-666 -302 0
-666 -306 0
-666 -307 0
-666 -308 0
-666 -309 0
-666 -310 0
-666 -311 0
-666 -312 0
-666 -313 0
-666 -314 0
-666 -315 0
-666 -316 0
-666 -317 0
-666 -318 0
-666 -319 0
-666 -323 0
-667 -273 0
-667 -274 0
-667 -275 0
-667 -276 0
-667 -277 0
-667 -278 0
-667 -279 0
-667 -280 0
-667 -281 0
-667 -282 0
-667 -283 0
-667 -284 0
-667 -285 0
-667 -286 0
-667 -290 0
-667 -291 0
-667 -292 0
-667 -293 0
-667 -294 0
-667 -295 0
-667 -296 0
-667 -297 0
-667 -298 0
-667 -299 0
-667 -300 0
-667 -301 0
-667 -302 0
-667 -303 0
-667 -307 0
-667 -308 0
-667 -309 0
-667 -310 0
-667 -311 0
-667 -312 0
-667 -313 0
-667 -314 0
-667 -315 0
-667 -316 0
-667 -317 0
-667 -318 0
-667 -319 0
-667 -320 0
-324 -341 0
-324 -358 0
-341 -358 0
-325 -342 0
-325 -359 0
-342 -359 0
-326 -343 0
-326 -360 0
-343 -360 0
-327 -344 0
-327 -361 0
-344 -361 0
-328 -345 0
-328 -362 0
-345 -362 0
-329 -346 0
-329 -363 0
-346 -363 0
-330 -347 0
-330 -364 0
-347 -364 0
-331 -348 0
-331 -365 0
-348 -365 0
-332 -349 0
-332 -366 0
-349 -366 0
-333 -350 0
-333 -367 0
-350 -367 0
-334 -351 0
-334 -368 0
-351 -368 0
-335 -352 0
-335 -369 0
-352 -369 0
-336 -353 0
-336 -370 0
-353 -370 0
-337 -354 0
-337 -371 0
-354 -371 0
-338 -355 0
-338 -372 0
-355 -372 0
-339 -356 0
-339 -373 0
-356 -373 0
-340 -357 0
-340 -374 0
-357 -374 0
668 669 670 671 672 673 674 675 676 677 678 679 680 681 682 0
-668 -669 0
-668 -670 0
-668 -671 0
-668 -672 0
-668 -673 0
-668 -674 0
-668 -675 0
-668 -676 0
-668 -677 0
-668 -678 0
-668 -679 0
-668 -680 0
-668 -681 0
-668 -682 0
-669 -670 0
-669 -671 0
-669 -672 0
-669 -673 0
-669 -674 0
-669 -675 0
-669 -676 0
-669 -677 0
-669 -678 0
-669 -679 0
-669 -680 0
-669 -681 0
-669 -682 0
-670 -671 0
-670 -672 0
-670 -673 0
-670 -674 0
-670 -675 0
-670 -676 0
-670 -677 0
-670 -678 0
-670 -679 0
-670 -680 0
-670 -681 0
-670 -682 0
-671 -672 0
-671 -673 0
-671 -674 0
-671 -675 0
-671 -676 0
-671 -677 0
-671 -678 0
-671 -679 0
-671 -680 0
-671 -681 0
-671 -682 0
-672 -673 0
-672 -674 0
-672 -675 0
-672 -676 0
-672 -677 0
-672 -678 0
-672 -679 0
-672 -680 0
-672 -681 0
-672 -682 0
-673 -674 0
-673 -675 0
-673 -676 0
-673 -677 0
-673 -678 0
-673 -679 0
-673 -680 0
-673 -681 0
-673 -682 0
-674 -675 0
-674 -676 0
-674 -677 0
-674 -678 0
-674 -679 0
-674 -680 0
-674 -681 0
-674 -682 0
-675 -676 0
-675 -677 0
-675 -678 0
-675 -679 0
-675 -680 0
-675 -681 0
-675 -682 0
-676 -677 0
-676 -678 0
-676 -679 0
-676 -680 0
-676 -681 0
-676 -682 0
-677 -678 0
-677 -679 0
-677 -680 0
-677 -681 0
-677 -682 0
-678 -679 0
-678 -680 0
-678 -681 0
-678 -682 0
-679 -680 0
-679 -681 0
-679 -682 0
-680 -681 0
-680 -682 0
-681 -682 0
-324 668 0
-325 668 669 0
-326 668 669 670 0
-327 669 670 671 0
-328 670 671 672 0
-329 671 672 673 0
-330 672 673 674 0
-331 673 674 675 0
-332 674 675 676 0
-333 675 676 677 0
-334 676 677 678 0
-335 677 678 679 0
-336 678 679 680 0
-337 679 680 681 0
-338 680 681 682 0
-339 681 682 0
-340 682 0
-341 668 0
-342 668 669 0
-343 668 669 670 0
-344 669 670 671 0
-345 670 671 672 0
-346 671 672 673 0
-347 672 673 674 0
-348 673 674 675 0
-349 674 675 676 0
-350 675 676 677 0
-351 676 677 678 0
-352 677 678 679 0
-353 678 679 680 0
-354 679 680 681 0
-355 680 681 682 0
-356 681 682 0
-357 682 0
-358 668 0
-359 668 669 0
-360 668 669 670 0
-361 669 670 671 0
-362 670 671 672 0
-363 671 672 673 0
-364 672 673 674 0
-365 673 674 675 0
-366 674 675 676 0
-367 675 676 677 0
-368 676 677 678 0
-369 677 678 679 0
-370 678 679 680 0
-371 679 680 681 0
-372 680 681 682 0
-373 681 682 0
-374 682 0
-668 -327 0
-668 -328 0
-668 -329 0
-668 -330 0
-668 -331 0
-668 -332 0
-668 -333 0
-668 -334 0
-668 -335 0
-668 -336 0
-668 -337 0
-668 -338 0
-668 -339 0
-668 -340 0
-668 -344 0
-668 -345 0
-668 -346 0
-668 -347 0
-668 -348 0
-668 -349 0
-668 -350 0
-668 -351 0
-668 -352 0
-668 -353 0
-668 -354 0
-668 -355 0
-668 -356 0
-668 -357 0
-668 -361 0
-668 -362 0
-668 -363 0
-668 -364 0
-668 -365 0
-668 -366 0
-668 -367 0
-668 -368 0
-668 -369 0
-668 -370 0
-668 -371 0
-668 -372 0
-668 -373 0
-668 -374 0
-669 -324 0
-669 -328 0
-669 -329 0
-669 -330 0
-669 -331 0
-669 -332 0
-669 -333 0
-669 -334 0
-669 -335 0
-669 -336 0
-669 -337 0
-669 -338 0
-669 -339 0
-669 -340 0
-669 -341 0
-669 -345 0
-669 -346 0
-669 -347 0
-669 -348 0
-669 -349 0
-669 -350 0
-669 -351 0
-669 -352 0
-669 -353 0
-669 -354 0
-669 -355 0
-669 -356 0
-669 -357 0
-669 -358 0
-669 -362 0
-669 -363 0
-669 -364 0
-669 -365 0
-669 -366 0
-669 -367 0
-669 -368 0
-669 -369 0
-669 -370 0
-669 -371 0
-669 -372 0
-669 -373 0
-669 -374 0
-670 -324 0
-670 -325 0
-670 -329 0
-670 -330 0
-670 -331 0
-670 -332 0
-670 -333 0
-670 -334 0
-670 -335 0
-670 -336 0
-670 -337 0
-670 -338 0
-670 -339 0
-670 -340 0
-670 -341 0
-670 -342 0
-670 -346 0
-670 -347 0
-670 -348 0
-670 -349 0
-670 -350 0
-670 -351 0
-670 -352 0
-670 -353 0
-670 -354 0
-670 -355 0
-670 -356 0
-670 -357 0
-670 -358 0
-670 -359 0
-670 -363 0
-670 -364 0
-670 -365 0
-670 -366 0
-670 -367 0
-670 -368 0
-670 -369 0
-670 -370 0
-670 -371 0
-670 -372 0
-670 -373 0
-670 -374 0
-671 -324 0
-671 -325 0
-671 -326 0
-671 -330 0
-671 -331 0
-671 -332 0
-671 -333 0
-671 -334 0
-671 -335 0
-671 -336 0
-671 -337 0
-671 -338 0
-671 -339 0
-671 -340 0
-671 -341 0
-671 -342 0
-671 -343 0
-671 -347 0
-671 -348 0
-671 -349 0
-671 -350 0
-671 -351 0
-671 -352 0
-671 -353 0
-671 -354 0
-671 -355 0
-671 -356 0
-671 -357 0
-671 -358 0
-671 -359 0
-671 -360 0
-671 -364 0
-671 -365 0
-671 -366 0
-671 -367 0
-671 -368 0
-671 -369 0
-671 -370 0
-671 -371 0
-671 -372 0
-671 -373 0
-671 -374 0
-672 -324 0
-672 -325 0
-672 -326 0
-672 -327 0
-672 -331 0
-672 -332 0
-672 -333 0
-672 -334 0
-672 -335 0
-672 -336 0
-672 -337 0
-672 -338 0
-672 -339 0
-672 -340 0
-672 -341 0
-672 -342 0
-672 -343 0
-672 -344 0
-672 -348 0
-672 -349 0
-672 -350 0
-672 -351 0
-672 -352 0
-672 -353 0
-672 -354 0
-672 -355 0
-672 -356 0
-672 -357 0
-672 -358 0
-672 -359 0
-672 -360 0
-672 -361 0
-672 -365 0
-672 -366 0
-672 -367 0
-672 -368 0
-672 -369 0
-672 -370 0
-672 -371 0
-672 -372 0
-672 -373 0
-672 -374 0
-673 -324 0
-673 -325 0
-673 -326 0
-673 -327 0
-673 -328 0
-673 -332 0
-673 -333 0
-673 -334 0
-673 -335 0
-673 -336 0
-673 -337 0
-673 -338 0
-673 -339 0
-673 -340 0
-673 -341 0
-673 -342 0
-673 -343 0
-673 -344 0
-673 -345 0
-673 -349 0
-673 -350 0
-673 -351 0
-673 -352 0
-673 -353 0
-673 -354 0
-673 -355 0
-673 -356 0
-673 -357 0
-673 -358 0
-673 -359 0
-673 -360 0
-673 -361 0
-673 -362 0
-673 -366 0
-673 -367 0
-673 -368 0
-673 -369 0
-673 -370 0
-673 -371 0
-673 -372 0
-673 -373 0
-673 -374 0
-674 -324 0
-674 -325 0
-674 -326 0
-674 -327 0
-674 -328 0
-674 -329 0
-674 -333 0
-674 -334 0
-674 -335 0
-674 -336 0
-674 -337 0
-674 -338 0
-674 -339 0
-674 -340 0
-674 -341 0
-674 -342 0
-674 -343 0
-674 -344 0
-674 -345 0
-674 -346 0
-674 -350 0
-674 -351 0
-674 -352 0
-674 -353 0
-674 -354 0
-674 -355 0
-674 -356 0
-674 -357 0
-674 -358 0
-674 -359 0
-674 -360 0
-674 -361 0
-674 -362 0
-674 -363 0
-674 -367 0
-674 -368 0
-674 -369 0
-674 -370 0
-674 -371 0
-674 -372 0
-674 -373 0
-674 -374 0
-675 -324 0
-675 -325 0
-675 -326 0
-675 -327 0
-675 -328 0
-675 -329 0
-675 -330 0
-675 -334 0
-675 -335 0
-675 -336 0
-675 -337 0
-675 -338 0
-675 -339 0
-675 -340 0
-675 -341 0
-675 -342 0
-675 -343 0
-675 -344 0
-675 -345 0
-675 -346 0
-675 -347 0
-675 -351 0
-675 -352 0
-675 -353 0
-675 -354 0
-675 -355 0
-675 -356 0
-675 -357 0
-675 -358 0
-675 -359 0
-675 -360 0
-675 -361 0
-675 -362 0
-675 -363 0
-675 -364 0
-675 -368 0
-675 -369 0
-675 -370 0
-675 -371 0
-675 -372 0
-675 -373 0
-675 -374 0
-676 -324 0
-676 -325 0
-676 -326 0
-676 -327 0
-676 -328 0
-676 -329 0
-676 -330 0
-676 -331 0
-676 -335 0
-676 -336 0
-676 -337 0
-676 -338 0
-676 -339 0
-676 -340 0
-676 -341 0
-676 -342 0
-676 -343 0
-676 -344 0
-676 -345 0
-676 -346 0
-676 -347 0
-676 -348 0
-676 -352 0
-676 -353 0
-676 -354 0
-676 -355 0
-676 -356 0
-676 -357 0
-676 -358 0
-676 -359 0
-676 -360 0
-676 -361 0
-676 -362 0
-676 -363 0
-676 -364 0
-676 -365 0
-676 -369 0
-676 -370 0
-676 -371 0
-676 -372 0
-676 -373 0
-676 -374 0
-677 -324 0
-677 -325 0
-677 -326 0
-677 -327 0
-677 -328 0
-677 -329 0
-677 -330 0
-677 -331 0
-677 -332 0
-677 -336 0
-677 -337 0
-677 -338 0
-677 -339 0
-677 -340 0
-677 -341 0
-677 -342 0
-677 -343 0
-677 -344 0
-677 -345 0
-677 -346 0
-677 -347 0
-677 -348 0
-677 -349 0
-677 -353 0
-677 -354 0
-677 -355 0
-677 -356 0
-677 -357 0
-677 -358 0
-677 -359 0
-677 -360 0
-677 -361 0
-677 -362 0
-677 -363 0
-677 -364 0
-677 -365 0
-677 -366 0
-677 -370 0
-677 -371 0
-677 -372 0
-677 -373 0
-677 -374 0
-678 -324 0
-678 -325 0
-678 -326 0
-678 -327 0
-678 -328 0
-678 -329 0
-678 -330 0
-678 -331 0
-678 -332 0
-678 -333 0
-678 -337 0
-678 -338 0
-678 -339 0
-678 -340 0
-678 -341 0
-678 -342 0
-678 -343 0
-678 -344 0
-678 -345 0
-678 -346 0
-678 -347 0
-678 -348 0
-678 -349 0
-678 -350 0
-678 -354 0
-678 -355 0
-678 -356 0
-678 -357 0
-678 -358 0
-678 -359 0
-678 -360 0
-678 -361 0
-678 -362 0
-678 -363 0
-678 -364 0
-678 -365 0
-678 -366 0
-678 -367 0
-678 -371 0
-678 -372 0
-678 -373 0
-678 -374 0
-679 -324 0
-679 -325 0
-679 -326 0
-679 -327 0
-679 -328 0
-679 -329 0
-679 -330 0
-679 -331 0
-679 -332 0
-679 -333 0
-679 -334 0
-679 -338 0
-679 -339 0
-679 -340 0
-679 -341 0
-679 -342 0
-679 -343 0
-679 -344 0
-679 -345 0
-679 -346 0
-679 -347 0
-679 -348 0
-679 -349 0
-679 -350 0
-679 -351 0
-679 -355 0
-679 -356 0
-679 -357 0
-679 -358 0
-679 -359 0
-679 -360 0
-679 -361 0
-679 -362 0
-679 -363 0
-679 -364 0
-679 -365 0
-679 -366 0
-679 -367 0
-679 -368 0
-679 -372 0
-679 -373 0
-679 -374 0
-680 -324 0
-680 -325 0
-680 -326 0
-680 -327 0
-680 -328 0
-680 -329 0
-680 -330 0
-680 -331 0
-680 -332 0
-680 -333 0
-680 -334 0
-680 -335 0
-680 -339 0
-680 -340 0
-680 -341 0
-680 -342 0
-680 -343 0
-680 -344 0
-680 -345 0
-680 -346 0
-680 -347 0
-680 -348 0
-680 -349 0
-680 -350 0
-680 -351 0
-680 -352 0
-680 -356 0
-680 -357 0
-680 -358 0
-680 -359 0
-680 -360 0
-680 -361 0
-680 -362 0
-680 -363 0
-680 -364 0
-680 -365 0
-680 -366 0
-680 -367 0
-680 -368 0
-680 -369 0
-680 -373 0
-680 -374 0
-681 -324 0
-681 -325 0
-681 -326 0
-681 -327 0
-681 -328 0
-681 -329 0
-681 -330 0
-681 -331 0
-681 -332 0
-681 -333 0
-681 -334 0
-681 -335 0
-681 -336 0
-681 -340 0
-681 -341 0
-681 -342 0
-681 -343 0
-681 -344 0
-681 -345 0
-681 -346 0
-681 -347 0
-681 -348 0
-681 -349 0
-681 -350 0
-681 -351 0
-681 -352 0
-681 -353 0
-681 -357 0
-681 -358 0
-681 -359 0
-681 -360 0
-681 -361 0
-681 -362 0
-681 -363 0
-681 -364 0
-681 -365 0
-681 -366 0
-681 -367 0
-681 -368 0
-681 -369 0
-681 -370 0
-681 -374 0
-682 -324 0
-682 -325 0
-682 -326 0
-682 -327 0
-682 -328 0
-682 -329 0
-682 -330 0
-682 -331 0
-682 -332 0
-682 -333 0
-682 -334 0
-682 -335 0
-682 -336 0
-682 -337 0
-682 -341 0
-682 -342 0
-682 -343 0
-682 -344 0
-682 -345 0
-682 -346 0
-682 -347 0
-682 -348 0
-682 -349 0
-682 -350 0
-682 -351 0
-682 -352 0
-682 -353 0
-682 -354 0
-682 -358 0
-682 -359 0
-682 -360 0
-682 -361 0
-682 -362 0
-682 -363 0
-682 -364 0
-682 -365 0
-682 -366 0
-682 -367 0
-682 -368 0
-682 -369 0
-682 -370 0
-682 -371 0
-375 -392 0
-375 -409 0
-392 -409 0
-376 -393 0
-376 -410 0
-393 -410 0
-377 -394 0
-377 -411 0
-394 -411 0
-378 -395 0
-378 -412 0
-395 -412 0
-379 -396 0
-379 -413 0
-396 -413 0
-380 -397 0
-380 -414 0
-397 -414 0
-381 -398 0
-381 -415 0
-398 -415 0
-382 -399 0
-382 -416 0
-399 -416 0
-383 -400 0
-383 -417 0
-400 -417 0
-384 -401 0
-384 -418 0
-401 -418 0
-385 -402 0
-385 -419 0
-402 -419 0
-386 -403 0
-386 -420 0
-403 -420 0
-387 -404 0
-387 -421 0
-404 -421 0
-388 -405 0
-388 -422 0
-405 -422 0
-389 -406 0
-389 -423 0
-406 -423 0
-390 -407 0
-390 -424 0
-407 -424 0
-391 -408 0
-391 -425 0
-408 -425 0
683 684 685 686 687 688 689 690 691 692 693 694 695 696 697 0
-683 -684 0
-683 -685 0
-683 -686 0
-683 -687 0
-683 -688 0
-683 -689 0
-683 -690 0
-683 -691 0
-683 -692 0
-683 -693 0
-683 -694 0
-683 -695 0
-683 -696 0
-683 -697 0
-684 -685 0
-684 -686 0
-684 -687 0
-684 -688 0
-684 -689 0
-684 -690 0
-684 -691 0
-684 -692 0
-684 -693 0
-684 -694 0
-684 -695 0
-684 -696 0
-684 -697 0
-685 -686 0
-685 -687 0
-685 -688 0
-685 -689 0
-685 -690 0
-685 -691 0
-685 -692 0
-685 -693 0
-685 -694 0
-685 -695 0
-685 -696 0
-685 -697 0
-686 -687 0
-686 -688 0
-686 -689 0
-686 -690 0
-686 -691 0
-686 -692 0
-686 -693 0
-686 -694 0
-686 -695 0
-686 -696 0
-686 -697 0
-687 -688 0
-687 -689 0
-687 -690 0
-687 -691 0
-687 -692 0
-687 -693 0
-687 -694 0
-687 -695 0
-687 -696 0
-687 -697 0
-688 -689 0
-688 -690 0
-688 -691 0
-688 -692 0
-688 -693 0
-688 -694 0
-688 -695 0
-688 -696 0
-688 -697 0
-689 -690 0
-689 -691 0
-689 -692 0
-689 -693 0
-689 -694 0
-689 -695 0
-689 -696 0
-689 -697 0
-690 -691 0
-690 -692 0
-690 -693 0
-690 -694 0
-690 -695 0
-690 -696 0
-690 -697 0
-691 -692 0
-691 -693 0
-691 -694 0
-691 -695 0
-691 -696 0
-691 -697 0
-692 -693 0
-692 -694 0
-692 -695 0
-692 -696 0
-692 -697 0
-693 -694 0
-693 -695 0
-693 -696 0
-693 -697 0
-694 -695 0
-694 -696 0
-694 -697 0
-695 -696 0
-695 -697 0
-696 -697 0
-375 683 0
-376 683 684 0
-377 683 684 685 0
-378 684 685 686 0
-379 685 686 687 0
-380 686 687 688 0
-381 687 688 689 0
-382 688 689 690 0
-383 689 690 691 0
-384 690 691 692 0
-385 691 692 693 0
-386 692 693 694 0
-387 693 694 695 0
-388 694 695 696 0
-389 695 696 697 0
-390 696 697 0
-391 697 0
-392 683 0
-393 683 684 0
-394 683 684 685 0
-395 684 685 686 0
-396 685 686 687 0
-397 686 687 688 0
-398 687 688 689 0
-399 688 689 690 0
-400 689 690 691 0
-401 690 691 692 0
-402 691 692 693 0
-403 692 693 694 0
-404 693 694 695 0
-405 694 695 696 0
-406 695 696 697 0
-407 696 697 0
-408 697 0
-409 683 0
-410 683 684 0
-411 683 684 685 0
-412 684 685 686 0
-413 685 686 687 0
-414 686 687 688 0
-415 687 688 689 0
-416 688 689 690 0
-417 689 690 691 0
-418 690 691 692 0
-419 691 692 693 0
-420 692 693 694 0
-421 693 694 695 0
-422 694 695 696 0
-423 695 696 697 0
-424 696 697 0
-425 697 0
-683 -378 0
-683 -379 0
-683 -380 0
-683 -381 0
-683 -382 0
-683 -383 0
-683 -384 0
-683 -385 0
-683 -386 0
-683 -387 0
-683 -388 0
-683 -389 0
-683 -390 0
-683 -391 0
-683 -395 0
-683 -396 0
-683 -397 0
-683 -398 0
-683 -399 0
-683 -400 0
-683 -401 0
-683 -402 0
-683 -403 0
-683 -404 0
-683 -405 0
-683 -406 0
-683 -407 0
-683 -408 0
-683 -412 0
-683 -413 0
-683 -414 0
-683 -415 0
-683 -416 0
-683 -417 0
-683 -418 0
-683 -419 0
-683 -420 0
-683 -421 0
-683 -422 0
-683 -423 0
-683 -424 0
-683 -425 0
-684 -375 0
-684 -379 0
-684 -380 0
-684 -381 0
-684 -382 0
-684 -383 0
-684 -384 0
-684 -385 0
-684 -386 0
-684 -387 0
-684 -388 0
-684 -389 0
-684 -390 0
-684 -391 0
-684 -392 0
-684 -396 0
-684 -397 0
-684 -398 0
-684 -399 0
-684 -400 0
-684 -401 0
-684 -402 0
-684 -403 0
-684 -404 0
-684 -405 0
-684 -406 0
-684 -407 0
-684 -408 0
-684 -409 0
-684 -413 0
-684 -414 0
-684 -415 0
-684 -416 0
-684 -417 0
-684 -418 0
-684 -419 0
-684 -420 0
-684 -421 0
-684 -422 0
-684 -423 0
-684 -424 0
-684 -425 0
-685 -375 0
-685 -376 0
-685 -380 0
-685 -381 0
-685 -382 0
-685 -383 0
-685 -384 0
-685 -385 0
-685 -386 0
-685 -387 0
-685 -388 0
-685 -389 0
-685 -390 0
-685 -391 0
-685 -392 0
-685 -393 0
-685 -397 0
-685 -398 0
-685 -399 0
-685 -400 0
-685 -401 0
-685 -402 0
-685 -403 0
-685 -404 0
-685 -405 0
-685 -406 0
-685 -407 0
-685 -408 0
-685 -409 0
-685 -410 0
-685 -414 0
-685 -415 0
-685 -416 0
-685 -417 0
-685 -418 0
-685 -419 0
-685 -420 0
-685 -421 0
-685 -422 0
-685 -423 0
-685 -424 0
-685 -425 0
-686 -375 0
-686 -376 0
-686 -377 0
-686 -381 0
-686 -382 0
-686 -383 0
-686 -384 0
-686 -385 0
-686 -386 0
-686 -387 0
-686 -388 0
-686 -389 0
-686 -390 0
-686 -391 0
-686 -392 0
-686 -393 0
-686 -394 0
-686 -398 0
-686 -399 0
-686 -400 0
-686 -401 0
-686 -402 0
-686 -403 0
-686 -404 0
-686 -405 0
-686 -406 0
-686 -407 0
-686 -408 0
-686 -409 0
-686 -410 0
-686 -411 0
-686 -415 0
-686 -416 0
-686 -417 0
-686 -418 0
-686 -419 0
-686 -420 0
-686 -421 0
-686 -422 0
-686 -423 0
-686 -424 0
-686 -425 0
-687 -375 0
-687 -376 0
-687 -377 0
-687 -378 0
-687 -382 0
-687 -383 0
-687 -384 0
-687 -385 0
-687 -386 0
-687 -387 0
-687 -388 0
-687 -389 0
-687 -390 0
-687 -391 0
-687 -392 0
-687 -393 0
-687 -394 0
-687 -395 0
-687 -399 0
-687 -400 0
-687 -401 0
-687 -402 0
-687 -403 0
-687 -404 0
-687 -405 0
-687 -406 0
-687 -407 0
-687 -408 0
-687 -409 0
-687 -410 0
-687 -411 0
-687 -412 0
-687 -416 0
-687 -417 0
-687 -418 0
-687 -419 0
-687 -420 0
-687 -421 0
-687 -422 0
-687 -423 0
-687 -424 0
-687 -425 0
-688 -375 0
-688 -376 0
-688 -377 0
-688 -378 0
-688 -379 0
-688 -383 0
-688 -384 0
-688 -385 0
-688 -386 0
-688 -387 0
-688 -388 0
-688 -389 0
-688 -390 0
-688 -391 0
-688 -392 0
-688 -393 0
-688 -394 0
-688 -395 0
-688 -396 0
-688 -400 0
-688 -401 0
-688 -402 0
-688 -403 0
-688 -404 0
-688 -405 0
-688 -406 0
-688 -407 0
-688 -408 0
-688 -409 0
-688 -410 0
-688 -411 0
-688 -412 0
-688 -413 0
-688 -417 0
-688 -418 0
-688 -419 0
-688 -420 0
-688 -421 0
-688 -422 0
-688 -423 0
-688 -424 0
-688 -425 0
-689 -375 0
-689 -376 0
-689 -377 0
-689 -378 0
-689 -379 0
-689 -380 0
-689 -384 0
-689 -385 0
-689 -386 0
-689 -387 0
-689 -388 0
-689 -389 0
-689 -390 0
-689 -391 0
-689 -392 0
-689 -393 0
-689 -394 0
-689 -395 0
-689 -396 0
-689 -397 0
-689 -401 0
-689 -402 0
-689 -403 0
-689 -404 0
-689 -405 0
-689 -406 0
-689 -407 0
-689 -408 0
-689 -409 0
-689 -410 0
-689 -411 0
-689 -412 0
-689 -413 0
-689 -414 0
-689 -418 0
-689 -419 0
-689 -420 0
-689 -421 0
-689 -422 0
-689 -423 0
-689 -424 0
-689 -425 0
-690 -375 0
-690 -376 0
-690 -377 0
-690 -378 0
-690 -379 0
-690 -380 0
-690 -381 0
-690 -385 0
-690 -386 0
-690 -387 0
-690 -388 0
-690 -389 0
-690 -390 0
-690 -391 0
-690 -392 0
-690 -393 0
-690 -394 0
-690 -395 0
-690 -396 0
-690 -397 0
-690 -398 0
-690 -402 0
-690 -403 0
-690 -404 0
-690 -405 0
-690 -406 0
-690 -407 0
-690 -408 0
-690 -409 0
-690 -410 0
-690 -411 0
-690 -412 0
-690 -413 0
-690 -414 0
-690 -415 0
-690 -419 0
-690 -420 0
-690 -421 0
-690 -422 0
-690 -423 0
-690 -424 0
-690 -425 0
-691 -375 0
-691 -376 0
-691 -377 0
-691 -378 0
-691 -379 0
-691 -380 0
-691 -381 0
-691 -382 0
-691 -386 0
-691 -387 0
-691 -388 0
-691 -389 0
-691 -390 0
-691 -391 0
-691 -392 0
-691 -393 0
-691 -394 0
-691 -395 0
-691 -396 0
-691 -397 0
-691 -398 0
-691 -399 0
-691 -403 0
-691 -404 0
-691 -405 0
-691 -406 0
-691 -407 0
-691 -408 0
-691 -409 0
-691 -410 0
-691 -411 0
-691 -412 0
-691 -413 0
-691 -414 0
-691 -415 0
-691 -416 0
-691 -420 0
-691 -421 0
-691 -422 0
-691 -423 0
-691 -424 0
-691 -425 0
-692 -375 0
-692 -376 0
-692 -377 0
-692 -378 0
-692 -379 0
-692 -380 0
-692 -381 0
-692 -382 0
-692 -383 0
-692 -387 0
-692 -388 0
-692 -389 0
-692 -390 0
-692 -391 0
-692 -392 0
-692 -393 0
-692 -394 0
-692 -395 0
-692 -396 0
-692 -397 0
-692 -398 0
-692 -399 0
-692 -400 0
-692 -404 0
-692 -405 0
-692 -406 0
-692 -407 0
-692 -408 0
-692 -409 0
-692 -410 0
-692 -411 0
-692 -412 0
-692 -413 0
-692 -414 0
-692 -415 0
-692 -416 0
-692 -417 0
-692 -421 0
-692 -422 0
-692 -423 0
-692 -424 0
-692 -425 0
-693 -375 0
-693 -376 0
-693 -377 0
-693 -378 0
-693 -379 0
-693 -380 0
-693 -381 0
-693 -382 0
-693 -383 0
-693 -384 0
-693 -388 0
-693 -389 0
-693 -390 0
-693 -391 0
-693 -392 0
-693 -393 0
-693 -394 0
-693 -395 0
-693 -396 0
-693 -397 0
-693 -398 0
-693 -399 0
-693 -400 0
-693 -401 0
-693 -405 0
-693 -406 0
-693 -407 0
-693 -408 0
-693 -409 0
-693 -410 0
-693 -411 0
-693 -412 0
-693 -413 0
-693 -414 0
-693 -415 0
-693 -416 0
-693 -417 0
-693 -418 0
-693 -422 0
-693 -423 0
-693 -424 0
-693 -425 0
-694 -375 0
-694 -376 0
-694 -377 0
-694 -378 0
-694 -379 0
-694 -380 0
-694 -381 0
-694 -382 0
-694 -383 0
-694 -384 0
-694 -385 0
-694 -389 0
-694 -390 0
-694 -391 0
-694 -392 0
-694 -393 0
-694 -394 0
-694 -395 0
-694 -396 0
-694 -397 0
-694 -398 0
-694 -399 0
-694 -400 0
-694 -401 0
-694 -402 0
-694 -406 0
-694 -407 0
-694 -408 0
-694 -409 0
-694 -410 0
-694 -411 0
-694 -412 0
-694 -413 0
-694 -414 0
-694 -415 0
-694 -416 0
-694 -417 0
-694 -418 0
-694 -419 0
-694 -423 0
-694 -424 0
-694 -425 0
-695 -375 0
-695 -376 0
-695 -377 0
-695 -378 0
-695 -379 0
-695 -380 0
-695 -381 0
-695 -382 0
-695 -383 0
-695 -384 0
-695 -385 0
-695 -386 0
-695 -390 0
-695 -391 0
-695 -392 0
-695 -393 0
-695 -394 0
-695 -395 0
-695 -396 0
-695 -397 0
-695 -398 0
-695 -399 0
-695 -400 0
-695 -401 0
-695 -402 0
-695 -403 0
-695 -407 0
-695 -408 0
-695 -409 0
-695 -410 0
-695 -411 0
-695 -412 0
-695 -413 0
-695 -414 0
-695 -415 0
-695 -416 0
-695 -417 0
-695 -418 0
-695 -419 0
-695 -420 0
-695 -424 0
-695 -425 0
-696 -375 0
-696 -376 0
-696 -377 0
-696 -378 0
-696 -379 0
-696 -380 0
-696 -381 0
-696 -382 0
-696 -383 0
-696 -384 0
-696 -385 0
-696 -386 0
-696 -387 0
-696 -391 0
-696 -392 0
-696 -393 0
-696 -394 0
-696 -395 0
-696 -396 0
-696 -397 0
-696 -398 0
-696 -399 0
-696 -400 0
-696 -401 0
-696 -402 0
-696 -403 0
-696 -404 0
-696 -408 0
-696 -409 0
-696 -410 0
-696 -411 0
-696 -412 0
-696 -413 0
-696 -414 0
-696 -415 0
-696 -416 0
-696 -417 0
-696 -418 0
-696 -419 0
-696 -420 0
-696 -421 0
-696 -425 0
-697 -375 0
-697 -376 0
-697 -377 0
-697 -378 0
-697 -379 0
-697 -380 0
-697 -381 0
-697 -382 0
-697 -383 0
-697 -384 0
-697 -385 0
-697 -386 0
-697 -387 0
-697 -388 0
-697 -392 0
-697 -393 0
-697 -394 0
-697 -395 0
-697 -396 0
-697 -397 0
-697 -398 0
-697 -399 0
-697 -400 0
-697 -401 0
-697 -402 0
-697 -403 0
-697 -404 0
-697 -405 0
-697 -409 0
-697 -410 0
-697 -411 0
-697 -412 0
-697 -413 0
-697 -414 0
-697 -415 0
-697 -416 0
-697 -417 0
-697 -418 0
-697 -419 0
-697 -420 0
-697 -421 0
-697 -422 0
-426 -443 0
-426 -460 0
-443 -460 0
-427 -444 0
-427 -461 0
-444 -461 0
-428 -445 0
-428 -462 0
-445 -462 0
-429 -446 0
-429 -463 0
-446 -463 0
-430 -447 0
-430 -464 0
-447 -464 0
-431 -448 0
-431 -465 0
-448 -465 0
-432 -449 0
-432 -466 0
-449 -466 0
-433 -450 0
-433 -467 0
-450 -467 0
-434 -451 0
-434 -468 0
-451 -468 0
-435 -452 0
-435 -469 0
-452 -469 0
-436 -453 0
-436 -470 0
-453 -470 0
-437 -454 0
-437 -471 0
-454 -471 0
-438 -455 0
-438 -472 0
-455 -472 0
-439 -456 0
-439 -473 0
-456 -473 0
-440 -457 0
-440 -474 0
-457 -474 0
-441 -458 0
-441 -475 0
-458 -475 0
-442 -459 0
-442 -476 0
-459 -476 0
698 699 700 701 702 703 704 705 706 707 708 709 710 711 712 0
-698 -699 0
-698 -700 0
-698 -701 0
-698 -702 0
-698 -703 0
-698 -704 0
-698 -705 0
-698 -706 0
-698 -707 0
-698 -708 0
-698 -709 0
-698 -710 0
-698 -711 0
-698 -712 0
-699 -700 0
-699 -701 0
-699 -702 0
-699 -703 0
-699 -704 0
-699 -705 0
-699 -706 0
-699 -707 0
-699 -708 0
-699 -709 0
-699 -710 0
-699 -711 0
-699 -712 0
-700 -701 0
-700 -702 0
-700 -703 0
-700 -704 0
-700 -705 0
-700 -706 0
-700 -707 0
-700 -708 0
-700 -709 0
-700 -710 0
-700 -711 0
-700 -712 0
-701 -702 0
-701 -703 0
-701 -704 0
-701 -705 0
-701 -706 0
-701 -707 0
-701 -708 0
-701 -709 0
-701 -710 0
-701 -711 0
-701 -712 0
-702 -703 0
-702 -704 0
-702 -705 0
-702 -706 0
-702 -707 0
-702 -708 0
-702 -709 0
-702 -710 0
-702 -711 0
-702 -712 0
-703 -704 0
-703 -705 0
-703 -706 0
-703 -707 0
-703 -708 0
-703 -709 0
-703 -710 0
-703 -711 0
-703 -712 0
-704 -705 0
-704 -706 0
-704 -707 0
-704 -708 0
-704 -709 0
-704 -710 0
-704 -711 0
-704 -712 0
-705 -706 0
-705 -707 0
-705 -708 0
-705 -709 0
-705 -710 0
-705 -711 0
-705 -712 0
-706 -707 0
-706 -708 0
-706 -709 0
-706 -710 0
-706 -711 0
-706 -712 0
-707 -708 0
-707 -709 0
-707 -710 0
-707 -711 0
-707 -712 0
-708 -709 0
-708 -710 0
-708 -711 0
-708 -712 0
-709 -710 0
-709 -711 0
-709 -712 0
-710 -711 0
-710 -712 0
-711 -712 0
-426 698 0
-427 698 699 0
-428 698 699 700 0
-429 699 700 701 0
-430 700 701 702 0
-431 701 702 703 0
-432 702 703 704 0
-433 703 704 705 0
-434 704 705 706 0
-435 705 706 707 0
-436 706 707 708 0
-437 707 708 709 0
-438 708 709 710 0
-439 709 710 711 0
-440 710 711 712 0
-441 711 712 0
-442 712 0
-443 698 0
-444 698 699 0
-445 698 699 700 0
-446 699 700 701 0
-447 700 701 702 0
-448 701 702 703 0
-449 702 703 704 0
-450 703 704 705 0
-451 704 705 706 0
-452 705 706 707 0
-453 706 707 708 0
-454 707 708 709 0
-455 708 709 710 0
-456 709 710 711 0
-457 710 711 712 0
-458 711 712 0
-459 712 0
-460 698 0
-461 698 699 0
-462 698 699 700 0
-463 699 700 701 0
-464 700 701 702 0
-465 701 702 703 0
-466 702 703 704 0
-467 703 704 705 0
-468 704 705 706 0
-469 705 706 707 0
-470 706 707 708 0
-471 707 708 709 0
-472 708 709 710 0
-473 709 710 711 0
-474 710 711 712 0
-475 711 712 0
-476 712 0
-698 -429 0
-698 -430 0
-698 -431 0
-698 -432 0
-698 -433 0
-698 -434 0
-698 -435 0
-698 -436 0
-698 -437 0
-698 -438 0
-698 -439 0
-698 -440 0
-698 -441 0
-698 -442 0
-698 -446 0
-698 -447 0
-698 -448 0
-698 -449 0
-698 -450 0
-698 -451 0
-698 -452 0
-698 -453 0
-698 -454 0
-698 -455 0
-698 -456 0
-698 -457 0
-698 -458 0
-698 -459 0
-698 -463 0
-698 -464 0
-698 -465 0
-698 -466 0
-698 -467 0
-698 -468 0
-698 -469 0
-698 -470 0
-698 -471 0
-698 -472 0
-698 -473 0
-698 -474 0
-698 -475 0
-698 -476 0
-699 -426 0
-699 -430 0
-699 -431 0
-699 -432 0
-699 -433 0
-699 -434 0
-699 -435 0
-699 -436 0
-699 -437 0
-699 -438 0
-699 -439 0
-699 -440 0
-699 -441 0
-699 -442 0
-699 -443 0
-699 -447 0
-699 -448 0
-699 -449 0
-699 -450 0
-699 -451 0
-699 -452 0
-699 -453 0
-699 -454 0
-699 -455 0
-699 -456 0
-699 -457 0
-699 -458 0
-699 -459 0
-699 -460 0
-699 -464 0
-699 -465 0
-699 -466 0
-699 -467 0
-699 -468 0
-699 -469 0
-699 -470 0
-699 -471 0
-699 -472 0
-699 -473 0
-699 -474 0
-699 -475 0
-699 -476 0
-700 -426 0
-700 -427 0
-700 -431 0
-700 -432 0
-700 -433 0
-700 -434 0
-700 -435 0
-700 -436 0
-700 -437 0
-700 -438 0
-700 -439 0
-700 -440 0
-700 -441 0
-700 -442 0
-700 -443 0
-700 -444 0
-700 -448 0
-700 -449 0
-700 -450 0
-700 -451 0
-700 -452 0
-700 -453 0
-700 -454 0
-700 -455 0
-700 -456 0
-700 -457 0
-700 -458 0
-700 -459 0
-700 -460 0
-700 -461 0
-700 -465 0
-700 -466 0
-700 -467 0
-700 -468 0
-700 -469 0
-700 -470 0
-700 -471 0
-700 -472 0
-700 -473 0
-700 -474 0
-700 -475 0
-700 -476 0
-701 -426 0
-701 -427 0
-701 -428 0
-701 -432 0
-701 -433 0
-701 -434 0
-701 -435 0
-701 -436 0
-701 -437 0
-701 -438 0
-701 -439 0
-701 -440 0
-701 -441 0
-701 -442 0
-701 -443 0
-701 -444 0
-701 -445 0
-701 -449 0
-701 -450 0
-701 -451 0
-701 -452 0
-701 -453 0
-701 -454 0
-701 -455 0
-701 -456 0
-701 -457 0
-701 -458 0
-701 -459 0
-701 -460 0
-701 -461 0
-701 -462 0
-701 -466 0
-701 -467 0
-701 -468 0
-701 -469 0
-701 -470 0
-701 -471 0
-701 -472 0
-701 -473 0
-701 -474 0
-701 -475 0
-701 -476 0
-702 -426 0
-702 -427 0
-702 -428 0
-702 -429 0
-702 -433 0
-702 -434 0
-702 -435 0
-702 -436 0
-702 -437 0
-702 -438 0
-702 -439 0
-702 -440 0
-702 -441 0
-702 -442 0
-702 -443 0
-702 -444 0
-702 -445 0
-702 -446 0
-702 -450 0
-702 -451 0
-702 -452 0
-702 -453 0
-702 -454 0
-702 -455 0
-702 -456 0
-702 -457 0
-702 -458 0
-702 -459 0
-702 -460 0
-702 -461 0
-702 -462 0
-702 -463 0
-702 -467 0
-702 -468 0
-702 -469 0
-702 -470 0
-702 -471 0
-702 -472 0
-702 -473 0
-702 -474 0
-702 -475 0
-702 -476 0
-703 -426 0
-703 -427 0
-703 -428 0
-703 -429 0
-703 -430 0
-703 -434 0
-703 -435 0
-703 -436 0
-703 -437 0
-703 -438 0
-703 -439 0
-703 -440 0
-703 -441 0
-703 -442 0
-703 -443 0
-703 -444 0
-703 -445 0
-703 -446 0
-703 -447 0
-703 -451 0
-703 -452 0
-703 -453 0
-703 -454 0
-703 -455 0
-703 -456 0
-703 -457 0
-703 -458 0
-703 -459 0
-703 -460 0
-703 -461 0
-703 -462 0
-703 -463 0
-703 -464 0
-703 -468 0
-703 -469 0
-703 -470 0
-703 -471 0
-703 -472 0
-703 -473 0
-703 -474 0
-703 -475 0
-703 -476 0
-704 -426 0
-704 -427 0
-704 -428 0
-704 -429 0
-704 -430 0
-704 -431 0
-704 -435 0
-704 -436 0
-704 -437 0
-704 -438 0
-704 -439 0
-704 -440 0
-704 -441 0
-704 -442 0
-704 -443 0
-704 -444 0
-704 -445 0
-704 -446 0
-704 -447 0
-704 -448 0
-704 -452 0
-704 -453 0
-704 -454 0
-704 -455 0
-704 -456 0
-704 -457 0
-704 -458 0
-704 -459 0
-704 -460 0
-704 -461 0
-704 -462 0
-704 -463 0
-704 -464 0
-704 -465 0
-704 -469 0
-704 -470 0
-704 -471 0
-704 -472 0
-704 -473 0
-704 -474 0
-704 -475 0
-704 -476 0
-705 -426 0
-705 -427 0
-705 -428 0
-705 -429 0
-705 -430 0
-705 -431 0
-705 -432 0
-705 -436 0
-705 -437 0
-705 -438 0
-705 -439 0
-705 -440 0
-705 -441 0
-705 -442 0
-705 -443 0
-705 -444 0
-705 -445 0
-705 -446 0
-705 -447 0
-705 -448 0
-705 -449 0
-705 -453 0
-705 -454 0
-705 -455 0
-705 -456 0
-705 -457 0
-705 -458 0
-705 -459 0
-705 -460 0
-705 -461 0
-705 -462 0
-705 -463 0
-705 -464 0
-705 -465 0
-705 -466 0
-705 -470 0
-705 -471 0
-705 -472 0
-705 -473 0
-705 -474 0
-705 -475 0
-705 -476 0
-706 -426 0
-706 -427 0
-706 -428 0
-706 -429 0
-706 -430 0
-706 -431 0
-706 -432 0
-706 -433 0
-706 -437 0
-706 -438 0
-706 -439 0
-706 -440 0
-706 -441 0
-706 -442 0
-706 -443 0
-706 -444 0
-706 -445 0
-706 -446 0
-706 -447 0
-706 -448 0
-706 -449 0
-706 -450 0
-706 -454 0
-706 -455 0
-706 -456 0
-706 -457 0
-706 -458 0
-706 -459 0
-706 -460 0
-706 -461 0
-706 -462 0
-706 -463 0
-706 -464 0
-706 -465 0
-706 -466 0
-706 -467 0
-706 -471 0
-706 -472 0
-706 -473 0
-706 -474 0
-706 -475 0
-706 -476 0
-707 -426 0
-707 -427 0
-707 -428 0
-707 -429 0
-707 -430 0
-707 -431 0
-707 -432 0
-707 -433 0
-707 -434 0
-707 -438 0
-707 -439 0
-707 -440 0
-707 -441 0
-707 -442 0
-707 -443 0
-707 -444 0
-707 -445 0
-707 -446 0
-707 -447 0
-707 -448 0
-707 -449 0
-707 -450 0
-707 -451 0
-707 -455 0
-707 -456 0
-707 -457 0
-707 -458 0
-707 -459 0
-707 -460 0
-707 -461 0
-707 -462 0
-707 -463 0
-707 -464 0
-707 -465 0
-707 -466 0
-707 -467 0
-707 -468 0
-707 -472 0
-707 -473 0
-707 -474 0
-707 -475 0
-707 -476 0
-708 -426 0
-708 -427 0
-708 -428 0
-708 -429 0
-708 -430 0
-708 -431 0
-708 -432 0
-708 -433 0
-708 -434 0
-708 -435 0
-708 -439 0
-708 -440 0
-708 -441 0
-708 -442 0
-708 -443 0
-708 -444 0
-708 -445 0
-708 -446 0
-708 -447 0
-708 -448 0
-708 -449 0
-708 -450 0
-708 -451 0
-708 -452 0
-708 -456 0
-708 -457 0
-708 -458 0
-708 -459 0
-708 -460 0
-708 -461 0
-708 -462 0
-708 -463 0
-708 -464 0
-708 -465 0
-708 -466 0
-708 -467 0
-708 -468 0
-708 -469 0
-708 -473 0
-708 -474 0
-708 -475 0
-708 -476 0
-709 -426 0
-709 -427 0
-709 -428 0
-709 -429 0
-709 -430 0
-709 -431 0
-709 -432 0
-709 -433 0
-709 -434 0
-709 -435 0
-709 -436 0
-709 -440 0
-709 -441 0
-709 -442 0
-709 -443 0
-709 -444 0
-709 -445 0
-709 -446 0
-709 -447 0
-709 -448 0
-709 -449 0
-709 -450 0
-709 -451 0
-709 -452 0
-709 -453 0
-709 -457 0
-709 -458 0
-709 -459 0
-709 -460 0
-709 -461 0
-709 -462 0
-709 -463 0
-709 -464 0
-709 -465 0
-709 -466 0
-709 -467 0
-709 -468 0
-709 -469 0
-709 -470 0
-709 -474 0
-709 -475 0
-709 -476 0
-710 -426 0
-710 -427 0
-710 -428 0
-710 -429 0
-710 -430 0
-710 -431 0
-710 -432 0
-710 -433 0
-710 -434 0
-710 -435 0
-710 -436 0
-710 -437 0
-710 -441 0
-710 -442 0
-710 -443 0
-710 -444 0
-710 -445 0
-710 -446 0
-710 -447 0
-710 -448 0
-710 -449 0
-710 -450 0
-710 -451 0
-710 -452 0
-710 -453 0
-710 -454 0
-710 -458 0
-710 -459 0
-710 -460 0
-710 -461 0
-710 -462 0
-710 -463 0
-710 -464 0
-710 -465 0
-710 -466 0
-710 -467 0
-710 -468 0
-710 -469 0
-710 -470 0
-710 -471 0
-710 -475 0
-710 -476 0
-711 -426 0
-711 -427 0
-711 -428 0
-711 -429 0
-711 -430 0
-711 -431 0
-711 -432 0
-711 -433 0
-711 -434 0
-711 -435 0
-711 -436 0
-711 -437 0
-711 -438 0
-711 -442 0
-711 -443 0
-711 -444 0
-711 -445 0
-711 -446 0
-711 -447 0
-711 -448 0
-711 -449 0
-711 -450 0
-711 -451 0
-711 -452 0
-711 -453 0
-711 -454 0
-711 -455 0
-711 -459 0
-711 -460 0
-711 -461 0
-711 -462 0
-711 -463 0
-711 -464 0
-711 -465 0
-711 -466 0
-711 -467 0
-711 -468 0
-711 -469 0
-711 -470 0
-711 -471 0
-711 -472 0
-711 -476 0
-712 -426 0
-712 -427 0
-712 -428 0
-712 -429 0
-712 -430 0
-712 -431 0
-712 -432 0
-712 -433 0
-712 -434 0
-712 -435 0
-712 -436 0
-712 -437 0
-712 -438 0
-712 -439 0
-712 -443 0
-712 -444 0
-712 -445 0
-712 -446 0
-712 -447 0
-712 -448 0
-712 -449 0
-712 -450 0
-712 -451 0
-712 -452 0
-712 -453 0
-712 -454 0
-712 -455 0
-712 -456 0
-712 -460 0
-712 -461 0
-712 -462 0
-712 -463 0
-712 -464 0
-712 -465 0
-712 -466 0
-712 -467 0
-712 -468 0
-712 -469 0
-712 -470 0
-712 -471 0
-712 -472 0
-712 -473 0
-477 -494 0
-477 -511 0
-494 -511 0
-478 -495 0
-478 -512 0
-495 -512 0
-479 -496 0
-479 -513 0
-496 -513 0
-480 -497 0
-480 -514 0
-497 -514 0
-481 -498 0
-481 -515 0
-498 -515 0
-482 -499 0
-482 -516 0
-499 -516 0
-483 -500 0
-483 -517 0
-500 -517 0
-484 -501 0
-484 -518 0
-501 -518 0
-485 -502 0
-485 -519 0
-502 -519 0
-486 -503 0
-486 -520 0
-503 -520 0
-487 -504 0
-487 -521 0
-504 -521 0
-488 -505 0
-488 -522 0
-505 -522 0
-489 -506 0
-489 -523 0
-506 -523 0
-490 -507 0
-490 -524 0
-507 -524 0
-491 -508 0
-491 -525 0
-508 -525 0
-492 -509 0
-492 -526 0
-509 -526 0
-493 -510 0
-493 -527 0
-510 -527 0
713 714 715 716 717 718 719 720 721 722 723 724 725 726 727 0
-713 -714 0
-713 -715 0
-713 -716 0
-713 -717 0
-713 -718 0
-713 -719 0
-713 -720 0
-713 -721 0
-713 -722 0
-713 -723 0
-713 -724 0
-713 -725 0
-713 -726 0
-713 -727 0
-714 -715 0
-714 -716 0
-714 -717 0
-714 -718 0
-714 -719 0
-714 -720 0
-714 -721 0
-714 -722 0
-714 -723 0
-714 -724 0
-714 -725 0
-714 -726 0
-714 -727 0
-715 -716 0
-715 -717 0
-715 -718 0
-715 -719 0
-715 -720 0
-715 -721 0
-715 -722 0
-715 -723 0
-715 -724 0
-715 -725 0
-715 -726 0
-715 -727 0
-716 -717 0
-716 -718 0
-716 -719 0
-716 -720 0
-716 -721 0
-716 -722 0
-716 -723 0
-716 -724 0
-716 -725 0
-716 -726 0
-716 -727 0
-717 -718 0
-717 -719 0
-717 -720 0
-717 -721 0
-717 -722 0
-717 -723 0
-717 -724 0
-717 -725 0
-717 -726 0
-717 -727 0
-718 -719 0
-718 -720 0
-718 -721 0
-718 -722 0
-718 -723 0
-718 -724 0
-718 -725 0
-718 -726 0
-718 -727 0
-719 -720 0
-719 -721 0
-719 -722 0
-719 -723 0
-719 -724 0
-719 -725 0
-719 -726 0
-719 -727 0
-720 -721 0
-720 -722 0
-720 -723 0
-720 -724 0
-720 -725 0
-720 -726 0
-720 -727 0
-721 -722 0
-721 -723 0
-721 -724 0
-721 -725 0
-721 -726 0
-721 -727 0
-722 -723 0
-722 -724 0
-722 -725 0
-722 -726 0
-722 -727 0
-723 -724 0
-723 -725 0
-723 -726 0
-723 -727 0
-724 -725 0
-724 -726 0
-724 -727 0
-725 -726 0
-725 -727 0
-726 -727 0
-477 713 0
-478 713 714 0
-479 713 714 715 0
-480 714 715 716 0
-481 715 716 717 0
-482 716 717 718 0
-483 717 718 719 0
-484 718 719 720 0
-485 719 720 721 0
-486 720 721 722 0
-487 721 722 723 0
-488 722 723 724 0
-489 723 724 725 0
-490 724 725 726 0
-491 725 726 727 0
-492 726 727 0
-493 727 0
-494 713 0
-495 713 714 0
-496 713 714 715 0
-497 714 715 716 0
-498 715 716 717 0
-499 716 717 718 0
-500 717 718 719 0
-501 718 719 720 0
-502 719 720 721 0
-503 720 721 722 0
-504 721 722 723 0
-505 722 723 724 0
-506 723 724 725 0
-507 724 725 726 0
-508 725 726 727 0
-509 726 727 0
-510 727 0
-511 713 0
-512 713 714 0
-513 713 714 715 0
-514 714 715 716 0
-515 715 716 717 0
-516 716 717 718 0
-517 717 718 719 0
-518 718 719 720 0
-519 719 720 721 0
-520 720 721 722 0
-521 721 722 723 0
-522 722 723 724 0
-523 723 724 725 0
-524 724 725 726 0
-525 725 726 727 0
-526 726 727 0
-527 727 0
-713 -480 0
-713 -481 0
-713 -482 0
-713 -483 0
-713 -484 0
-713 -485 0
-713 -486 0
-713 -487 0
-713 -488 0
-713 -489 0
-713 -490 0
-713 -491 0
-713 -492 0
-713 -493 0
-713 -497 0
-713 -498 0
-713 -499 0
-713 -500 0
-713 -501 0
-713 -502 0
-713 -503 0
-713 -504 0
-713 -505 0
-713 -506 0
-713 -507 0
-713 -508 0
-713 -509 0
-713 -510 0
-713 -514 0
-713 -515 0
-713 -516 0
-713 -517 0
-713 -518 0
-713 -519 0
-713 -520 0
-713 -521 0
-713 -522 0
-713 -523 0
-713 -524 0
-713 -525 0
-713 -526 0
-713 -527 0
-714 -477 0
-714 -481 0
-714 -482 0
-714 -483 0
-714 -484 0
-714 -485 0
-714 -486 0
-714 -487 0
-714 -488 0
-714 -489 0
-714 -490 0
-714 -491 0
-714 -492 0
-714 -493 0
-714 -494 0
-714 -498 0
-714 -499 0
-714 -500 0
-714 -501 0
-714 -502 0
-714 -503 0
-714 -504 0
-714 -505 0
-714 -506 0
-714 -507 0
-714 -508 0
-714 -509 0
-714 -510 0
-714 -511 0
-714 -515 0
-714 -516 0
-714 -517 0
-714 -518 0
-714 -519 0
-714 -520 0
-714 -521 0
-714 -522 0
-714 -523 0
-714 -524 0
-714 -525 0
-714 -526 0
-714 -527 0
-715 -477 0
-715 -478 0
-715 -482 0
-715 -483 0
-715 -484 0
-715 -485 0
-715 -486 0
-715 -487 0
-715 -488 0
-715 -489 0
-715 -490 0
-715 -491 0
-715 -492 0
-715 -493 0
-715 -494 0
-715 -495 0
-715 -499 0
-715 -500 0
-715 -501 0
-715 -502 0
-715 -503 0
-715 -504 0
-715 -505 0
-715 -506 0
-715 -507 0
-715 -508 0
-715 -509 0
-715 -510 0
-715 -511 0
-715 -512 0
-715 -516 0
-715 -517 0
-715 -518 0
-715 -519 0
-715 -520 0
-715 -521 0
-715 -522 0
-715 -523 0
-715 -524 0
-715 -525 0
-715 -526 0
-715 -527 0
-716 -477 0
-716 -478 0
-716 -479 0
-716 -483 0
-716 -484 0
-716 -485 0
-716 -486 0
-716 -487 0
-716 -488 0
-716 -489 0
-716 -490 0
-716 -491 0
-716 -492 0
-716 -493 0
-716 -494 0
-716 -495 0
-716 -496 0
-716 -500 0
-716 -501 0
-716 -502 0
-716 -503 0
-716 -504 0
-716 -505 0
-716 -506 0
-716 -507 0
-716 -508 0
-716 -509 0
-716 -510 0
-716 -511 0
-716 -512 0
-716 -513 0
-716 -517 0
-716 -518 0
-716 -519 0
-716 -520 0
-716 -521 0
-716 -522 0
-716 -523 0
-716 -524 0
-716 -525 0
-716 -526 0
-716 -527 0
-717 -477 0
-717 -478 0
-717 -479 0
-717 -480 0
-717 -484 0
-717 -485 0
-717 -486 0
-717 -487 0
-717 -488 0
-717 -489 0
-717 -490 0
-717 -491 0
-717 -492 0
-717 -493 0
-717 -494 0
-717 -495 0
-717 -496 0
-717 -497 0
-717 -501 0
-717 -502 0
-717 -503 0
-717 -504 0
-717 -505 0
-717 -506 0
-717 -507 0
-717 -508 0
-717 -509 0
-717 -510 0
-717 -511 0
-717 -512 0
-717 -513 0
-717 -514 0
-717 -518 0
-717 -519 0
-717 -520 0
-717 -521 0
-717 -522 0
-717 -523 0
-717 -524 0
-717 -525 0
-717 -526 0
-717 -527 0
-718 -477 0
-718 -478 0
-718 -479 0
-718 -480 0
-718 -481 0
-718 -485 0
-718 -486 0
-718 -487 0
-718 -488 0
-718 -489 0
-718 -490 0
-718 -491 0
-718 -492 0
-718 -493 0
-718 -494 0
-718 -495 0
-718 -496 0
-718 -497 0
-718 -498 0
-718 -502 0
-718 -503 0
-718 -504 0
-718 -505 0
-718 -506 0
-718 -507 0
-718 -508 0
-718 -509 0
-718 -510 0
-718 -511 0
-718 -512 0
-718 -513 0
-718 -514 0
-718 -515 0
-718 -519 0
-718 -520 0
-718 -521 0
-718 -522 0
-718 -523 0
-718 -524 0
-718 -525 0
-718 -526 0
-718 -527 0
-719 -477 0
-719 -478 0
-719 -479 0
-719 -480 0
-719 -481 0
-719 -482 0
-719 -486 0
-719 -487 0
-719 -488 0
-719 -489 0
-719 -490 0
-719 -491 0
-719 -492 0
-719 -493 0
-719 -494 0
-719 -495 0
-719 -496 0
-719 -497 0
-719 -498 0
-719 -499 0
-719 -503 0
-719 -504 0
-719 -505 0
-719 -506 0
-719 -507 0
-719 -508 0
-719 -509 0
-719 -510 0
-719 -511 0
-719 -512 0
-719 -513 0
-719 -514 0
-719 -515 0
-719 -516 0
-719 -520 0
-719 -521 0
-719 -522 0
-719 -523 0
-719 -524 0
-719 -525 0
-719 -526 0
-719 -527 0
-720 -477 0
-720 -478 0
-720 -479 0
-720 -480 0
-720 -481 0
-720 -482 0
-720 -483 0
-720 -487 0
-720 -488 0
-720 -489 0
-720 -490 0
-720 -491 0
-720 -492 0
-720 -493 0
-720 -494 0
-720 -495 0
-720 -496 0
-720 -497 0
-720 -498 0
-720 -499 0
-720 -500 0
-720 -504 0
-720 -505 0
-720 -506 0
-720 -507 0
-720 -508 0
-720 -509 0
-720 -510 0
-720 -511 0
-720 -512 0
-720 -513 0
-720 -514 0
-720 -515 0
-720 -516 0
-720 -517 0
-720 -521 0
-720 -522 0
-720 -523 0
-720 -524 0
-720 -525 0
-720 -526 0
-720 -527 0
-721 -477 0
-721 -478 0
-721 -479 0
-721 -480 0
-721 -481 0
-721 -482 0
-721 -483 0
-721 -484 0
-721 -488 0
-721 -489 0
-721 -490 0
-721 -491 0
-721 -492 0
-721 -493 0
-721 -494 0
-721 -495 0
-721 -496 0
-721 -497 0
-721 -498 0
-721 -499 0
-721 -500 0
-721 -501 0
-721 -505 0
-721 -506 0
-721 -507 0
-721 -508 0
-721 -509 0
-721 -510 0
-721 -511 0
-721 -512 0
-721 -513 0
-721 -514 0
-721 -515 0
-721 -516 0
-721 -517 0
-721 -518 0
-721 -522 0
-721 -523 0
-721 -524 0
-721 -525 0
-721 -526 0
-721 -527 0
-722 -477 0
-722 -478 0
-722 -479 0
-722 -480 0
-722 -481 0
-722 -482 0
-722 -483 0
-722 -484 0
-722 -485 0
-722 -489 0
-722 -490 0
-722 -491 0
-722 -492 0
-722 -493 0
-722 -494 0
-722 -495 0
-722 -496 0
-722 -497 0
-722 -498 0
-722 -499 0
-722 -500 0
-722 -501 0
-722 -502 0
-722 -506 0
-722 -507 0
-722 -508 0
-722 -509 0
-722 -510 0
-722 -511 0
-722 -512 0
-722 -513 0
-722 -514 0
-722 -515 0
-722 -516 0
-722 -517 0
-722 -518 0
-722 -519 0
-722 -523 0
-722 -524 0
-722 -525 0
-722 -526 0
-722 -527 0
-723 -477 0
-723 -478 0
-723 -479 0
-723 -480 0
-723 -481 0
-723 -482 0
-723 -483 0
-723 -484 0
-723 -485 0
-723 -486 0
-723 -490 0
-723 -491 0
-723 -492 0
-723 -493 0
-723 -494 0
-723 -495 0
-723 -496 0
-723 -497 0
-723 -498 0
-723 -499 0
-723 -500 0
-723 -501 0
-723 -502 0
-723 -503 0
-723 -507 0
-723 -508 0
-723 -509 0
-723 -510 0
-723 -511 0
-723 -512 0
-723 -513 0
-723 -514 0
-723 -515 0
-723 -516 0
-723 -517 0
-723 -518 0
-723 -519 0
-723 -520 0
-723 -524 0
-723 -525 0
-723 -526 0
-723 -527 0
-724 -477 0
-724 -478 0
-724 -479 0
-724 -480 0
-724 -481 0
-724 -482 0
-724 -483 0
-724 -484 0
-724 -485 0
-724 -486 0
-724 -487 0
-724 -491 0
-724 -492 0
-724 -493 0
-724 -494 0
-724 -495 0
-724 -496 0
-724 -497 0
-724 -498 0
-724 -499 0
-724 -500 0
-724 -501 0
-724 -502 0
-724 -503 0
-724 -504 0
-724 -508 0
-724 -509 0
-724 -510 0
-724 -511 0
-724 -512 0
-724 -513 0
-724 -514 0
-724 -515 0
-724 -516 0
-724 -517 0
-724 -518 0
-724 -519 0
-724 -520 0
-724 -521 0
-724 -525 0
-724 -526 0
-724 -527 0
-725 -477 0
-725 -478 0
-725 -479 0
-725 -480 0
-725 -481 0
-725 -482 0
-725 -483 0
-725 -484 0
-725 -485 0
-725 -486 0
-725 -487 0
-725 -488 0
-725 -492 0
-725 -493 0
-725 -494 0
-725 -495 0
-725 -496 0
-725 -497 0
-725 -498 0
-725 -499 0
-725 -500 0
-725 -501 0
-725 -502 0
-725 -503 0
-725 -504 0
-725 -505 0
-725 -509 0
-725 -510 0
-725 -511 0
-725 -512 0
-725 -513 0
-725 -514 0
-725 -515 0
-725 -516 0
-725 -517 0
-725 -518 0
-725 -519 0
-725 -520 0
-725 -521 0
-725 -522 0
-725 -526 0
-725 -527 0
-726 -477 0
-726 -478 0
-726 -479 0
-726 -480 0
-726 -481 0
-726 -482 0
-726 -483 0
-726 -484 0
-726 -485 0
-726 -486 0
-726 -487 0
-726 -488 0
-726 -489 0
-726 -493 0
-726 -494 0
-726 -495 0
-726 -496 0
-726 -497 0
-726 -498 0
-726 -499 0
-726 -500 0
-726 -501 0
-726 -502 0
-726 -503 0
-726 -504 0
-726 -505 0
-726 -506 0
-726 -510 0
-726 -511 0
-726 -512 0
-726 -513 0
-726 -514 0
-726 -515 0
-726 -516 0
-726 -517 0
-726 -518 0
-726 -519 0
-726 -520 0
-726 -521 0
-726 -522 0
-726 -523 0
-726 -527 0
-727 -477 0
-727 -478 0
-727 -479 0
-727 -480 0
-727 -481 0
-727 -482 0
-727 -483 0
-727 -484 0
-727 -485 0
-727 -486 0
-727 -487 0
-727 -488 0
-727 -489 0
-727 -490 0
-727 -494 0
-727 -495 0
-727 -496 0
-727 -497 0
-727 -498 0
-727 -499 0
-727 -500 0
-727 -501 0
-727 -502 0
-727 -503 0
-727 -504 0
-727 -505 0
-727 -506 0
-727 -507 0
-727 -511 0
-727 -512 0
-727 -513 0
-727 -514 0
-727 -515 0
-727 -516 0
-727 -517 0
-727 -518 0
-727 -519 0
-727 -520 0
-727 -521 0
-727 -522 0
-727 -523 0
-727 -524 0
-528 -545 0
-528 -562 0
-545 -562 0
-529 -546 0
-529 -563 0
-546 -563 0
-530 -547 0
-530 -564 0
-547 -564 0
-531 -548 0
-531 -565 0
-548 -565 0
-532 -549 0
-532 -566 0
-549 -566 0
-533 -550 0
-533 -567 0
-550 -567 0
-534 -551 0
-534 -568 0
-551 -568 0
-535 -552 0
-535 -569 0
-552 -569 0
-536 -553 0
-536 -570 0
-553 -570 0
-537 -554 0
-537 -571 0
-554 -571 0
-538 -555 0
-538 -572 0
-555 -572 0
-539 -556 0
-539 -573 0
-556 -573 0
-540 -557 0
-540 -574 0
-557 -574 0
-541 -558 0
-541 -575 0
-558 -575 0
-542 -559 0
-542 -576 0
-559 -576 0
-543 -560 0
-543 -577 0
-560 -577 0
-544 -561 0
-544 -578 0
-561 -578 0
728 729 730 731 732 733 734 735 736 737 738 739 740 741 742 0
-728 -729 0
-728 -730 0
-728 -731 0
-728 -732 0
-728 -733 0
-728 -734 0
-728 -735 0
-728 -736 0
-728 -737 0
-728 -738 0
-728 -739 0
-728 -740 0
-728 -741 0
-728 -742 0
-729 -730 0
-729 -731 0
-729 -732 0
-729 -733 0
-729 -734 0
-729 -735 0
-729 -736 0
-729 -737 0
-729 -738 0
-729 -739 0
-729 -740 0
-729 -741 0
-729 -742 0
-730 -731 0
-730 -732 0
-730 -733 0
-730 -734 0
-730 -735 0
-730 -736 0
-730 -737 0
-730 -738 0
-730 -739 0
-730 -740 0
-730 -741 0
-730 -742 0
-731 -732 0
-731 -733 0
-731 -734 0
-731 -735 0
-731 -736 0
-731 -737 0
-731 -738 0
-731 -739 0
-731 -740 0
-731 -741 0
-731 -742 0
-732 -733 0
-732 -734 0
-732 -735 0
-732 -736 0
-732 -737 0
-732 -738 0
-732 -739 0
-732 -740 0
-732 -741 0
-732 -742 0
-733 -734 0
-733 -735 0
-733 -736 0
-733 -737 0
-733 -738 0
-733 -739 0
-733 -740 0
-733 -741 0
-733 -742 0
-734 -735 0
-734 -736 0
-734 -737 0
-734 -738 0
-734 -739 0
-734 -740 0
-734 -741 0
-734 -742 0
-735 -736 0
-735 -737 0
-735 -738 0
-735 -739 0
-735 -740 0
-735 -741 0
-735 -742 0
-736 -737 0
-736 -738 0
-736 -739 0
-736 -740 0
-736 -741 0
-736 -742 0
-737 -738 0
-737 -739 0
-737 -740 0
-737 -741 0
-737 -742 0
-738 -739 0
-738 -740 0
-738 -741 0
-738 -742 0
-739 -740 0
-739 -741 0
-739 -742 0
-740 -741 0
-740 -742 0
-741 -742 0
-528 728 0
-529 728 729 0
-530 728 729 730 0
-531 729 730 731 0
-532 730 731 732 0
-533 731 732 733 0
-534 732 733 734 0
-535 733 734 735 0
-536 734 735 736 0
-537 735 736 737 0
-538 736 737 738 0
-539 737 738 739 0
-540 738 739 740 0
-541 739 740 741 0
-542 740 741 742 0
-543 741 742 0
-544 742 0
-545 728 0
-546 728 729 0
-547 728 729 730 0
-548 729 730 731 0
-549 730 731 732 0
-550 731 732 733 0
-551 732 733 734 0
-552 733 734 735 0
-553 734 735 736 0
-554 735 736 737 0
-555 736 737 738 0
-556 737 738 739 0
-557 738 739 740 0
-558 739 740 741 0
-559 740 741 742 0
-560 741 742 0
-561 742 0
-562 728 0
-563 728 729 0
-564 728 729 730 0
-565 729 730 731 0
-566 730 731 732 0
-567 731 732 733 0
-568 732 733 734 0
-569 733 734 735 0
-570 734 735 736 0
-571 735 736 737 0
-572 736 737 738 0
-573 737 738 739 0
-574 738 739 740 0
-575 739 740 741 0
-576 740 741 742 0
-577 741 742 0
-578 742 0
-728 -531 0
-728 -532 0
-728 -533 0
-728 -534 0
-728 -535 0
-728 -536 0
-728 -537 0
-728 -538 0
-728 -539 0
-728 -540 0
-728 -541 0
-728 -542 0
-728 -543 0
-728 -544 0
-728 -548 0
-728 -549 0
-728 -550 0
-728 -551 0
-728 -552 0
-728 -553 0
-728 -554 0
-728 -555 0
-728 -556 0
-728 -557 0
-728 -558 0
-728 -559 0
-728 -560 0
-728 -561 0
-728 -565 0
-728 -566 0
-728 -567 0
-728 -568 0
-728 -569 0
-728 -570 0
-728 -571 0
-728 -572 0
-728 -573 0
-728 -574 0
-728 -575 0
-728 -576 0
-728 -577 0
-728 -578 0
-729 -528 0
-729 -532 0
-729 -533 0
-729 -534 0
-729 -535 0
-729 -536 0
-729 -537 0
-729 -538 0
-729 -539 0
-729 -540 0
-729 -541 0
-729 -542 0
-729 -543 0
-729 -544 0
-729 -545 0
-729 -549 0
-729 -550 0
-729 -551 0
-729 -552 0
-729 -553 0
-729 -554 0
-729 -555 0
-729 -556 0
-729 -557 0
-729 -558 0
-729 -559 0
-729 -560 0
-729 -561 0
-729 -562 0
-729 -566 0
-729 -567 0
-729 -568 0
-729 -569 0
-729 -570 0
-729 -571 0
-729 -572 0
-729 -573 0
-729 -574 0
-729 -575 0
-729 -576 0
-729 -577 0
-729 -578 0
-730 -528 0
-730 -529 0
-730 -533 0
-730 -534 0
-730 -535 0
-730 -536 0
-730 -537 0
-730 -538 0
-730 -539 0
-730 -540 0
-730 -541 0
-730 -542 0
-730 -543 0
-730 -544 0
-730 -545 0
-730 -546 0
-730 -550 0
-730 -551 0
-730 -552 0
-730 -553 0
-730 -554 0
-730 -555 0
-730 -556 0
-730 -557 0
-730 -558 0
-730 -559 0
-730 -560 0
-730 -561 0
-730 -562 0
-730 -563 0
-730 -567 0
-730 -568 0
-730 -569 0
-730 -570 0
-730 -571 0
-730 -572 0
-730 -573 0
-730 -574 0
-730 -575 0
-730 -576 0
-730 -577 0
-730 -578 0
-731 -528 0
-731 -529 0
-731 -530 0
-731 -534 0
-731 -535 0
-731 -536 0
-731 -537 0
-731 -538 0
-731 -539 0
-731 -540 0
-731 -541 0
-731 -542 0
-731 -543 0
-731 -544 0
-731 -545 0
-731 -546 0
-731 -547 0
-731 -551 0
-731 -552 0
-731 -553 0
-731 -554 0
-731 -555 0
-731 -556 0
-731 -557 0
-731 -558 0
-731 -559 0
-731 -560 0
-731 -561 0
-731 -562 0
-731 -563 0
-731 -564 0
-731 -568 0
-731 -569 0
-731 -570 0
-731 -571 0
-731 -572 0
-731 -573 0
-731 -574 0
-731 -575 0
-731 -576 0
-731 -577 0
-731 -578 0
-732 -528 0
-732 -529 0
-732 -530 0
-732 -531 0
-732 -535 0
-732 -536 0
-732 -537 0
-732 -538 0
-732 -539 0
-732 -540 0
-732 -541 0
-732 -542 0
-732 -543 0
-732 -544 0
-732 -545 0
-732 -546 0
-732 -547 0
-732 -548 0
-732 -552 0
-732 -553 0
-732 -554 0
-732 -555 0
-732 -556 0
-732 -557 0
-732 -558 0
-732 -559 0
-732 -560 0
-732 -561 0
-732 -562 0
-732 -563 0
-732 -564 0
-732 -565 0
-732 -569 0
-732 -570 0
-732 -571 0
-732 -572 0
-732 -573 0
-732 -574 0
-732 -575 0
-732 -576 0
-732 -577 0
-732 -578 0
-733 -528 0
-733 -529 0
-733 -530 0
-733 -531 0
-733 -532 0
-733 -536 0
-733 -537 0
-733 -538 0
-733 -539 0
-733 -540 0
-733 -541 0
-733 -542 0
-733 -543 0
-733 -544 0
-733 -545 0
-733 -546 0
-733 -547 0
-733 -548 0
-733 -549 0
-733 -553 0
-733 -554 0
-733 -555 0
-733 -556 0
-733 -557 0
-733 -558 0
-733 -559 0
-733 -560 0
-733 -561 0
-733 -562 0
-733 -563 0
-733 -564 0
-733 -565 0
-733 -566 0
-733 -570 0
-733 -571 0
-733 -572 0
-733 -573 0
-733 -574 0
-733 -575 0
-733 -576 0
-733 -577 0
-733 -578 0
-734 -528 0
-734 -529 0
-734 -530 0
-734 -531 0
-734 -532 0
-734 -533 0
-734 -537 0
-734 -538 0
-734 -539 0
-734 -540 0
-734 -541 0
-734 -542 0
-734 -543 0
-734 -544 0
-734 -545 0
-734 -546 0
-734 -547 0
-734 -548 0
-734 -549 0
-734 -550 0
-734 -554 0
-734 -555 0
-734 -556 0
-734 -557 0
-734 -558 0
-734 -559 0
-734 -560 0
-734 -561 0
-734 -562 0
-734 -563 0
-734 -564 0
-734 -565 0
-734 -566 0
-734 -567 0
-734 -571 0
-734 -572 0
-734 -573 0
-734 -574 0
-734 -575 0
-734 -576 0
-734 -577 0
-734 -578 0
-735 -528 0
-735 -529 0
-735 -530 0
-735 -531 0
-735 -532 0
-735 -533 0
-735 -534 0
-735 -538 0
-735 -539 0
-735 -540 0
-735 -541 0
-735 -542 0
-735 -543 0
-735 -544 0
-735 -545 0
-735 -546 0
-735 -547 0
-735 -548 0
-735 -549 0
-735 -550 0
-735 -551 0
-735 -555 0
-735 -556 0
-735 -557 0
-735 -558 0
-735 -559 0
-735 -560 0
-735 -561 0
-735 -562 0
-735 -563 0
-735 -564 0
-735 -565 0
-735 -566 0
-735 -567 0
-735 -568 0
-735 -572 0
-735 -573 0
-735 -574 0
-735 -575 0
-735 -576 0
-735 -577 0
-735 -578 0
-736 -528 0
-736 -529 0
-736 -530 0
-736 -531 0
-736 -532 0
-736 -533 0
-736 -534 0
-736 -535 0
-736 -539 0
-736 -540 0
-736 -541 0
-736 -542 0
-736 -543 0
-736 -544 0
-736 -545 0
-736 -546 0
-736 -547 0
-736 -548 0
-736 -549 0
-736 -550 0
-736 -551 0
-736 -552 0
-736 -556 0
-736 -557 0
-736 -558 0
-736 -559 0
-736 -560 0
-736 -561 0
-736 -562 0
-736 -563 0
-736 -564 0
-736 -565 0
-736 -566 0
-736 -567 0
-736 -568 0
-736 -569 0
-736 -573 0
-736 -574 0
-736 -575 0
-736 -576 0
-736 -577 0
-736 -578 0
-737 -528 0
-737 -529 0
-737 -530 0
-737 -531 0
-737 -532 0
-737 -533 0
-737 -534 0
-737 -535 0
-737 -536 0
-737 -540 0
-737 -541 0
-737 -542 0
-737 -543 0
-737 -544 0
-737 -545 0
-737 -546 0
-737 -547 0
-737 -548 0
-737 -549 0
-737 -550 0
-737 -551 0
-737 -552 0
-737 -553 0
-737 -557 0
-737 -558 0
-737 -559 0
-737 -560 0
-737 -561 0
-737 -562 0
-737 -563 0
-737 -564 0
-737 -565 0
-737 -566 0
-737 -567 0
-737 -568 0
-737 -569 0
-737 -570 0
-737 -574 0
-737 -575 0
-737 -576 0
-737 -577 0
-737 -578 0
-738 -528 0
-738 -529 0
-738 -530 0
-738 -531 0
-738 -532 0
-738 -533 0
-738 -534 0
-738 -535 0
-738 -536 0
-738 -537 0
-738 -541 0
-738 -542 0
-738 -543 0
-738 -544 0
-738 -545 0
-738 -546 0
-738 -547 0
-738 -548 0
-738 -549 0
-738 -550 0
-738 -551 0
-738 -552 0
-738 -553 0
-738 -554 0
-738 -558 0
-738 -559 0
-738 -560 0
-738 -561 0
-738 -562 0
-738 -563 0
-738 -564 0
-738 -565 0
-738 -566 0
-738 -567 0
-738 -568 0
-738 -569 0
-738 -570 0
-738 -571 0
-738 -575 0
-738 -576 0
-738 -577 0
-738 -578 0
-739 -528 0
-739 -529 0
-739 -530 0
-739 -531 0
-739 -532 0
-739 -533 0
-739 -534 0
-739 -535 0
-739 -536 0
-739 -537 0
-739 -538 0
-739 -542 0
-739 -543 0
-739 -544 0
-739 -545 0
-739 -546 0
-739 -547 0
-739 -548 0
-739 -549 0
-739 -550 0
-739 -551 0
-739 -552 0
-739 -553 0
-739 -554 0
-739 -555 0
-739 -559 0
-739 -560 0
-739 -561 0
-739 -562 0
-739 -563 0
-739 -564 0
-739 -565 0
-739 -566 0
-739 -567 0
-739 -568 0
-739 -569 0
-739 -570 0
-739 -571 0
-739 -572 0
-739 -576 0
-739 -577 0
-739 -578 0
-740 -528 0
-740 -529 0
-740 -530 0
-740 -531 0
-740 -532 0
-740 -533 0
-740 -534 0
-740 -535 0
-740 -536 0
-740 -537 0
-740 -538 0
-740 -539 0
-740 -543 0
-740 -544 0
-740 -545 0
-740 -546 0
-740 -547 0
-740 -548 0
-740 -549 0
-740 -550 0
-740 -551 0
-740 -552 0
-740 -553 0
-740 -554 0
-740 -555 0
-740 -556 0
-740 -560 0
-740 -561 0
-740 -562 0
-740 -563 0
-740 -564 0
-740 -565 0
-740 -566 0
-740 -567 0
-740 -568 0
-740 -569 0
-740 -570 0
-740 -571 0
-740 -572 0
-740 -573 0
-740 -577 0
-740 -578 0
-741 -528 0
-741 -529 0
-741 -530 0
-741 -531 0
-741 -532 0
-741 -533 0
-741 -534 0
-741 -535 0
-741 -536 0
-741 -537 0
-741 -538 0
-741 -539 0
-741 -540 0
-741 -544 0
-741 -545 0
-741 -546 0
-741 -547 0
-741 -548 0
-741 -549 0
-741 -550 0
-741 -551 0
-741 -552 0
-741 -553 0
-741 -554 0
-741 -555 0
-741 -556 0
-741 -557 0
-741 -561 0
-741 -562 0
-741 -563 0
-741 -564 0
-741 -565 0
-741 -566 0
-741 -567 0
-741 -568 0
-741 -569 0
-741 -570 0
-741 -571 0
-741 -572 0
-741 -573 0
-741 -574 0
-741 -578 0
-742 -528 0
-742 -529 0
-742 -530 0
-742 -531 0
-742 -532 0
-742 -533 0
-742 -534 0
-742 -535 0
-742 -536 0
-742 -537 0
-742 -538 0
-742 -539 0
-742 -540 0
-742 -541 0
-742 -545 0
-742 -546 0
-742 -547 0
-742 -548 0
-742 -549 0
-742 -550 0
-742 -551 0
-742 -552 0
-742 -553 0
-742 -554 0
-742 -555 0
-742 -556 0
-742 -557 0
-742 -558 0
-742 -562 0
-742 -563 0
-742 -564 0
-742 -565 0
-742 -566 0
-742 -567 0
-742 -568 0
-742 -569 0
-742 -570 0
-742 -571 0
-742 -572 0
-742 -573 0
-742 -574 0
-742 -575 0
-52 -103 0
-52 -154 0
-52 -205 0
-52 -256 0
-52 -307 0
-52 -358 0
-52 -409 0
-52 -460 0
-52 -511 0
-52 -562 0
-103 -154 0
-103 -205 0
-103 -256 0
-103 -307 0
-103 -358 0
-103 -409 0
-103 -460 0
-103 -511 0
-103 -562 0
-154 -205 0
-154 -256 0
-154 -307 0
-154 -358 0
-154 -409 0
-154 -460 0
-154 -511 0
-154 -562 0
-205 -256 0
-205 -307 0
-205 -358 0
-205 -409 0
-205 -460 0
-205 -511 0
-205 -562 0
-256 -307 0
-256 -358 0
-256 -409 0
-256 -460 0
-256 -511 0
-256 -562 0
-307 -358 0
-307 -409 0
-307 -460 0
-307 -511 0
-307 -562 0
-358 -409 0
-358 -460 0
-358 -511 0
-358 -562 0
-409 -460 0
-409 -511 0
-409 -562 0
-460 -511 0
-460 -562 0
-511 -562 0
-53 -104 0
-53 -155 0
-53 -206 0
-53 -257 0
-53 -308 0
-53 -359 0
-53 -410 0
-53 -461 0
-53 -512 0
-53 -563 0
-104 -155 0
-104 -206 0
-104 -257 0
-104 -308 0
-104 -359 0
-104 -410 0
-104 -461 0
-104 -512 0
-104 -563 0
-155 -206 0
-155 -257 0
-155 -308 0
-155 -359 0
-155 -410 0
-155 -461 0
-155 -512 0
-155 -563 0
-206 -257 0
-206 -308 0
-206 -359 0
-206 -410 0
-206 -461 0
-206 -512 0
-206 -563 0
-257 -308 0
-257 -359 0
-257 -410 0
-257 -461 0
-257 -512 0
-257 -563 0
-308 -359 0
-308 -410 0
-308 -461 0
-308 -512 0
-308 -563 0
-359 -410 0
-359 -461 0
-359 -512 0
-359 -563 0
-410 -461 0
-410 -512 0
-410 -563 0
-461 -512 0
-461 -563 0
-512 -563 0
-54 -105 0
-54 -156 0
-54 -207 0
-54 -258 0
-54 -309 0
-54 -360 0
-54 -411 0
-54 -462 0
-54 -513 0
-54 -564 0
-105 -156 0
-105 -207 0
-105 -258 0
-105 -309 0
-105 -360 0
-105 -411 0
-105 -462 0
-105 -513 0
-105 -564 0
-156 -207 0
-156 -258 0
-156 -309 0
-156 -360 0
-156 -411 0
-156 -462 0
-156 -513 0
-156 -564 0
-207 -258 0
-207 -309 0
-207 -360 0
-207 -411 0
-207 -462 0
-207 -513 0
-207 -564 0
-258 -309 0
-258 -360 0
-258 -411 0
-258 -462 0
-258 -513 0
-258 -564 0
-309 -360 0
-309 -411 0
-309 -462 0
-309 -513 0
-309 -564 0
-360 -411 0
-360 -462 0
-360 -513 0
-360 -564 0
-411 -462 0
-411 -513 0
-411 -564 0
-462 -513 0
-462 -564 0
-513 -564 0
-55 -106 0
-55 -157 0
-55 -208 0
-55 -259 0
-55 -310 0
-55 -361 0
-55 -412 0
-55 -463 0
-55 -514 0
-55 -565 0
-106 -157 0
-106 -208 0
-106 -259 0
-106 -310 0
-106 -361 0
-106 -412 0
-106 -463 0
-106 -514 0
-106 -565 0
-157 -208 0
-157 -259 0
-157 -310 0
-157 -361 0
-157 -412 0
-157 -463 0
-157 -514 0
-157 -565 0
-208 -259 0
-208 -310 0
-208 -361 0
-208 -412 0
-208 -463 0
-208 -514 0
-208 -565 0
-259 -310 0
-259 -361 0
-259 -412 0
-259 -463 0
-259 -514 0
-259 -565 0
-310 -361 0
-310 -412 0
-310 -463 0
-310 -514 0
-310 -565 0
-361 -412 0
-361 -463 0
-361 -514 0
-361 -565 0
-412 -463 0
-412 -514 0
-412 -565 0
-463 -514 0
-463 -565 0
-514 -565 0
-56 -107 0
-56 -158 0
-56 -209 0
-56 -260 0
-56 -311 0
-56 -362 0
-56 -413 0
-56 -464 0
-56 -515 0
-56 -566 0
-107 -158 0
-107 -209 0
-107 -260 0
-107 -311 0
-107 -362 0
-107 -413 0
-107 -464 0
-107 -515 0
-107 -566 0
-158 -209 0
-158 -260 0
-158 -311 0
-158 -362 0
-158 -413 0
-158 -464 0
-158 -515 0
-158 -566 0
-209 -260 0
-209 -311 0
-209 -362 0
-209 -413 0
-209 -464 0
-209 -515 0
-209 -566 0
-260 -311 0
-260 -362 0
-260 -413 0
-260 -464 0
-260 -515 0
-260 -566 0
-311 -362 0
-311 -413 0
-311 -464 0
-311 -515 0
-311 -566 0
-362 -413 0
-362 -464 0
-362 -515 0
-362 -566 0
-413 -464 0
-413 -515 0
-413 -566 0
-464 -515 0
-464 -566 0
-515 -566 0
-57 -108 0
-57 -159 0
-57 -210 0
-57 -261 0
-57 -312 0
-57 -363 0
-57 -414 0
-57 -465 0
-57 -516 0
-57 -567 0
-108 -159 0
-108 -210 0
-108 -261 0
-108 -312 0
-108 -363 0
-108 -414 0
-108 -465 0
-108 -516 0
-108 -567 0
-159 -210 0
-159 -261 0
-159 -312 0
-159 -363 0
-159 -414 0
-159 -465 0
-159 -516 0
-159 -567 0
-210 -261 0
-210 -312 0
-210 -363 0
-210 -414 0
-210 -465 0
-210 -516 0
-210 -567 0
-261 -312 0
-261 -363 0
-261 -414 0
-261 -465 0
-261 -516 0
-261 -567 0
-312 -363 0
-312 -414 0
-312 -465 0
-312 -516 0
-312 -567 0
-363 -414 0
-363 -465 0
-363 -516 0
-363 -567 0
-414 -465 0
-414 -516 0
-414 -567 0
-465 -516 0
-465 -567 0
-516 -567 0
-58 -109 0
-58 -160 0
-58 -211 0
-58 -262 0
-58 -313 0
-58 -364 0
-58 -415 0
-58 -466 0
-58 -517 0
-58 -568 0
-109 -160 0
-109 -211 0
-109 -262 0
-109 -313 0
-109 -364 0
-109 -415 0
-109 -466 0
-109 -517 0
-109 -568 0
-160 -211 0
-160 -262 0
-160 -313 0
-160 -364 0
-160 -415 0
-160 -466 0
-160 -517 0
-160 -568 0
-211 -262 0
-211 -313 0
-211 -364 0
-211 -415 0
-211 -466 0
-211 -517 0
-211 -568 0
-262 -313 0
-262 -364 0
-262 -415 0
-262 -466 0
-262 -517 0
-262 -568 0
-313 -364 0
-313 -415 0
-313 -466 0
-313 -517 0
-313 -568 0
-364 -415 0
-364 -466 0
-364 -517 0
-364 -568 0
-415 -466 0
-415 -517 0
-415 -568 0
-466 -517 0
-466 -568 0
-517 -568 0
-59 -110 0
-59 -161 0
-59 -212 0
-59 -263 0
-59 -314 0
-59 -365 0
-59 -416 0
-59 -467 0
-59 -518 0
-59 -569 0
-110 -161 0
-110 -212 0
-110 -263 0
-110 -314 0
-110 -365 0
-110 -416 0
-110 -467 0
-110 -518 0
-110 -569 0
-161 -212 0
-161 -263 0
-161 -314 0
-161 -365 0
-161 -416 0
-161 -467 0
-161 -518 0
-161 -569 0
-212 -263 0
-212 -314 0
-212 -365 0
-212 -416 0
-212 -467 0
-212 -518 0
-212 -569 0
-263 -314 0
-263 -365 0
-263 -416 0
-263 -467 0
-263 -518 0
-263 -569 0
-314 -365 0
-314 -416 0
-314 -467 0
-314 -518 0
-314 -569 0
-365 -416 0
-365 -467 0
-365 -518 0
-365 -569 0
-416 -467 0
-416 -518 0
-416 -569 0
-467 -518 0
-467 -569 0
-518 -569 0
-60 -111 0
-60 -162 0
-60 -213 0
-60 -264 0
-60 -315 0
-60 -366 0
-60 -417 0
-60 -468 0
-60 -519 0
-60 -570 0
-111 -162 0
-111 -213 0
-111 -264 0
-111 -315 0
-111 -366 0
-111 -417 0
-111 -468 0
-111 -519 0
-111 -570 0
-162 -213 0
-162 -264 0
-162 -315 0
-162 -366 0
-162 -417 0
-162 -468 0
-162 -519 0
-162 -570 0
-213 -264 0
-213 -315 0
-213 -366 0
-213 -417 0
-213 -468 0
-213 -519 0
-213 -570 0
-264 -315 0
-264 -366 0
-264 -417 0
-264 -468 0
-264 -519 0
-264 -570 0
-315 -366 0
-315 -417 0
-315 -468 0
-315 -519 0
-315 -570 0
-366 -417 0
-366 -468 0
-366 -519 0
-366 -570 0
-417 -468 0
-417 -519 0
-417 -570 0
-468 -519 0
-468 -570 0
-519 -570 0
-61 -112 0
-61 -163 0
-61 -214 0
-61 -265 0
-61 -316 0
-61 -367 0
-61 -418 0
-61 -469 0
-61 -520 0
-61 -571 0
-112 -163 0
-112 -214 0
-112 -265 0
-112 -316 0
-112 -367 0
-112 -418 0
-112 -469 0
-112 -520 0
-112 -571 0
-163 -214 0
-163 -265 0
-163 -316 0
-163 -367 0
-163 -418 0
-163 -469 0
-163 -520 0
-163 -571 0
-214 -265 0
-214 -316 0
-214 -367 0
-214 -418 0
-214 -469 0
-214 -520 0
-214 -571 0
-265 -316 0
-265 -367 0
-265 -418 0
-265 -469 0
-265 -520 0
-265 -571 0
-316 -367 0
-316 -418 0
-316 -469 0
-316 -520 0
-316 -571 0
-367 -418 0
-367 -469 0
-367 -520 0
-367 -571 0
-418 -469 0
-418 -520 0
-418 -571 0
-469 -520 0
-469 -571 0
-520 -571 0
-62 -113 0
-62 -164 0
-62 -215 0
-62 -266 0
-62 -317 0
-62 -368 0
-62 -419 0
-62 -470 0
-62 -521 0
-62 -572 0
-113 -164 0
-113 -215 0
-113 -266 0
-113 -317 0
-113 -368 0
-113 -419 0
-113 -470 0
-113 -521 0
-113 -572 0
-164 -215 0
-164 -266 0
-164 -317 0
-164 -368 0
-164 -419 0
-164 -470 0
-164 -521 0
-164 -572 0
-215 -266 0
-215 -317 0
-215 -368 0
-215 -419 0
-215 -470 0
-215 -521 0
-215 -572 0
-266 -317 0
-266 -368 0
-266 -419 0
-266 -470 0
-266 -521 0
-266 -572 0
-317 -368 0
-317 -419 0
-317 -470 0
-317 -521 0
-317 -572 0
-368 -419 0
-368 -470 0
-368 -521 0
-368 -572 0
-419 -470 0
-419 -521 0
-419 -572 0
-470 -521 0
-470 -572 0
-521 -572 0
-63 -114 0
-63 -165 0
-63 -216 0
-63 -267 0
-63 -318 0
-63 -369 0
-63 -420 0
-63 -471 0
-63 -522 0
-63 -573 0
-114 -165 0
-114 -216 0
-114 -267 0
-114 -318 0
-114 -369 0
-114 -420 0
-114 -471 0
-114 -522 0
-114 -573 0
-165 -216 0
-165 -267 0
-165 -318 0
-165 -369 0
-165 -420 0
-165 -471 0
-165 -522 0
-165 -573 0
-216 -267 0
-216 -318 0
-216 -369 0
-216 -420 0
-216 -471 0
-216 -522 0
-216 -573 0
-267 -318 0
-267 -369 0
-267 -420 0
-267 -471 0
-267 -522 0
-267 -573 0
-318 -369 0
-318 -420 0
-318 -471 0
-318 -522 0
-318 -573 0
-369 -420 0
-369 -471 0
-369 -522 0
-369 -573 0
-420 -471 0
-420 -522 0
-420 -573 0
-471 -522 0
-471 -573 0
-522 -573 0
-64 -115 0
-64 -166 0
-64 -217 0
-64 -268 0
-64 -319 0
-64 -370 0
-64 -421 0
-64 -472 0
-64 -523 0
-64 -574 0
-115 -166 0
-115 -217 0
-115 -268 0
-115 -319 0
-115 -370 0
-115 -421 0
-115 -472 0
-115 -523 0
-115 -574 0
-166 -217 0
-166 -268 0
-166 -319 0
-166 -370 0
-166 -421 0
-166 -472 0
-166 -523 0
-166 -574 0
-217 -268 0
-217 -319 0
-217 -370 0
-217 -421 0
-217 -472 0
-217 -523 0
-217 -574 0
-268 -319 0
-268 -370 0
-268 -421 0
-268 -472 0
-268 -523 0
-268 -574 0
-319 -370 0
-319 -421 0
-319 -472 0
-319 -523 0
-319 -574 0
-370 -421 0
-370 -472 0
-370 -523 0
-370 -574 0
-421 -472 0
-421 -523 0
-421 -574 0
-472 -523 0
-472 -574 0
-523 -574 0
-65 -116 0
-65 -167 0
-65 -218 0
-65 -269 0
-65 -320 0
-65 -371 0
-65 -422 0
-65 -473 0
-65 -524 0
-65 -575 0
-116 -167 0
-116 -218 0
-116 -269 0
-116 -320 0
-116 -371 0
-116 -422 0
-116 -473 0
-116 -524 0
-116 -575 0
-167 -218 0
-167 -269 0
-167 -320 0
-167 -371 0
-167 -422 0
-167 -473 0
-167 -524 0
-167 -575 0
-218 -269 0
-218 -320 0
-218 -371 0
-218 -422 0
-218 -473 0
-218 -524 0
-218 -575 0
-269 -320 0
-269 -371 0
-269 -422 0
-269 -473 0
-269 -524 0
-269 -575 0
-320 -371 0
-320 -422 0
-320 -473 0
-320 -524 0
-320 -575 0
-371 -422 0
-371 -473 0
-371 -524 0
-371 -575 0
-422 -473 0
-422 -524 0
-422 -575 0
-473 -524 0
-473 -575 0
-524 -575 0
-66 -117 0
-66 -168 0
-66 -219 0
-66 -270 0
-66 -321 0
-66 -372 0
-66 -423 0
-66 -474 0
-66 -525 0
-66 -576 0
-117 -168 0
-117 -219 0
-117 -270 0
-117 -321 0
-117 -372 0
-117 -423 0
-117 -474 0
-117 -525 0
-117 -576 0
-168 -219 0
-168 -270 0
-168 -321 0
-168 -372 0
-168 -423 0
-168 -474 0
-168 -525 0
-168 -576 0
-219 -270 0
-219 -321 0
-219 -372 0
-219 -423 0
-219 -474 0
-219 -525 0
-219 -576 0
-270 -321 0
-270 -372 0
-270 -423 0
-270 -474 0
-270 -525 0
-270 -576 0
-321 -372 0
-321 -423 0
-321 -474 0
-321 -525 0
-321 -576 0
-372 -423 0
-372 -474 0
-372 -525 0
-372 -576 0
-423 -474 0
-423 -525 0
-423 -576 0
-474 -525 0
-474 -576 0
-525 -576 0
-67 -118 0
-67 -169 0
-67 -220 0
-67 -271 0
-67 -322 0
-67 -373 0
-67 -424 0
-67 -475 0
-67 -526 0
-67 -577 0
-118 -169 0
-118 -220 0
-118 -271 0
-118 -322 0
-118 -373 0
-118 -424 0
-118 -475 0
-118 -526 0
-118 -577 0
-169 -220 0
-169 -271 0
-169 -322 0
-169 -373 0
-169 -424 0
-169 -475 0
-169 -526 0
-169 -577 0
-220 -271 0
-220 -322 0
-220 -373 0
-220 -424 0
-220 -475 0
-220 -526 0
-220 -577 0
-271 -322 0
-271 -373 0
-271 -424 0
-271 -475 0
-271 -526 0
-271 -577 0
-322 -373 0
-322 -424 0
-322 -475 0
-322 -526 0
-322 -577 0
-373 -424 0
-373 -475 0
-373 -526 0
-373 -577 0
-424 -475 0
-424 -526 0
-424 -577 0
-475 -526 0
-475 -577 0
-526 -577 0
-68 -119 0
-68 -170 0
-68 -221 0
-68 -272 0
-68 -323 0
-68 -374 0
-68 -425 0
-68 -476 0
-68 -527 0
-68 -578 0
-119 -170 0
-119 -221 0
-119 -272 0
-119 -323 0
-119 -374 0
-119 -425 0
-119 -476 0
-119 -527 0
-119 -578 0
-170 -221 0
-170 -272 0
-170 -323 0
-170 -374 0
-170 -425 0
-170 -476 0
-170 -527 0
-170 -578 0
-221 -272 0
-221 -323 0
-221 -374 0
-221 -425 0
-221 -476 0
-221 -527 0
-221 -578 0
-272 -323 0
-272 -374 0
-272 -425 0
-272 -476 0
-272 -527 0
-272 -578 0
-323 -374 0
-323 -425 0
-323 -476 0
-323 -527 0
-323 -578 0
-374 -425 0
-374 -476 0
-374 -527 0
-374 -578 0
-425 -476 0
-425 -527 0
-425 -578 0
-476 -527 0
-476 -578 0
-527 -578 0
743 744 745 746 747 748 749 0
-743 -744 0
-743 -745 0
-743 -746 0
-743 -747 0
-743 -748 0
-743 -749 0
-744 -745 0
-744 -746 0
-744 -747 0
-744 -748 0
-744 -749 0
-745 -746 0
-745 -747 0
-745 -748 0
-745 -749 0
-746 -747 0
-746 -748 0
-746 -749 0
-747 -748 0
-747 -749 0
-748 -749 0
-52 743 0
-53 743 744 0
-54 743 744 745 0
-55 743 744 745 746 0
-56 743 744 745 746 747 0
-57 743 744 745 746 747 748 0
-58 743 744 745 746 747 748 749 0
-59 743 744 745 746 747 748 749 0
-60 743 744 745 746 747 748 749 0
-61 743 744 745 746 747 748 749 0
-62 743 744 745 746 747 748 749 0
-63 744 745 746 747 748 749 0
-64 745 746 747 748 749 0
-65 746 747 748 749 0
-66 747 748 749 0
-67 748 749 0
-68 749 0
-103 743 0
-104 743 744 0
-105 743 744 745 0
-106 743 744 745 746 0
-107 743 744 745 746 747 0
-108 743 744 745 746 747 748 0
-109 743 744 745 746 747 748 749 0
-110 743 744 745 746 747 748 749 0
-111 743 744 745 746 747 748 749 0
-112 743 744 745 746 747 748 749 0
-113 743 744 745 746 747 748 749 0
-114 744 745 746 747 748 749 0
-115 745 746 747 748 749 0
-116 746 747 748 749 0
-117 747 748 749 0
-118 748 749 0
-119 749 0
-154 743 0
-155 743 744 0
-156 743 744 745 0
-157 743 744 745 746 0
-158 743 744 745 746 747 0
-159 743 744 745 746 747 748 0
-160 743 744 745 746 747 748 749 0
-161 743 744 745 746 747 748 749 0
-162 743 744 745 746 747 748 749 0
-163 743 744 745 746 747 748 749 0
-164 743 744 745 746 747 748 749 0
-165 744 745 746 747 748 749 0
-166 745 746 747 748 749 0
-167 746 747 748 749 0
-168 747 748 749 0
-169 748 749 0
-170 749 0
-205 743 0
-206 743 744 0
-207 743 744 745 0
-208 743 744 745 746 0
-209 743 744 745 746 747 0
-210 743 744 745 746 747 748 0
-211 743 744 745 746 747 748 749 0
-212 743 744 745 746 747 748 749 0
-213 743 744 745 746 747 748 749 0
-214 743 744 745 746 747 748 749 0
-215 743 744 745 746 747 748 749 0
-216 744 745 746 747 748 749 0
-217 745 746 747 748 749 0
-218 746 747 748 749 0
-219 747 748 749 0
-220 748 749 0
-221 749 0
-256 743 0
-257 743 744 0
-258 743 744 745 0
-259 743 744 745 746 0
-260 743 744 745 746 747 0
-261 743 744 745 746 747 748 0
-262 743 744 745 746 747 748 749 0
-263 743 744 745 746 747 748 749 0
-264 743 744 745 746 747 748 749 0
-265 743 744 745 746 747 748 749 0
-266 743 744 745 746 747 748 749 0
-267 744 745 746 747 748 749 0
-268 745 746 747 748 749 0
-269 746 747 748 749 0
-270 747 748 749 0
-271 748 749 0
-272 749 0
-307 743 0
-308 743 744 0
-309 743 744 745 0
-310 743 744 745 746 0
-311 743 744 745 746 747 0
-312 743 744 745 746 747 748 0
-313 743 744 745 746 747 748 749 0
-314 743 744 745 746 747 748 749 0
-315 743 744 745 746 747 748 749 0
-316 743 744 745 746 747 748 749 0
-317 743 744 745 746 747 748 749 0
-318 744 745 746 747 748 749 0
-319 745 746 747 748 749 0
-320 746 747 748 749 0
-321 747 748 749 0
-322 748 749 0
-323 749 0
-358 743 0
-359 743 744 0
-360 743 744 745 0
-361 743 744 745 746 0
-362 743 744 745 746 747 0
-363 743 744 745 746 747 748 0
-364 743 744 745 746 747 748 749 0
-365 743 744 745 746 747 748 749 0
-366 743 744 745 746 747 748 749 0
-367 743 744 745 746 747 748 749 0
-368 743 744 745 746 747 748 749 0
-369 744 745 746 747 748 749 0
-370 745 746 747 748 749 0
-371 746 747 748 749 0
-372 747 748 749 0
-373 748 749 0
-374 749 0
-409 743 0
-410 743 744 0
-411 743 744 745 0
-412 743 744 745 746 0
-413 743 744 745 746 747 0
-414 743 744 745 746 747 748 0
-415 743 744 745 746 747 748 749 0
-416 743 744 745 746 747 748 749 0
-417 743 744 745 746 747 748 749 0
-418 743 744 745 746 747 748 749 0
-419 743 744 745 746 747 748 749 0
-420 744 745 746 747 748 749 0
-421 745 746 747 748 749 0
-422 746 747 748 749 0
-423 747 748 749 0
-424 748 749 0
-425 749 0
-460 743 0
-461 743 744 0
-462 743 744 745 0
-463 743 744 745 746 0
-464 743 744 745 746 747 0
-465 743 744 745 746 747 748 0
-466 743 744 745 746 747 748 749 0
-467 743 744 745 746 747 748 749 0
-468 743 744 745 746 747 748 749 0
-469 743 744 745 746 747 748 749 0
-470 743 744 745 746 747 748 749 0
-471 744 745 746 747 748 749 0
-472 745 746 747 748 749 0
-473 746 747 748 749 0
-474 747 748 749 0
-475 748 749 0
-476 749 0
-511 743 0
-512 743 744 0
-513 743 744 745 0
-514 743 744 745 746 0
-515 743 744 745 746 747 0
-516 743 744 745 746 747 748 0
-517 743 744 745 746 747 748 749 0
-518 743 744 745 746 747 748 749 0
-519 743 744 745 746 747 748 749 0
-520 743 744 745 746 747 748 749 0
-521 743 744 745 746 747 748 749 0
-522 744 745 746 747 748 749 0
-523 745 746 747 748 749 0
-524 746 747 748 749 0
-525 747 748 749 0
-526 748 749 0
-527 749 0
-562 743 0
-563 743 744 0
-564 743 744 745 0
-565 743 744 745 746 0
-566 743 744 745 746 747 0
-567 743 744 745 746 747 748 0
-568 743 744 745 746 747 748 749 0
-569 743 744 745 746 747 748 749 0
-570 743 744 745 746 747 748 749 0
-571 743 744 745 746 747 748 749 0
-572 743 744 745 746 747 748 749 0
-573 744 745 746 747 748 749 0
-574 745 746 747 748 749 0
-575 746 747 748 749 0
-576 747 748 749 0
-577 748 749 0
-578 749 0
-743 -63 0
-743 -64 0
-743 -65 0
-743 -66 0
-743 -67 0
-743 -68 0
-743 -114 0
-743 -115 0
-743 -116 0
-743 -117 0
-743 -118 0
-743 -119 0
-743 -165 0
-743 -166 0
-743 -167 0
-743 -168 0
-743 -169 0
-743 -170 0
-743 -216 0
-743 -217 0
-743 -218 0
-743 -219 0
-743 -220 0
-743 -221 0
-743 -267 0
-743 -268 0
-743 -269 0
-743 -270 0
-743 -271 0
-743 -272 0
-743 -318 0
-743 -319 0
-743 -320 0
-743 -321 0
-743 -322 0
-743 -323 0
-743 -369 0
-743 -370 0
-743 -371 0
-743 -372 0
-743 -373 0
-743 -374 0
-743 -420 0
-743 -421 0
-743 -422 0
-743 -423 0
-743 -424 0
-743 -425 0
-743 -471 0
-743 -472 0
-743 -473 0
-743 -474 0
-743 -475 0
-743 -476 0
-743 -522 0
-743 -523 0
-743 -524 0
-743 -525 0
-743 -526 0
-743 -527 0
-743 -573 0
-743 -574 0
-743 -575 0
-743 -576 0
-743 -577 0
-743 -578 0
-744 -52 0
-744 -64 0
-744 -65 0
-744 -66 0
-744 -67 0
-744 -68 0
-744 -103 0
-744 -115 0
-744 -116 0
-744 -117 0
-744 -118 0
-744 -119 0
-744 -154 0
-744 -166 0
-744 -167 0
-744 -168 0
-744 -169 0
-744 -170 0
-744 -205 0
-744 -217 0
-744 -218 0
-744 -219 0
-744 -220 0
-744 -221 0
-744 -256 0
-744 -268 0
-744 -269 0
-744 -270 0
-744 -271 0
-744 -272 0
-744 -307 0
-744 -319 0
-744 -320 0
-744 -321 0
-744 -322 0
-744 -323 0
-744 -358 0
-744 -370 0
-744 -371 0
-744 -372 0
-744 -373 0
-744 -374 0
-744 -409 0
-744 -421 0
-744 -422 0
-744 -423 0
-744 -424 0
-744 -425 0
-744 -460 0
-744 -472 0
-744 -473 0
-744 -474 0
-744 -475 0
-744 -476 0
-744 -511 0
-744 -523 0
-744 -524 0
-744 -525 0
-744 -526 0
-744 -527 0
-744 -562 0
-744 -574 0
-744 -575 0
-744 -576 0
-744 -577 0
-744 -578 0
-745 -52 0
-745 -53 0
-745 -65 0
-745 -66 0
-745 -67 0
-745 -68 0
-745 -103 0
-745 -104 0
-745 -116 0
-745 -117 0
-745 -118 0
-745 -119 0
-745 -154 0
-745 -155 0
-745 -167 0
-745 -168 0
-745 -169 0
-745 -170 0
-745 -205 0
-745 -206 0
-745 -218 0
-745 -219 0
-745 -220 0
-745 -221 0
-745 -256 0
-745 -257 0
-745 -269 0
-745 -270 0
-745 -271 0
-745 -272 0
-745 -307 0
-745 -308 0
-745 -320 0
-745 -321 0
-745 -322 0
-745 -323 0
-745 -358 0
-745 -359 0
-745 -371 0
-745 -372 0
-745 -373 0
-745 -374 0
-745 -409 0
-745 -410 0
-745 -422 0
-745 -423 0
-745 -424 0
-745 -425 0
-745 -460 0
-745 -461 0
-745 -473 0
-745 -474 0
-745 -475 0
-745 -476 0
-745 -511 0
-745 -512 0
-745 -524 0
-745 -525 0
-745 -526 0
-745 -527 0
-745 -562 0
-745 -563 0
-745 -575 0
-745 -576 0
-745 -577 0
-745 -578 0
-746 -52 0
-746 -53 0
-746 -54 0
-746 -66 0
-746 -67 0
-746 -68 0
-746 -103 0
-746 -104 0
-746 -105 0
-746 -117 0
-746 -118 0
-746 -119 0
-746 -154 0
-746 -155 0
-746 -156 0
-746 -168 0
-746 -169 0
-746 -170 0
-746 -205 0
-746 -206 0
-746 -207 0
-746 -219 0
-746 -220 0
-746 -221 0
-746 -256 0
-746 -257 0
-746 -258 0
-746 -270 0
-746 -271 0
-746 -272 0
-746 -307 0
-746 -308 0
-746 -309 0
-746 -321 0
-746 -322 0
-746 -323 0
-746 -358 0
-746 -359 0
-746 -360 0
-746 -372 0
-746 -373 0
-746 -374 0
-746 -409 0
-746 -410 0
-746 -411 0
-746 -423 0
-746 -424 0
-746 -425 0
-746 -460 0
-746 -461 0
-746 -462 0
-746 -474 0
-746 -475 0
-746 -476 0
-746 -511 0
-746 -512 0
-746 -513 0
-746 -525 0
-746 -526 0
-746 -527 0
-746 -562 0
-746 -563 0
-746 -564 0
-746 -576 0
-746 -577 0
-746 -578 0
-747 -52 0
-747 -53 0
-747 -54 0
-747 -55 0
-747 -67 0
-747 -68 0
-747 -103 0
-747 -104 0
-747 -105 0
-747 -106 0
-747 -118 0
-747 -119 0
-747 -154 0
-747 -155 0
-747 -156 0
-747 -157 0
-747 -169 0
-747 -170 0
-747 -205 0
-747 -206 0
-747 -207 0
-747 -208 0
-747 -220 0
-747 -221 0
-747 -256 0
-747 -257 0
-747 -258 0
-747 -259 0
-747 -271 0
-747 -272 0
-747 -307 0
-747 -308 0
-747 -309 0
-747 -310 0
-747 -322 0
-747 -323 0
-747 -358 0
-747 -359 0
-747 -360 0
-747 -361 0
-747 -373 0
-747 -374 0
-747 -409 0
-747 -410 0
-747 -411 0
-747 -412 0
-747 -424 0
-747 -425 0
-747 -460 0
-747 -461 0
-747 -462 0
-747 -463 0
-747 -475 0
-747 -476 0
-747 -511 0
-747 -512 0
-747 -513 0
-747 -514 0
-747 -526 0
-747 -527 0
-747 -562 0
-747 -563 0
-747 -564 0
-747 -565 0
-747 -577 0
-747 -578 0
-748 -52 0
-748 -53 0
-748 -54 0
-748 -55 0
-748 -56 0
-748 -68 0
-748 -103 0
-748 -104 0
-748 -105 0
-748 -106 0
-748 -107 0
-748 -119 0
-748 -154 0
-748 -155 0
-748 -156 0
-748 -157 0
-748 -158 0
-748 -170 0
-748 -205 0
-748 -206 0
-748 -207 0
-748 -208 0
-748 -209 0
-748 -221 0
-748 -256 0
-748 -257 0
-748 -258 0
-748 -259 0
-748 -260 0
-748 -272 0
-748 -307 0
-748 -308 0
-748 -309 0
-748 -310 0
-748 -311 0
-748 -323 0
-748 -358 0
-748 -359 0
-748 -360 0
-748 -361 0
-748 -362 0
-748 -374 0
-748 -409 0
-748 -410 0
-748 -411 0
-748 -412 0
-748 -413 0
-748 -425 0
-748 -460 0
-748 -461 0
-748 -462 0
-748 -463 0
-748 -464 0
-748 -476 0
-748 -511 0
-748 -512 0
-748 -513 0
-748 -514 0
-748 -515 0
-748 -527 0
-748 -562 0
-748 -563 0
-748 -564 0
-748 -565 0
-748 -566 0
-748 -578 0
-749 -52 0
-749 -53 0
-749 -54 0
-749 -55 0
-749 -56 0
-749 -57 0
-749 -103 0
-749 -104 0
-749 -105 0
-749 -106 0
-749 -107 0
-749 -108 0
-749 -154 0
-749 -155 0
-749 -156 0
-749 -157 0
-749 -158 0
-749 -159 0
-749 -205 0
-749 -206 0
-749 -207 0
-749 -208 0
-749 -209 0
-749 -210 0
-749 -256 0
-749 -257 0
-749 -258 0
-749 -259 0
-749 -260 0
-749 -261 0
-749 -307 0
-749 -308 0
-749 -309 0
-749 -310 0
-749 -311 0
-749 -312 0
-749 -358 0
-749 -359 0
-749 -360 0
-749 -361 0
-749 -362 0
-749 -363 0
-749 -409 0
-749 -410 0
-749 -411 0
-749 -412 0
-749 -413 0
-749 -414 0
-749 -460 0
-749 -461 0
-749 -462 0
-749 -463 0
-749 -464 0
-749 -465 0
-749 -511 0
-749 -512 0
-749 -513 0
-749 -514 0
-749 -515 0
-749 -516 0
-749 -562 0
-749 -563 0
-749 -564 0
-749 -565 0
-749 -566 0
-749 -567 0
-1 -69 0
-1 -222 0
-1 -273 0
-69 -222 0
-69 -273 0
-222 -273 0
-2 -70 0
-2 -223 0
-2 -274 0
-70 -223 0
-70 -274 0
-223 -274 0
-3 -71 0
-3 -224 0
-3 -275 0
-71 -224 0
-71 -275 0
-224 -275 0
-4 -72 0
-4 -225 0
-4 -276 0
-72 -225 0
-72 -276 0
-225 -276 0
-5 -73 0
-5 -226 0
-5 -277 0
-73 -226 0
-73 -277 0
-226 -277 0
-6 -74 0
-6 -227 0
-6 -278 0
-74 -227 0
-74 -278 0
-227 -278 0
-7 -75 0
-7 -228 0
-7 -279 0
-75 -228 0
-75 -279 0
-228 -279 0
-8 -76 0
-8 -229 0
-8 -280 0
-76 -229 0
-76 -280 0
-229 -280 0
-9 -77 0
-9 -230 0
-9 -281 0
-77 -230 0
-77 -281 0
-230 -281 0
-10 -78 0
-10 -231 0
-10 -282 0
-78 -231 0
-78 -282 0
-231 -282 0
-11 -79 0
-11 -232 0
-11 -283 0
-79 -232 0
-79 -283 0
-232 -283 0
-12 -80 0
-12 -233 0
-12 -284 0
-80 -233 0
-80 -284 0
-233 -284 0
-13 -81 0
-13 -234 0
-13 -285 0
-81 -234 0
-81 -285 0
-234 -285 0
-14 -82 0
-14 -235 0
-14 -286 0
-82 -235 0
-82 -286 0
-235 -286 0
-15 -83 0
-15 -236 0
-15 -287 0
-83 -236 0
-83 -287 0
-236 -287 0
-16 -84 0
-16 -237 0
-16 -288 0
-84 -237 0
-84 -288 0
-237 -288 0
-17 -85 0
-17 -238 0
-17 -289 0
-85 -238 0
-85 -289 0
-238 -289 0
750 751 752 753 754 755 756 757 758 759 760 761 762 763 0
-750 -751 0
-750 -752 0
-750 -753 0
-750 -754 0
-750 -755 0
-750 -756 0
-750 -757 0
-750 -758 0
-750 -759 0
-750 -760 0
-750 -761 0
-750 -762 0
-750 -763 0
-751 -752 0
-751 -753 0
-751 -754 0
-751 -755 0
-751 -756 0
-751 -757 0
-751 -758 0
-751 -759 0
-751 -760 0
-751 -761 0
-751 -762 0
-751 -763 0
-752 -753 0
-752 -754 0
-752 -755 0
-752 -756 0
-752 -757 0
-752 -758 0
-752 -759 0
-752 -760 0
-752 -761 0
-752 -762 0
-752 -763 0
-753 -754 0
-753 -755 0
-753 -756 0
-753 -757 0
-753 -758 0
-753 -759 0
-753 -760 0
-753 -761 0
-753 -762 0
-753 -763 0
-754 -755 0
-754 -756 0
-754 -757 0
-754 -758 0
-754 -759 0
-754 -760 0
-754 -761 0
-754 -762 0
-754 -763 0
-755 -756 0
-755 -757 0
-755 -758 0
-755 -759 0
-755 -760 0
-755 -761 0
-755 -762 0
-755 -763 0
-756 -757 0
-756 -758 0
-756 -759 0
-756 -760 0
-756 -761 0
-756 -762 0
-756 -763 0
-757 -758 0
-757 -759 0
-757 -760 0
-757 -761 0
-757 -762 0
-757 -763 0
-758 -759 0
-758 -760 0
-758 -761 0
-758 -762 0
-758 -763 0
-759 -760 0
-759 -761 0
-759 -762 0
-759 -763 0
-760 -761 0
-760 -762 0
-760 -763 0
-761 -762 0
-761 -763 0
-762 -763 0
-1 750 0
-2 750 751 0
-3 750 751 752 0
-4 750 751 752 753 0
-5 751 752 753 754 0
-6 752 753 754 755 0
-7 753 754 755 756 0
-8 754 755 756 757 0
-9 755 756 757 758 0
-10 756 757 758 759 0
-11 757 758 759 760 0
-12 758 759 760 761 0
-13 759 760 761 762 0
-14 760 761 762 763 0
-15 761 762 763 0
-16 762 763 0
-17 763 0
-69 750 0
-70 750 751 0
-71 750 751 752 0
-72 750 751 752 753 0
-73 751 752 753 754 0
-74 752 753 754 755 0
-75 753 754 755 756 0
-76 754 755 756 757 0
-77 755 756 757 758 0
-78 756 757 758 759 0
-79 757 758 759 760 0
-80 758 759 760 761 0
-81 759 760 761 762 0
-82 760 761 762 763 0
-83 761 762 763 0
-84 762 763 0
-85 763 0
-222 750 0
-223 750 751 0
-224 750 751 752 0
-225 750 751 752 753 0
-226 751 752 753 754 0
-227 752 753 754 755 0
-228 753 754 755 756 0
-229 754 755 756 757 0
-230 755 756 757 758 0
-231 756 757 758 759 0
-232 757 758 759 760 0
-233 758 759 760 761 0
-234 759 760 761 762 0
-235 760 761 762 763 0
-236 761 762 763 0
-237 762 763 0
-238 763 0
-273 750 0
-274 750 751 0
-275 750 751 752 0
-276 750 751 752 753 0
-277 751 752 753 754 0
-278 752 753 754 755 0
-279 753 754 755 756 0
-280 754 755 756 757 0
-281 755 756 757 758 0
-282 756 757 758 759 0
-283 757 758 759 760 0
-284 758 759 760 761 0
-285 759 760 761 762 0
-286 760 761 762 763 0
-287 761 762 763 0
-288 762 763 0
-289 763 0
-750 -5 0
-750 -6 0
-750 -7 0
-750 -8 0
-750 -9 0
-750 -10 0
-750 -11 0
-750 -12 0
-750 -13 0
-750 -14 0
-750 -15 0
-750 -16 0
-750 -17 0
-750 -73 0
-750 -74 0
-750 -75 0
-750 -76 0
-750 -77 0
-750 -78 0
-750 -79 0
-750 -80 0
-750 -81 0
-750 -82 0
-750 -83 0
-750 -84 0
-750 -85 0
-750 -226 0
-750 -227 0
-750 -228 0
-750 -229 0
-750 -230 0
-750 -231 0
-750 -232 0
-750 -233 0
-750 -234 0
-750 -235 0
-750 -236 0
-750 -237 0
-750 -238 0
-750 -277 0
-750 -278 0
-750 -279 0
-750 -280 0
-750 -281 0
-750 -282 0
-750 -283 0
-750 -284 0
-750 -285 0
-750 -286 0
-750 -287 0
-750 -288 0
-750 -289 0
-751 -1 0
-751 -6 0
-751 -7 0
-751 -8 0
-751 -9 0
-751 -10 0
-751 -11 0
-751 -12 0
-751 -13 0
-751 -14 0
-751 -15 0
-751 -16 0
-751 -17 0
-751 -69 0
-751 -74 0
-751 -75 0
-751 -76 0
-751 -77 0
-751 -78 0
-751 -79 0
-751 -80 0
-751 -81 0
-751 -82 0
-751 -83 0
-751 -84 0
-751 -85 0
-751 -222 0
-751 -227 0
-751 -228 0
-751 -229 0
-751 -230 0
-751 -231 0
-751 -232 0
-751 -233 0
-751 -234 0
-751 -235 0
-751 -236 0
-751 -237 0
-751 -238 0
-751 -273 0
-751 -278 0
-751 -279 0
-751 -280 0
-751 -281 0
-751 -282 0
-751 -283 0
-751 -284 0
-751 -285 0
-751 -286 0
-751 -287 0
-751 -288 0
-751 -289 0
-752 -1 0
-752 -2 0
-752 -7 0
-752 -8 0
-752 -9 0
-752 -10 0
-752 -11 0
-752 -12 0
-752 -13 0
-752 -14 0
-752 -15 0
-752 -16 0
-752 -17 0
-752 -69 0
-752 -70 0
-752 -75 0
-752 -76 0
-752 -77 0
-752 -78 0
-752 -79 0
-752 -80 0
-752 -81 0
-752 -82 0
-752 -83 0
-752 -84 0
-752 -85 0
-752 -222 0
-752 -223 0
-752 -228 0
-752 -229 0
-752 -230 0
-752 -231 0
-752 -232 0
-752 -233 0
-752 -234 0
-752 -235 0
-752 -236 0
-752 -237 0
-752 -238 0
-752 -273 0
-752 -274 0
-752 -279 0
-752 -280 0
-752 -281 0
-752 -282 0
-752 -283 0
-752 -284 0
-752 -285 0
-752 -286 0
-752 -287 0
-752 -288 0
-752 -289 0
-753 -1 0
-753 -2 0
-753 -3 0
-753 -8 0
-753 -9 0
-753 -10 0
-753 -11 0
-753 -12 0
-753 -13 0
-753 -14 0
-753 -15 0
-753 -16 0
-753 -17 0
-753 -69 0
-753 -70 0
-753 -71 0
-753 -76 0
-753 -77 0
-753 -78 0
-753 -79 0
-753 -80 0
-753 -81 0
-753 -82 0
-753 -83 0
-753 -84 0
-753 -85 0
-753 -222 0
-753 -223 0
-753 -224 0
-753 -229 0
-753 -230 0
-753 -231 0
-753 -232 0
-753 -233 0
-753 -234 0
-753 -235 0
-753 -236 0
-753 -237 0
-753 -238 0
-753 -273 0
-753 -274 0
-753 -275 0
-753 -280 0
-753 -281 0
-753 -282 0
-753 -283 0
-753 -284 0
-753 -285 0
-753 -286 0
-753 -287 0
-753 -288 0
-753 -289 0
-754 -1 0
-754 -2 0
-754 -3 0
-754 -4 0
-754 -9 0
-754 -10 0
-754 -11 0
-754 -12 0
-754 -13 0
-754 -14 0
-754 -15 0
-754 -16 0
-754 -17 0
-754 -69 0
-754 -70 0
-754 -71 0
-754 -72 0
-754 -77 0
-754 -78 0
-754 -79 0
-754 -80 0
-754 -81 0
-754 -82 0
-754 -83 0
-754 -84 0
-754 -85 0
-754 -222 0
-754 -223 0
-754 -224 0
-754 -225 0
-754 -230 0
-754 -231 0
-754 -232 0
-754 -233 0
-754 -234 0
-754 -235 0
-754 -236 0
-754 -237 0
-754 -238 0
-754 -273 0
-754 -274 0
-754 -275 0
-754 -276 0
-754 -281 0
-754 -282 0
-754 -283 0
-754 -284 0
-754 -285 0
-754 -286 0
-754 -287 0
-754 -288 0
-754 -289 0
-755 -1 0
-755 -2 0
-755 -3 0
-755 -4 0
-755 -5 0
-755 -10 0
-755 -11 0
-755 -12 0
-755 -13 0
-755 -14 0
-755 -15 0
-755 -16 0
-755 -17 0
-755 -69 0
-755 -70 0
-755 -71 0
-755 -72 0
-755 -73 0
-755 -78 0
-755 -79 0
-755 -80 0
-755 -81 0
-755 -82 0
-755 -83 0
-755 -84 0
-755 -85 0
-755 -222 0
-755 -223 0
-755 -224 0
-755 -225 0
-755 -226 0
-755 -231 0
-755 -232 0
-755 -233 0
-755 -234 0
-755 -235 0
-755 -236 0
-755 -237 0
-755 -238 0
-755 -273 0
-755 -274 0
-755 -275 0
-755 -276 0
-755 -277 0
-755 -282 0
-755 -283 0
-755 -284 0
-755 -285 0
-755 -286 0
-755 -287 0
-755 -288 0
-755 -289 0
-756 -1 0
-756 -2 0
-756 -3 0
-756 -4 0
-756 -5 0
-756 -6 0
-756 -11 0
-756 -12 0
-756 -13 0
-756 -14 0
-756 -15 0
-756 -16 0
-756 -17 0
-756 -69 0
-756 -70 0
-756 -71 0
-756 -72 0
-756 -73 0
-756 -74 0
-756 -79 0
-756 -80 0
-756 -81 0
-756 -82 0
-756 -83 0
-756 -84 0
-756 -85 0
-756 -222 0
-756 -223 0
-756 -224 0
-756 -225 0
-756 -226 0
-756 -227 0
-756 -232 0
-756 -233 0
-756 -234 0
-756 -235 0
-756 -236 0
-756 -237 0
-756 -238 0
-756 -273 0
-756 -274 0
-756 -275 0
-756 -276 0
-756 -277 0
-756 -278 0
-756 -283 0
-756 -284 0
-756 -285 0
-756 -286 0
-756 -287 0
-756 -288 0
-756 -289 0
-757 -1 0
-757 -2 0
-757 -3 0
-757 -4 0
-757 -5 0
-757 -6 0
-757 -7 0
-757 -12 0
-757 -13 0
-757 -14 0
-757 -15 0
-757 -16 0
-757 -17 0
-757 -69 0
-757 -70 0
-757 -71 0
-757 -72 0
-757 -73 0
-757 -74 0
-757 -75 0
-757 -80 0
-757 -81 0
-757 -82 0
-757 -83 0
-757 -84 0
-757 -85 0
-757 -222 0
-757 -223 0
-757 -224 0
-757 -225 0
-757 -226 0
-757 -227 0
-757 -228 0
-757 -233 0
-757 -234 0
-757 -235 0
-757 -236 0
-757 -237 0
-757 -238 0
-757 -273 0
-757 -274 0
-757 -275 0
-757 -276 0
-757 -277 0
-757 -278 0
-757 -279 0
-757 -284 0
-757 -285 0
-757 -286 0
-757 -287 0
-757 -288 0
-757 -289 0
-758 -1 0
-758 -2 0
-758 -3 0
-758 -4 0
-758 -5 0
-758 -6 0
-758 -7 0
-758 -8 0
-758 -13 0
-758 -14 0
-758 -15 0
-758 -16 0
-758 -17 0
-758 -69 0
-758 -70 0
-758 -71 0
-758 -72 0
-758 -73 0
-758 -74 0
-758 -75 0
-758 -76 0
-758 -81 0
-758 -82 0
-758 -83 0
-758 -84 0
-758 -85 0
-758 -222 0
-758 -223 0
-758 -224 0
-758 -225 0
-758 -226 0
-758 -227 0
-758 -228 0
-758 -229 0
-758 -234 0
-758 -235 0
-758 -236 0
-758 -237 0
-758 -238 0
-758 -273 0
-758 -274 0
-758 -275 0
-758 -276 0
-758 -277 0
-758 -278 0
-758 -279 0
-758 -280 0
-758 -285 0
-758 -286 0
-758 -287 0
-758 -288 0
-758 -289 0
-759 -1 0
-759 -2 0
-759 -3 0
-759 -4 0
-759 -5 0
-759 -6 0
-759 -7 0
-759 -8 0
-759 -9 0
-759 -14 0
-759 -15 0
-759 -16 0
-759 -17 0
-759 -69 0
-759 -70 0
-759 -71 0
-759 -72 0
-759 -73 0
-759 -74 0
-759 -75 0
-759 -76 0
-759 -77 0
-759 -82 0
-759 -83 0
-759 -84 0
-759 -85 0
-759 -222 0
-759 -223 0
-759 -224 0
-759 -225 0
-759 -226 0
-759 -227 0
-759 -228 0
-759 -229 0
-759 -230 0
-759 -235 0
-759 -236 0
-759 -237 0
-759 -238 0
-759 -273 0
-759 -274 0
-759 -275 0
-759 -276 0
-759 -277 0
-759 -278 0
-759 -279 0
-759 -280 0
-759 -281 0
-759 -286 0
-759 -287 0
-759 -288 0
-759 -289 0
-760 -1 0
-760 -2 0
-760 -3 0
-760 -4 0
-760 -5 0
-760 -6 0
-760 -7 0
-760 -8 0
-760 -9 0
-760 -10 0
-760 -15 0
-760 -16 0
-760 -17 0
-760 -69 0
-760 -70 0
-760 -71 0
-760 -72 0
-760 -73 0
-760 -74 0
-760 -75 0
-760 -76 0
-760 -77 0
-760 -78 0
-760 -83 0
-760 -84 0
-760 -85 0
-760 -222 0
-760 -223 0
-760 -224 0
-760 -225 0
-760 -226 0
-760 -227 0
-760 -228 0
-760 -229 0
-760 -230 0
-760 -231 0
-760 -236 0
-760 -237 0
-760 -238 0
-760 -273 0
-760 -274 0
-760 -275 0
-760 -276 0
-760 -277 0
-760 -278 0
-760 -279 0
-760 -280 0
-760 -281 0
-760 -282 0
-760 -287 0
-760 -288 0
-760 -289 0
-761 -1 0
-761 -2 0
-761 -3 0
-761 -4 0
-761 -5 0
-761 -6 0
-761 -7 0
-761 -8 0
-761 -9 0
-761 -10 0
-761 -11 0
-761 -16 0
-761 -17 0
-761 -69 0
-761 -70 0
-761 -71 0
-761 -72 0
-761 -73 0
-761 -74 0
-761 -75 0
-761 -76 0
-761 -77 0
-761 -78 0
-761 -79 0
-761 -84 0
-761 -85 0
-761 -222 0
-761 -223 0
-761 -224 0
-761 -225 0
-761 -226 0
-761 -227 0
-761 -228 0
-761 -229 0
-761 -230 0
-761 -231 0
-761 -232 0
-761 -237 0
-761 -238 0
-761 -273 0
-761 -274 0
-761 -275 0
-761 -276 0
-761 -277 0
-761 -278 0
-761 -279 0
-761 -280 0
-761 -281 0
-761 -282 0
-761 -283 0
-761 -288 0
-761 -289 0
-762 -1 0
-762 -2 0
-762 -3 0
-762 -4 0
-762 -5 0
-762 -6 0
-762 -7 0
-762 -8 0
-762 -9 0
-762 -10 0
-762 -11 0
-762 -12 0
-762 -17 0
-762 -69 0
-762 -70 0
-762 -71 0
-762 -72 0
-762 -73 0
-762 -74 0
-762 -75 0
-762 -76 0
-762 -77 0
-762 -78 0
-762 -79 0
-762 -80 0
-762 -85 0
-762 -222 0
-762 -223 0
-762 -224 0
-762 -225 0
-762 -226 0
-762 -227 0
-762 -228 0
-762 -229 0
-762 -230 0
-762 -231 0
-762 -232 0
-762 -233 0
-762 -238 0
-762 -273 0
-762 -274 0
-762 -275 0
-762 -276 0
-762 -277 0
-762 -278 0
-762 -279 0
-762 -280 0
-762 -281 0
-762 -282 0
-762 -283 0
-762 -284 0
-762 -289 0
-763 -1 0
-763 -2 0
-763 -3 0
-763 -4 0
-763 -5 0
-763 -6 0
-763 -7 0
-763 -8 0
-763 -9 0
-763 -10 0
-763 -11 0
-763 -12 0
-763 -13 0
-763 -69 0
-763 -70 0
-763 -71 0
-763 -72 0
-763 -73 0
-763 -74 0
-763 -75 0
-763 -76 0
-763 -77 0
-763 -78 0
-763 -79 0
-763 -80 0
-763 -81 0
-763 -222 0
-763 -223 0
-763 -224 0
-763 -225 0
-763 -226 0
-763 -227 0
-763 -228 0
-763 -229 0
-763 -230 0
-763 -231 0
-763 -232 0
-763 -233 0
-763 -234 0
-763 -273 0
-763 -274 0
-763 -275 0
-763 -276 0
-763 -277 0
-763 -278 0
-763 -279 0
-763 -280 0
-763 -281 0
-763 -282 0
-763 -283 0
-763 -284 0
-763 -285 0
-18 -324 0
-18 -375 0
-18 -426 0
-324 -375 0
-324 -426 0
-375 -426 0
-19 -325 0
-19 -376 0
-19 -427 0
-325 -376 0
-325 -427 0
-376 -427 0
-20 -326 0
-20 -377 0
-20 -428 0
-326 -377 0
-326 -428 0
-377 -428 0
-21 -327 0
-21 -378 0
-21 -429 0
-327 -378 0
-327 -429 0
-378 -429 0
-22 -328 0
-22 -379 0
-22 -430 0
-328 -379 0
-328 -430 0
-379 -430 0
-23 -329 0
-23 -380 0
-23 -431 0
-329 -380 0
-329 -431 0
-380 -431 0
-24 -330 0
-24 -381 0
-24 -432 0
-330 -381 0
-330 -432 0
-381 -432 0
-25 -331 0
-25 -382 0
-25 -433 0
-331 -382 0
-331 -433 0
-382 -433 0
-26 -332 0
-26 -383 0
-26 -434 0
-332 -383 0
-332 -434 0
-383 -434 0
-27 -333 0
-27 -384 0
-27 -435 0
-333 -384 0
-333 -435 0
-384 -435 0
-28 -334 0
-28 -385 0
-28 -436 0
-334 -385 0
-334 -436 0
-385 -436 0
-29 -335 0
-29 -386 0
-29 -437 0
-335 -386 0
-335 -437 0
-386 -437 0
-30 -336 0
-30 -387 0
-30 -438 0
-336 -387 0
-336 -438 0
-387 -438 0
-31 -337 0
-31 -388 0
-31 -439 0
-337 -388 0
-337 -439 0
-388 -439 0
-32 -338 0
-32 -389 0
-32 -440 0
-338 -389 0
-338 -440 0
-389 -440 0
-33 -339 0
-33 -390 0
-33 -441 0
-339 -390 0
-339 -441 0
-390 -441 0
-34 -340 0
-34 -391 0
-34 -442 0
-340 -391 0
-340 -442 0
-391 -442 0
764 765 766 767 768 769 770 771 772 773 774 775 776 777 0
-764 -765 0
-764 -766 0
-764 -767 0
-764 -768 0
-764 -769 0
-764 -770 0
-764 -771 0
-764 -772 0
-764 -773 0
-764 -774 0
-764 -775 0
-764 -776 0
-764 -777 0
-765 -766 0
-765 -767 0
-765 -768 0
-765 -769 0
-765 -770 0
-765 -771 0
-765 -772 0
-765 -773 0
-765 -774 0
-765 -775 0
-765 -776 0
-765 -777 0
-766 -767 0
-766 -768 0
-766 -769 0
-766 -770 0
-766 -771 0
-766 -772 0
-766 -773 0
-766 -774 0
-766 -775 0
-766 -776 0
-766 -777 0
-767 -768 0
-767 -769 0
-767 -770 0
-767 -771 0
-767 -772 0
-767 -773 0
-767 -774 0
-767 -775 0
-767 -776 0
-767 -777 0
-768 -769 0
-768 -770 0
-768 -771 0
-768 -772 0
-768 -773 0
-768 -774 0
-768 -775 0
-768 -776 0
-768 -777 0
-769 -770 0
-769 -771 0
-769 -772 0
-769 -773 0
-769 -774 0
-769 -775 0
-769 -776 0
-769 -777 0
-770 -771 0
-770 -772 0
-770 -773 0
-770 -774 0
-770 -775 0
-770 -776 0
-770 -777 0
-771 -772 0
-771 -773 0
-771 -774 0
-771 -775 0
-771 -776 0
-771 -777 0
-772 -773 0
-772 -774 0
-772 -775 0
-772 -776 0
-772 -777 0
-773 -774 0
-773 -775 0
-773 -776 0
-773 -777 0
-774 -775 0
-774 -776 0
-774 -777 0
-775 -776 0
-775 -777 0
-776 -777 0
-18 764 0
-19 764 765 0
-20 764 765 766 0
-21 764 765 766 767 0
-22 765 766 767 768 0
-23 766 767 768 769 0
-24 767 768 769 770 0
-25 768 769 770 771 0
-26 769 770 771 772 0
-27 770 771 772 773 0
-28 771 772 773 774 0
-29 772 773 774 775 0
-30 773 774 775 776 0
-31 774 775 776 777 0
-32 775 776 777 0
-33 776 777 0
-34 777 0
-324 764 0
-325 764 765 0
-326 764 765 766 0
-327 764 765 766 767 0
-328 765 766 767 768 0
-329 766 767 768 769 0
-330 767 768 769 770 0
-331 768 769 770 771 0
-332 769 770 771 772 0
-333 770 771 772 773 0
-334 771 772 773 774 0
-335 772 773 774 775 0
-336 773 774 775 776 0
-337 774 775 776 777 0
-338 775 776 777 0
-339 776 777 0
-340 777 0
-375 764 0
-376 764 765 0
-377 764 765 766 0
-378 764 765 766 767 0
-379 765 766 767 768 0
-380 766 767 768 769 0
-381 767 768 769 770 0
-382 768 769 770 771 0
-383 769 770 771 772 0
-384 770 771 772 773 0
-385 771 772 773 774 0
-386 772 773 774 775 0
-387 773 774 775 776 0
-388 774 775 776 777 0
-389 775 776 777 0
-390 776 777 0
-391 777 0
-426 764 0
-427 764 765 0
-428 764 765 766 0
-429 764 765 766 767 0
-430 765 766 767 768 0
-431 766 767 768 769 0
-432 767 768 769 770 0
-433 768 769 770 771 0
-434 769 770 771 772 0
-435 770 771 772 773 0
-436 771 772 773 774 0
-437 772 773 774 775 0
-438 773 774 775 776 0
-439 774 775 776 777 0
-440 775 776 777 0
-441 776 777 0
-442 777 0
-764 -22 0
-764 -23 0
-764 -24 0
-764 -25 0
-764 -26 0
-764 -27 0
-764 -28 0
-764 -29 0
-764 -30 0
-764 -31 0
-764 -32 0
-764 -33 0
-764 -34 0
-764 -328 0
-764 -329 0
-764 -330 0
-764 -331 0
-764 -332 0
-764 -333 0
-764 -334 0
-764 -335 0
-764 -336 0
-764 -337 0
-764 -338 0
-764 -339 0
-764 -340 0
-764 -379 0
-764 -380 0
-764 -381 0
-764 -382 0
-764 -383 0
-764 -384 0
-764 -385 0
-764 -386 0
-764 -387 0
-764 -388 0
-764 -389 0
-764 -390 0
-764 -391 0
-764 -430 0
-764 -431 0
-764 -432 0
-764 -433 0
-764 -434 0
-764 -435 0
-764 -436 0
-764 -437 0
-764 -438 0
-764 -439 0
-764 -440 0
-764 -441 0
-764 -442 0
-765 -18 0
-765 -23 0
-765 -24 0
-765 -25 0
-765 -26 0
-765 -27 0
-765 -28 0
-765 -29 0
-765 -30 0
-765 -31 0
-765 -32 0
-765 -33 0
-765 -34 0
-765 -324 0
-765 -329 0
-765 -330 0
-765 -331 0
-765 -332 0
-765 -333 0
-765 -334 0
-765 -335 0
-765 -336 0
-765 -337 0
-765 -338 0
-765 -339 0
-765 -340 0
-765 -375 0
-765 -380 0
-765 -381 0
-765 -382 0
-765 -383 0
-765 -384 0
-765 -385 0
-765 -386 0
-765 -387 0
-765 -388 0
-765 -389 0
-765 -390 0
-765 -391 0
-765 -426 0
-765 -431 0
-765 -432 0
-765 -433 0
-765 -434 0
-765 -435 0
-765 -436 0
-765 -437 0
-765 -438 0
-765 -439 0
-765 -440 0
-765 -441 0
-765 -442 0
-766 -18 0
-766 -19 0
-766 -24 0
-766 -25 0
-766 -26 0
-766 -27 0
-766 -28 0
-766 -29 0
-766 -30 0
-766 -31 0
-766 -32 0
-766 -33 0
-766 -34 0
-766 -324 0
-766 -325 0
-766 -330 0
-766 -331 0
-766 -332 0
-766 -333 0
-766 -334 0
-766 -335 0
-766 -336 0
-766 -337 0
-766 -338 0
-766 -339 0
-766 -340 0
-766 -375 0
-766 -376 0
-766 -381 0
-766 -382 0
-766 -383 0
-766 -384 0
-766 -385 0
-766 -386 0
-766 -387 0
-766 -388 0
-766 -389 0
-766 -390 0
-766 -391 0
-766 -426 0
-766 -427 0
-766 -432 0
-766 -433 0
-766 -434 0
-766 -435 0
-766 -436 0
-766 -437 0
-766 -438 0
-766 -439 0
-766 -440 0
-766 -441 0
-766 -442 0
-767 -18 0
-767 -19 0
-767 -20 0
-767 -25 0
-767 -26 0
-767 -27 0
-767 -28 0
-767 -29 0
-767 -30 0
-767 -31 0
-767 -32 0
-767 -33 0
-767 -34 0
-767 -324 0
-767 -325 0
-767 -326 0
-767 -331 0
-767 -332 0
-767 -333 0
-767 -334 0
-767 -335 0
-767 -336 0
-767 -337 0
-767 -338 0
-767 -339 0
-767 -340 0
-767 -375 0
-767 -376 0
-767 -377 0
-767 -382 0
-767 -383 0
-767 -384 0
-767 -385 0
-767 -386 0
-767 -387 0
-767 -388 0
-767 -389 0
-767 -390 0
-767 -391 0
-767 -426 0
-767 -427 0
-767 -428 0
-767 -433 0
-767 -434 0
-767 -435 0
-767 -436 0
-767 -437 0
-767 -438 0
-767 -439 0
-767 -440 0
-767 -441 0
-767 -442 0
-768 -18 0
-768 -19 0
-768 -20 0
-768 -21 0
-768 -26 0
-768 -27 0
-768 -28 0
-768 -29 0
-768 -30 0
-768 -31 0
-768 -32 0
-768 -33 0
-768 -34 0
-768 -324 0
-768 -325 0
-768 -326 0
-768 -327 0
-768 -332 0
-768 -333 0
-768 -334 0
-768 -335 0
-768 -336 0
-768 -337 0
-768 -338 0
-768 -339 0
-768 -340 0
-768 -375 0
-768 -376 0
-768 -377 0
-768 -378 0
-768 -383 0
-768 -384 0
-768 -385 0
-768 -386 0
-768 -387 0
-768 -388 0
-768 -389 0
-768 -390 0
-768 -391 0
-768 -426 0
-768 -427 0
-768 -428 0
-768 -429 0
-768 -434 0
-768 -435 0
-768 -436 0
-768 -437 0
-768 -438 0
-768 -439 0
-768 -440 0
-768 -441 0
-768 -442 0
-769 -18 0
-769 -19 0
-769 -20 0
-769 -21 0
-769 -22 0
-769 -27 0
-769 -28 0
-769 -29 0
-769 -30 0
-769 -31 0
-769 -32 0
-769 -33 0
-769 -34 0
-769 -324 0
-769 -325 0
-769 -326 0
-769 -327 0
-769 -328 0
-769 -333 0
-769 -334 0
-769 -335 0
-769 -336 0
-769 -337 0
-769 -338 0
-769 -339 0
-769 -340 0
-769 -375 0
-769 -376 0
-769 -377 0
-769 -378 0
-769 -379 0
-769 -384 0
-769 -385 0
-769 -386 0
-769 -387 0
-769 -388 0
-769 -389 0
-769 -390 0
-769 -391 0
-769 -426 0
-769 -427 0
-769 -428 0
-769 -429 0
-769 -430 0
-769 -435 0
-769 -436 0
-769 -437 0
-769 -438 0
-769 -439 0
-769 -440 0
-769 -441 0
-769 -442 0
-770 -18 0
-770 -19 0
-770 -20 0
-770 -21 0
-770 -22 0
-770 -23 0
-770 -28 0
-770 -29 0
-770 -30 0
-770 -31 0
-770 -32 0
-770 -33 0
-770 -34 0
-770 -324 0
-770 -325 0
-770 -326 0
-770 -327 0
-770 -328 0
-770 -329 0
-770 -334 0
-770 -335 0
-770 -336 0
-770 -337 0
-770 -338 0
-770 -339 0
-770 -340 0
-770 -375 0
-770 -376 0
-770 -377 0
-770 -378 0
-770 -379 0
-770 -380 0
-770 -385 0
-770 -386 0
-770 -387 0
-770 -388 0
-770 -389 0
-770 -390 0
-770 -391 0
-770 -426 0
-770 -427 0
-770 -428 0
-770 -429 0
-770 -430 0
-770 -431 0
-770 -436 0
-770 -437 0
-770 -438 0
-770 -439 0
-770 -440 0
-770 -441 0
-770 -442 0
-771 -18 0
-771 -19 0
-771 -20 0
-771 -21 0
-771 -22 0
-771 -23 0
-771 -24 0
-771 -29 0
-771 -30 0
-771 -31 0
-771 -32 0
-771 -33 0
-771 -34 0
-771 -324 0
-771 -325 0
-771 -326 0
-771 -327 0
-771 -328 0
-771 -329 0
-771 -330 0
-771 -335 0
-771 -336 0
-771 -337 0
-771 -338 0
-771 -339 0
-771 -340 0
-771 -375 0
-771 -376 0
-771 -377 0
-771 -378 0
-771 -379 0
-771 -380 0
-771 -381 0
-771 -386 0
-771 -387 0
-771 -388 0
-771 -389 0
-771 -390 0
-771 -391 0
-771 -426 0
-771 -427 0
-771 -428 0
-771 -429 0
-771 -430 0
-771 -431 0
-771 -432 0
-771 -437 0
-771 -438 0
-771 -439 0
-771 -440 0
-771 -441 0
-771 -442 0
-772 -18 0
-772 -19 0
-772 -20 0
-772 -21 0
-772 -22 0
-772 -23 0
-772 -24 0
-772 -25 0
-772 -30 0
-772 -31 0
-772 -32 0
-772 -33 0
-772 -34 0
-772 -324 0
-772 -325 0
-772 -326 0
-772 -327 0
-772 -328 0
-772 -329 0
-772 -330 0
-772 -331 0
-772 -336 0
-772 -337 0
-772 -338 0
-772 -339 0
-772 -340 0
-772 -375 0
-772 -376 0
-772 -377 0
-772 -378 0
-772 -379 0
-772 -380 0
-772 -381 0
-772 -382 0
-772 -387 0
-772 -388 0
-772 -389 0
-772 -390 0
-772 -391 0
-772 -426 0
-772 -427 0
-772 -428 0
-772 -429 0
-772 -430 0
-772 -431 0
-772 -432 0
-772 -433 0
-772 -438 0
-772 -439 0
-772 -440 0
-772 -441 0
-772 -442 0
-773 -18 0
-773 -19 0
-773 -20 0
-773 -21 0
-773 -22 0
-773 -23 0
-773 -24 0
-773 -25 0
-773 -26 0
-773 -31 0
-773 -32 0
-773 -33 0
-773 -34 0
-773 -324 0
-773 -325 0
-773 -326 0
-773 -327 0
-773 -328 0
-773 -329 0
-773 -330 0
-773 -331 0
-773 -332 0
-773 -337 0
-773 -338 0
-773 -339 0
-773 -340 0
-773 -375 0
-773 -376 0
-773 -377 0
-773 -378 0
-773 -379 0
-773 -380 0
-773 -381 0
-773 -382 0
-773 -383 0
-773 -388 0
-773 -389 0
-773 -390 0
-773 -391 0
-773 -426 0
-773 -427 0
-773 -428 0
-773 -429 0
-773 -430 0
-773 -431 0
-773 -432 0
-773 -433 0
-773 -434 0
-773 -439 0
-773 -440 0
-773 -441 0
-773 -442 0
-774 -18 0
-774 -19 0
-774 -20 0
-774 -21 0
-774 -22 0
-774 -23 0
-774 -24 0
-774 -25 0
-774 -26 0
-774 -27 0
-774 -32 0
-774 -33 0
-774 -34 0
-774 -324 0
-774 -325 0
-774 -326 0
-774 -327 0
-774 -328 0
-774 -329 0
-774 -330 0
-774 -331 0
-774 -332 0
-774 -333 0
-774 -338 0
-774 -339 0
-774 -340 0
-774 -375 0
-774 -376 0
-774 -377 0
-774 -378 0
-774 -379 0
-774 -380 0
-774 -381 0
-774 -382 0
-774 -383 0
-774 -384 0
-774 -389 0
-774 -390 0
-774 -391 0
-774 -426 0
-774 -427 0
-774 -428 0
-774 -429 0
-774 -430 0
-774 -431 0
-774 -432 0
-774 -433 0
-774 -434 0
-774 -435 0
-774 -440 0
-774 -441 0
-774 -442 0
-775 -18 0
-775 -19 0
-775 -20 0
-775 -21 0
-775 -22 0
-775 -23 0
-775 -24 0
-775 -25 0
-775 -26 0
-775 -27 0
-775 -28 0
-775 -33 0
-775 -34 0
-775 -324 0
-775 -325 0
-775 -326 0
-775 -327 0
-775 -328 0
-775 -329 0
-775 -330 0
-775 -331 0
-775 -332 0
-775 -333 0
-775 -334 0
-775 -339 0
-775 -340 0
-775 -375 0
-775 -376 0
-775 -377 0
-775 -378 0
-775 -379 0
-775 -380 0
-775 -381 0
-775 -382 0
-775 -383 0
-775 -384 0
-775 -385 0
-775 -390 0
-775 -391 0
-775 -426 0
-775 -427 0
-775 -428 0
-775 -429 0
-775 -430 0
-775 -431 0
-775 -432 0
-775 -433 0
-775 -434 0
-775 -435 0
-775 -436 0
-775 -441 0
-775 -442 0
-776 -18 0
-776 -19 0
-776 -20 0
-776 -21 0
-776 -22 0
-776 -23 0
-776 -24 0
-776 -25 0
-776 -26 0
-776 -27 0
-776 -28 0
-776 -29 0
-776 -34 0
-776 -324 0
-776 -325 0
-776 -326 0
-776 -327 0
-776 -328 0
-776 -329 0
-776 -330 0
-776 -331 0
-776 -332 0
-776 -333 0
-776 -334 0
-776 -335 0
-776 -340 0
-776 -375 0
-776 -376 0
-776 -377 0
-776 -378 0
-776 -379 0
-776 -380 0
-776 -381 0
-776 -382 0
-776 -383 0
-776 -384 0
-776 -385 0
-776 -386 0
-776 -391 0
-776 -426 0
-776 -427 0
-776 -428 0
-776 -429 0
-776 -430 0
-776 -431 0
-776 -432 0
-776 -433 0
-776 -434 0
-776 -435 0
-776 -436 0
-776 -437 0
-776 -442 0
-777 -18 0
-777 -19 0
-777 -20 0
-777 -21 0
-777 -22 0
-777 -23 0
-777 -24 0
-777 -25 0
-777 -26 0
-777 -27 0
-777 -28 0
-777 -29 0
-777 -30 0
-777 -324 0
-777 -325 0
-777 -326 0
-777 -327 0
-777 -328 0
-777 -329 0
-777 -330 0
-777 -331 0
-777 -332 0
-777 -333 0
-777 -334 0
-777 -335 0
-777 -336 0
-777 -375 0
-777 -376 0
-777 -377 0
-777 -378 0
-777 -379 0
-777 -380 0
-777 -381 0
-777 -382 0
-777 -383 0
-777 -384 0
-777 -385 0
-777 -386 0
-777 -387 0
-777 -426 0
-777 -427 0
-777 -428 0
-777 -429 0
-777 -430 0
-777 -431 0
-777 -432 0
-777 -433 0
-777 -434 0
-777 -435 0
-777 -436 0
-777 -437 0
-777 -438 0
-120 -171 0
-120 -477 0
-120 -528 0
-171 -477 0
-171 -528 0
-477 -528 0
-121 -172 0
-121 -478 0
-121 -529 0
-172 -478 0
-172 -529 0
-478 -529 0
-122 -173 0
-122 -479 0
-122 -530 0
-173 -479 0
-173 -530 0
-479 -530 0
-123 -174 0
-123 -480 0
-123 -531 0
-174 -480 0
-174 -531 0
-480 -531 0
-124 -175 0
-124 -481 0
-124 -532 0
-175 -481 0
-175 -532 0
-481 -532 0
-125 -176 0
-125 -482 0
-125 -533 0
-176 -482 0
-176 -533 0
-482 -533 0
-126 -177 0
-126 -483 0
-126 -534 0
-177 -483 0
-177 -534 0
-483 -534 0
-127 -178 0
-127 -484 0
-127 -535 0
-178 -484 0
-178 -535 0
-484 -535 0
-128 -179 0
-128 -485 0
-128 -536 0
-179 -485 0
-179 -536 0
-485 -536 0
-129 -180 0
-129 -486 0
-129 -537 0
-180 -486 0
-180 -537 0
-486 -537 0
-130 -181 0
-130 -487 0
-130 -538 0
-181 -487 0
-181 -538 0
-487 -538 0
-131 -182 0
-131 -488 0
-131 -539 0
-182 -488 0
-182 -539 0
-488 -539 0
-132 -183 0
-132 -489 0
-132 -540 0
-183 -489 0
-183 -540 0
-489 -540 0
-133 -184 0
-133 -490 0
-133 -541 0
-184 -490 0
-184 -541 0
-490 -541 0
-134 -185 0
-134 -491 0
-134 -542 0
-185 -491 0
-185 -542 0
-491 -542 0
-135 -186 0
-135 -492 0
-135 -543 0
-186 -492 0
-186 -543 0
-492 -543 0
-136 -187 0
-136 -493 0
-136 -544 0
-187 -493 0
-187 -544 0
-493 -544 0
778 779 780 781 782 783 784 785 786 787 788 789 790 791 0
-778 -779 0
-778 -780 0
-778 -781 0
-778 -782 0
-778 -783 0
-778 -784 0
-778 -785 0
-778 -786 0
-778 -787 0
-778 -788 0
-778 -789 0
-778 -790 0
-778 -791 0
-779 -780 0
-779 -781 0
-779 -782 0
-779 -783 0
-779 -784 0
-779 -785 0
-779 -786 0
-779 -787 0
-779 -788 0
-779 -789 0
-779 -790 0
-779 -791 0
-780 -781 0
-780 -782 0
-780 -783 0
-780 -784 0
-780 -785 0
-780 -786 0
-780 -787 0
-780 -788 0
-780 -789 0
-780 -790 0
-780 -791 0
-781 -782 0
-781 -783 0
-781 -784 0
-781 -785 0
-781 -786 0
-781 -787 0
-781 -788 0
-781 -789 0
-781 -790 0
-781 -791 0
-782 -783 0
-782 -784 0
-782 -785 0
-782 -786 0
-782 -787 0
-782 -788 0
-782 -789 0
-782 -790 0
-782 -791 0
-783 -784 0
-783 -785 0
-783 -786 0
-783 -787 0
-783 -788 0
-783 -789 0
-783 -790 0
-783 -791 0
-784 -785 0
-784 -786 0
-784 -787 0
-784 -788 0
-784 -789 0
-784 -790 0
-784 -791 0
-785 -786 0
-785 -787 0
-785 -788 0
-785 -789 0
-785 -790 0
-785 -791 0
-786 -787 0
-786 -788 0
-786 -789 0
-786 -790 0
-786 -791 0
-787 -788 0
-787 -789 0
-787 -790 0
-787 -791 0
-788 -789 0
-788 -790 0
-788 -791 0
-789 -790 0
-789 -791 0
-790 -791 0
-120 778 0
-121 778 779 0
-122 778 779 780 0
-123 778 779 780 781 0
-124 779 780 781 782 0
-125 780 781 782 783 0
-126 781 782 783 784 0
-127 782 783 784 785 0
-128 783 784 785 786 0
-129 784 785 786 787 0
-130 785 786 787 788 0
-131 786 787 788 789 0
-132 787 788 789 790 0
-133 788 789 790 791 0
-134 789 790 791 0
-135 790 791 0
-136 791 0
-171 778 0
-172 778 779 0
-173 778 779 780 0
-174 778 779 780 781 0
-175 779 780 781 782 0
-176 780 781 782 783 0
-177 781 782 783 784 0
-178 782 783 784 785 0
-179 783 784 785 786 0
-180 784 785 786 787 0
-181 785 786 787 788 0
-182 786 787 788 789 0
-183 787 788 789 790 0
-184 788 789 790 791 0
-185 789 790 791 0
-186 790 791 0
-187 791 0
-477 778 0
-478 778 779 0
-479 778 779 780 0
-480 778 779 780 781 0
-481 779 780 781 782 0
-482 780 781 782 783 0
-483 781 782 783 784 0
-484 782 783 784 785 0
-485 783 784 785 786 0
-486 784 785 786 787 0
-487 785 786 787 788 0
-488 786 787 788 789 0
-489 787 788 789 790 0
-490 788 789 790 791 0
-491 789 790 791 0
-492 790 791 0
-493 791 0
-528 778 0
-529 778 779 0
-530 778 779 780 0
-531 778 779 780 781 0
-532 779 780 781 782 0
-533 780 781 782 783 0
-534 781 782 783 784 0
-535 782 783 784 785 0
-536 783 784 785 786 0
-537 784 785 786 787 0
-538 785 786 787 788 0
-539 786 787 788 789 0
-540 787 788 789 790 0
-541 788 789 790 791 0
-542 789 790 791 0
-543 790 791 0
-544 791 0
-778 -124 0
-778 -125 0
-778 -126 0
-778 -127 0
-778 -128 0
-778 -129 0
-778 -130 0
-778 -131 0
-778 -132 0
-778 -133 0
-778 -134 0
-778 -135 0
-778 -136 0
-778 -175 0
-778 -176 0
-778 -177 0
-778 -178 0
-778 -179 0
-778 -180 0
-778 -181 0
-778 -182 0
-778 -183 0
-778 -184 0
-778 -185 0
-778 -186 0
-778 -187 0
-778 -481 0
-778 -482 0
-778 -483 0
-778 -484 0
-778 -485 0
-778 -486 0
-778 -487 0
-778 -488 0
-778 -489 0
-778 -490 0
-778 -491 0
-778 -492 0
-778 -493 0
-778 -532 0
-778 -533 0
-778 -534 0
-778 -535 0
-778 -536 0
-778 -537 0
-778 -538 0
-778 -539 0
-778 -540 0
-778 -541 0
-778 -542 0
-778 -543 0
-778 -544 0
-779 -120 0
-779 -125 0
-779 -126 0
-779 -127 0
-779 -128 0
-779 -129 0
-779 -130 0
-779 -131 0
-779 -132 0
-779 -133 0
-779 -134 0
-779 -135 0
-779 -136 0
-779 -171 0
-779 -176 0
-779 -177 0
-779 -178 0
-779 -179 0
-779 -180 0
-779 -181 0
-779 -182 0
-779 -183 0
-779 -184 0
-779 -185 0
-779 -186 0
-779 -187 0
-779 -477 0
-779 -482 0
-779 -483 0
-779 -484 0
-779 -485 0
-779 -486 0
-779 -487 0
-779 -488 0
-779 -489 0
-779 -490 0
-779 -491 0
-779 -492 0
-779 -493 0
-779 -528 0
-779 -533 0
-779 -534 0
-779 -535 0
-779 -536 0
-779 -537 0
-779 -538 0
-779 -539 0
-779 -540 0
-779 -541 0
-779 -542 0
-779 -543 0
-779 -544 0
-780 -120 0
-780 -121 0
-780 -126 0
-780 -127 0
-780 -128 0
-780 -129 0
-780 -130 0
-780 -131 0
-780 -132 0
-780 -133 0
-780 -134 0
-780 -135 0
-780 -136 0
-780 -171 0
-780 -172 0
-780 -177 0
-780 -178 0
-780 -179 0
-780 -180 0
-780 -181 0
-780 -182 0
-780 -183 0
-780 -184 0
-780 -185 0
-780 -186 0
-780 -187 0
-780 -477 0
-780 -478 0
-780 -483 0
-780 -484 0
-780 -485 0
-780 -486 0
-780 -487 0
-780 -488 0
-780 -489 0
-780 -490 0
-780 -491 0
-780 -492 0
-780 -493 0
-780 -528 0
-780 -529 0
-780 -534 0
-780 -535 0
-780 -536 0
-780 -537 0
-780 -538 0
-780 -539 0
-780 -540 0
-780 -541 0
-780 -542 0
-780 -543 0
-780 -544 0
-781 -120 0
-781 -121 0
-781 -122 0
-781 -127 0
-781 -128 0
-781 -129 0
-781 -130 0
-781 -131 0
-781 -132 0
-781 -133 0
-781 -134 0
-781 -135 0
-781 -136 0
-781 -171 0
-781 -172 0
-781 -173 0
-781 -178 0
-781 -179 0
-781 -180 0
-781 -181 0
-781 -182 0
-781 -183 0
-781 -184 0
-781 -185 0
-781 -186 0
-781 -187 0
-781 -477 0
-781 -478 0
-781 -479 0
-781 -484 0
-781 -485 0
-781 -486 0
-781 -487 0
-781 -488 0
-781 -489 0
-781 -490 0
-781 -491 0
-781 -492 0
-781 -493 0
-781 -528 0
-781 -529 0
-781 -530 0
-781 -535 0
-781 -536 0
-781 -537 0
-781 -538 0
-781 -539 0
-781 -540 0
-781 -541 0
-781 -542 0
-781 -543 0
-781 -544 0
-782 -120 0
-782 -121 0
-782 -122 0
-782 -123 0
-782 -128 0
-782 -129 0
-782 -130 0
-782 -131 0
-782 -132 0
-782 -133 0
-782 -134 0
-782 -135 0
-782 -136 0
-782 -171 0
-782 -172 0
-782 -173 0
-782 -174 0
-782 -179 0
-782 -180 0
-782 -181 0
-782 -182 0
-782 -183 0
-782 -184 0
-782 -185 0
-782 -186 0
-782 -187 0
-782 -477 0
-782 -478 0
-782 -479 0
-782 -480 0
-782 -485 0
-782 -486 0
-782 -487 0
-782 -488 0
-782 -489 0
-782 -490 0
-782 -491 0
-782 -492 0
-782 -493 0
-782 -528 0
-782 -529 0
-782 -530 0
-782 -531 0
-782 -536 0
-782 -537 0
-782 -538 0
-782 -539 0
-782 -540 0
-782 -541 0
-782 -542 0
-782 -543 0
-782 -544 0
-783 -120 0
-783 -121 0
-783 -122 0
-783 -123 0
-783 -124 0
-783 -129 0
-783 -130 0
-783 -131 0
-783 -132 0
-783 -133 0
-783 -134 0
-783 -135 0
-783 -136 0
-783 -171 0
-783 -172 0
-783 -173 0
-783 -174 0
-783 -175 0
-783 -180 0
-783 -181 0
-783 -182 0
-783 -183 0
-783 -184 0
-783 -185 0
-783 -186 0
-783 -187 0
-783 -477 0
-783 -478 0
-783 -479 0
-783 -480 0
-783 -481 0
-783 -486 0
-783 -487 0
-783 -488 0
-783 -489 0
-783 -490 0
-783 -491 0
-783 -492 0
-783 -493 0
-783 -528 0
-783 -529 0
-783 -530 0
-783 -531 0
-783 -532 0
-783 -537 0
-783 -538 0
-783 -539 0
-783 -540 0
-783 -541 0
-783 -542 0
-783 -543 0
-783 -544 0
-784 -120 0
-784 -121 0
-784 -122 0
-784 -123 0
-784 -124 0
-784 -125 0
-784 -130 0
-784 -131 0
-784 -132 0
-784 -133 0
-784 -134 0
-784 -135 0
-784 -136 0
-784 -171 0
-784 -172 0
-784 -173 0
-784 -174 0
-784 -175 0
-784 -176 0
-784 -181 0
-784 -182 0
-784 -183 0
-784 -184 0
-784 -185 0
-784 -186 0
-784 -187 0
-784 -477 0
-784 -478 0
-784 -479 0
-784 -480 0
-784 -481 0
-784 -482 0
-784 -487 0
-784 -488 0
-784 -489 0
-784 -490 0
-784 -491 0
-784 -492 0
-784 -493 0
-784 -528 0
-784 -529 0
-784 -530 0
-784 -531 0
-784 -532 0
-784 -533 0
-784 -538 0
-784 -539 0
-784 -540 0
-784 -541 0
-784 -542 0
-784 -543 0
-784 -544 0
-785 -120 0
-785 -121 0
-785 -122 0
-785 -123 0
-785 -124 0
-785 -125 0
-785 -126 0
-785 -131 0
-785 -132 0
-785 -133 0
-785 -134 0
-785 -135 0
-785 -136 0
-785 -171 0
-785 -172 0
-785 -173 0
-785 -174 0
-785 -175 0
-785 -176 0
-785 -177 0
-785 -182 0
-785 -183 0
-785 -184 0
-785 -185 0
-785 -186 0
-785 -187 0
-785 -477 0
-785 -478 0
-785 -479 0
-785 -480 0
-785 -481 0
-785 -482 0
-785 -483 0
-785 -488 0
-785 -489 0
-785 -490 0
-785 -491 0
-785 -492 0
-785 -493 0
-785 -528 0
-785 -529 0
-785 -530 0
-785 -531 0
-785 -532 0
-785 -533 0
-785 -534 0
-785 -539 0
-785 -540 0
-785 -541 0
-785 -542 0
-785 -543 0
-785 -544 0
-786 -120 0
-786 -121 0
-786 -122 0
-786 -123 0
-786 -124 0
-786 -125 0
-786 -126 0
-786 -127 0
-786 -132 0
-786 -133 0
-786 -134 0
-786 -135 0
-786 -136 0
-786 -171 0
-786 -172 0
-786 -173 0
-786 -174 0
-786 -175 0
-786 -176 0
-786 -177 0
-786 -178 0
-786 -183 0
-786 -184 0
-786 -185 0
-786 -186 0
-786 -187 0
-786 -477 0
-786 -478 0
-786 -479 0
-786 -480 0
-786 -481 0
-786 -482 0
-786 -483 0
-786 -484 0
-786 -489 0
-786 -490 0
-786 -491 0
-786 -492 0
-786 -493 0
-786 -528 0
-786 -529 0
-786 -530 0
-786 -531 0
-786 -532 0
-786 -533 0
-786 -534 0
-786 -535 0
-786 -540 0
-786 -541 0
-786 -542 0
-786 -543 0
-786 -544 0
-787 -120 0
-787 -121 0
-787 -122 0
-787 -123 0
-787 -124 0
-787 -125 0
-787 -126 0
-787 -127 0
-787 -128 0
-787 -133 0
-787 -134 0
-787 -135 0
-787 -136 0
-787 -171 0
-787 -172 0
-787 -173 0
-787 -174 0
-787 -175 0
-787 -176 0
-787 -177 0
-787 -178 0
-787 -179 0
-787 -184 0
-787 -185 0
-787 -186 0
-787 -187 0
-787 -477 0
-787 -478 0
-787 -479 0
-787 -480 0
-787 -481 0
-787 -482 0
-787 -483 0
-787 -484 0
-787 -485 0
-787 -490 0
-787 -491 0
-787 -492 0
-787 -493 0
-787 -528 0
-787 -529 0
-787 -530 0
-787 -531 0
-787 -532 0
-787 -533 0
-787 -534 0
-787 -535 0
-787 -536 0
-787 -541 0
-787 -542 0
-787 -543 0
-787 -544 0
-788 -120 0
-788 -121 0
-788 -122 0
-788 -123 0
-788 -124 0
-788 -125 0
-788 -126 0
-788 -127 0
-788 -128 0
-788 -129 0
-788 -134 0
-788 -135 0
-788 -136 0
-788 -171 0
-788 -172 0
-788 -173 0
-788 -174 0
-788 -175 0
-788 -176 0
-788 -177 0
-788 -178 0
-788 -179 0
-788 -180 0
-788 -185 0
-788 -186 0
-788 -187 0
-788 -477 0
-788 -478 0
-788 -479 0
-788 -480 0
-788 -481 0
-788 -482 0
-788 -483 0
-788 -484 0
-788 -485 0
-788 -486 0
-788 -491 0
-788 -492 0
-788 -493 0
-788 -528 0
-788 -529 0
-788 -530 0
-788 -531 0
-788 -532 0
-788 -533 0
-788 -534 0
-788 -535 0
-788 -536 0
-788 -537 0
-788 -542 0
-788 -543 0
-788 -544 0
-789 -120 0
-789 -121 0
-789 -122 0
-789 -123 0
-789 -124 0
-789 -125 0
-789 -126 0
-789 -127 0
-789 -128 0
-789 -129 0
-789 -130 0
-789 -135 0
-789 -136 0
-789 -171 0
-789 -172 0
-789 -173 0
-789 -174 0
-789 -175 0
-789 -176 0
-789 -177 0
-789 -178 0
-789 -179 0
-789 -180 0
-789 -181 0
-789 -186 0
-789 -187 0
-789 -477 0
-789 -478 0
-789 -479 0
-789 -480 0
-789 -481 0
-789 -482 0
-789 -483 0
-789 -484 0
-789 -485 0
-789 -486 0
-789 -487 0
-789 -492 0
-789 -493 0
-789 -528 0
-789 -529 0
-789 -530 0
-789 -531 0
-789 -532 0
-789 -533 0
-789 -534 0
-789 -535 0
-789 -536 0
-789 -537 0
-789 -538 0
-789 -543 0
-789 -544 0
-790 -120 0
-790 -121 0
-790 -122 0
-790 -123 0
-790 -124 0
-790 -125 0
-790 -126 0
-790 -127 0
-790 -128 0
-790 -129 0
-790 -130 0
-790 -131 0
-790 -136 0
-790 -171 0
-790 -172 0
-790 -173 0
-790 -174 0
-790 -175 0
-790 -176 0
-790 -177 0
-790 -178 0
-790 -179 0
-790 -180 0
-790 -181 0
-790 -182 0
-790 -187 0
-790 -477 0
-790 -478 0
-790 -479 0
-790 -480 0
-790 -481 0
-790 -482 0
-790 -483 0
-790 -484 0
-790 -485 0
-790 -486 0
-790 -487 0
-790 -488 0
-790 -493 0
-790 -528 0
-790 -529 0
-790 -530 0
-790 -531 0
-790 -532 0
-790 -533 0
-790 -534 0
-790 -535 0
-790 -536 0
-790 -537 0
-790 -538 0
-790 -539 0
-790 -544 0
-791 -120 0
-791 -121 0
-791 -122 0
-791 -123 0
-791 -124 0
-791 -125 0
-791 -126 0
-791 -127 0
-791 -128 0
-791 -129 0
-791 -130 0
-791 -131 0
-791 -132 0
-791 -171 0
-791 -172 0
-791 -173 0
-791 -174 0
-791 -175 0
-791 -176 0
-791 -177 0
-791 -178 0
-791 -179 0
-791 -180 0
-791 -181 0
-791 -182 0
-791 -183 0
-791 -477 0
-791 -478 0
-791 -479 0
-791 -480 0
-791 -481 0
-791 -482 0
-791 -483 0
-791 -484 0
-791 -485 0
-791 -486 0
-791 -487 0
-791 -488 0
-791 -489 0
-791 -528 0
-791 -529 0
-791 -530 0
-791 -531 0
-791 -532 0
-791 -533 0
-791 -534 0
-791 -535 0
-791 -536 0
-791 -537 0
-791 -538 0
-791 -539 0
-791 -540 0
-35 -494 0
-36 -495 0
-37 -496 0
-38 -497 0
-39 -498 0
-40 -499 0
-41 -500 0
-42 -501 0
-43 -502 0
-44 -503 0
-45 -504 0
-46 -505 0
-47 -506 0
-48 -507 0
-49 -508 0
-50 -509 0
-51 -510 0
792 793 794 795 796 797 798 799 800 801 802 803 804 805 806 807 0
-792 -793 0
-792 -794 0
-792 -795 0
-792 -796 0
-792 -797 0
-792 -798 0
-792 -799 0
-792 -800 0
-792 -801 0
-792 -802 0
-792 -803 0
-792 -804 0
-792 -805 0
-792 -806 0
-792 -807 0
-793 -794 0
-793 -795 0
-793 -796 0
-793 -797 0
-793 -798 0
-793 -799 0
-793 -800 0
-793 -801 0
-793 -802 0
-793 -803 0
-793 -804 0
-793 -805 0
-793 -806 0
-793 -807 0
-794 -795 0
-794 -796 0
-794 -797 0
-794 -798 0
-794 -799 0
-794 -800 0
-794 -801 0
-794 -802 0
-794 -803 0
-794 -804 0
-794 -805 0
-794 -806 0
-794 -807 0
-795 -796 0
-795 -797 0
-795 -798 0
-795 -799 0
-795 -800 0
-795 -801 0
-795 -802 0
-795 -803 0
-795 -804 0
-795 -805 0
-795 -806 0
-795 -807 0
-796 -797 0
-796 -798 0
-796 -799 0
-796 -800 0
-796 -801 0
-796 -802 0
-796 -803 0
-796 -804 0
-796 -805 0
-796 -806 0
-796 -807 0
-797 -798 0
-797 -799 0
-797 -800 0
-797 -801 0
-797 -802 0
-797 -803 0
-797 -804 0
-797 -805 0
-797 -806 0
-797 -807 0
-798 -799 0
-798 -800 0
-798 -801 0
-798 -802 0
-798 -803 0
-798 -804 0
-798 -805 0
-798 -806 0
-798 -807 0
-799 -800 0
-799 -801 0
-799 -802 0
-799 -803 0
-799 -804 0
-799 -805 0
-799 -806 0
-799 -807 0
-800 -801 0
-800 -802 0
-800 -803 0
-800 -804 0
-800 -805 0
-800 -806 0
-800 -807 0
-801 -802 0
-801 -803 0
-801 -804 0
-801 -805 0
-801 -806 0
-801 -807 0
-802 -803 0
-802 -804 0
-802 -805 0
-802 -806 0
-802 -807 0
-803 -804 0
-803 -805 0
-803 -806 0
-803 -807 0
-804 -805 0
-804 -806 0
-804 -807 0
-805 -806 0
-805 -807 0
-806 -807 0
-35 792 0
-36 792 793 0
-37 793 794 0
-38 794 795 0
-39 795 796 0
-40 796 797 0
-41 797 798 0
-42 798 799 0
-43 799 800 0
-44 800 801 0
-45 801 802 0
-46 802 803 0
-47 803 804 0
-48 804 805 0
-49 805 806 0
-50 806 807 0
-51 807 0
-494 792 0
-495 792 793 0
-496 793 794 0
-497 794 795 0
-498 795 796 0
-499 796 797 0
-500 797 798 0
-501 798 799 0
-502 799 800 0
-503 800 801 0
-504 801 802 0
-505 802 803 0
-506 803 804 0
-507 804 805 0
-508 805 806 0
-509 806 807 0
-510 807 0
-792 -37 0
-792 -38 0
-792 -39 0
-792 -40 0
-792 -41 0
-792 -42 0
-792 -43 0
-792 -44 0
-792 -45 0
-792 -46 0
-792 -47 0
-792 -48 0
-792 -49 0
-792 -50 0
-792 -51 0
-792 -496 0
-792 -497 0
-792 -498 0
-792 -499 0
-792 -500 0
-792 -501 0
-792 -502 0
-792 -503 0
-792 -504 0
-792 -505 0
-792 -506 0
-792 -507 0
-792 -508 0
-792 -509 0
-792 -510 0
-793 -35 0
-793 -38 0
-793 -39 0
-793 -40 0
-793 -41 0
-793 -42 0
-793 -43 0
-793 -44 0
-793 -45 0
-793 -46 0
-793 -47 0
-793 -48 0
-793 -49 0
-793 -50 0
-793 -51 0
-793 -494 0
-793 -497 0
-793 -498 0
-793 -499 0
-793 -500 0
-793 -501 0
-793 -502 0
-793 -503 0
-793 -504 0
-793 -505 0
-793 -506 0
-793 -507 0
-793 -508 0
-793 -509 0
-793 -510 0
-794 -35 0
-794 -36 0
-794 -39 0
-794 -40 0
-794 -41 0
-794 -42 0
-794 -43 0
-794 -44 0
-794 -45 0
-794 -46 0
-794 -47 0
-794 -48 0
-794 -49 0
-794 -50 0
-794 -51 0
-794 -494 0
-794 -495 0
-794 -498 0
-794 -499 0
-794 -500 0
-794 -501 0
-794 -502 0
-794 -503 0
-794 -504 0
-794 -505 0
-794 -506 0
-794 -507 0
-794 -508 0
-794 -509 0
-794 -510 0
-795 -35 0
-795 -36 0
-795 -37 0
-795 -40 0
-795 -41 0
-795 -42 0
-795 -43 0
-795 -44 0
-795 -45 0
-795 -46 0
-795 -47 0
-795 -48 0
-795 -49 0
-795 -50 0
-795 -51 0
-795 -494 0
-795 -495 0
-795 -496 0
-795 -499 0
-795 -500 0
-795 -501 0
-795 -502 0
-795 -503 0
-795 -504 0
-795 -505 0
-795 -506 0
-795 -507 0
-795 -508 0
-795 -509 0
-795 -510 0
-796 -35 0
-796 -36 0
-796 -37 0
-796 -38 0
-796 -41 0
-796 -42 0
-796 -43 0
-796 -44 0
-796 -45 0
-796 -46 0
-796 -47 0
-796 -48 0
-796 -49 0
-796 -50 0
-796 -51 0
-796 -494 0
-796 -495 0
-796 -496 0
-796 -497 0
-796 -500 0
-796 -501 0
-796 -502 0
-796 -503 0
-796 -504 0
-796 -505 0
-796 -506 0
-796 -507 0
-796 -508 0
-796 -509 0
-796 -510 0
-797 -35 0
-797 -36 0
-797 -37 0
-797 -38 0
-797 -39 0
-797 -42 0
-797 -43 0
-797 -44 0
-797 -45 0
-797 -46 0
-797 -47 0
-797 -48 0
-797 -49 0
-797 -50 0
-797 -51 0
-797 -494 0
-797 -495 0
-797 -496 0
-797 -497 0
-797 -498 0
-797 -501 0
-797 -502 0
-797 -503 0
-797 -504 0
-797 -505 0
-797 -506 0
-797 -507 0
-797 -508 0
-797 -509 0
-797 -510 0
-798 -35 0
-798 -36 0
-798 -37 0
-798 -38 0
-798 -39 0
-798 -40 0
-798 -43 0
-798 -44 0
-798 -45 0
-798 -46 0
-798 -47 0
-798 -48 0
-798 -49 0
-798 -50 0
-798 -51 0
-798 -494 0
-798 -495 0
-798 -496 0
-798 -497 0
-798 -498 0
-798 -499 0
-798 -502 0
-798 -503 0
-798 -504 0
-798 -505 0
-798 -506 0
-798 -507 0
-798 -508 0
-798 -509 0
-798 -510 0
-799 -35 0
-799 -36 0
-799 -37 0
-799 -38 0
-799 -39 0
-799 -40 0
-799 -41 0
-799 -44 0
-799 -45 0
-799 -46 0
-799 -47 0
-799 -48 0
-799 -49 0
-799 -50 0
-799 -51 0
-799 -494 0
-799 -495 0
-799 -496 0
-799 -497 0
-799 -498 0
-799 -499 0
-799 -500 0
-799 -503 0
-799 -504 0
-799 -505 0
-799 -506 0
-799 -507 0
-799 -508 0
-799 -509 0
-799 -510 0
-800 -35 0
-800 -36 0
-800 -37 0
-800 -38 0
-800 -39 0
-800 -40 0
-800 -41 0
-800 -42 0
-800 -45 0
-800 -46 0
-800 -47 0
-800 -48 0
-800 -49 0
-800 -50 0
-800 -51 0
-800 -494 0
-800 -495 0
-800 -496 0
-800 -497 0
-800 -498 0
-800 -499 0
-800 -500 0
-800 -501 0
-800 -504 0
-800 -505 0
-800 -506 0
-800 -507 0
-800 -508 0
-800 -509 0
-800 -510 0
-801 -35 0
-801 -36 0
-801 -37 0
-801 -38 0
-801 -39 0
-801 -40 0
-801 -41 0
-801 -42 0
-801 -43 0
-801 -46 0
-801 -47 0
-801 -48 0
-801 -49 0
-801 -50 0
-801 -51 0
-801 -494 0
-801 -495 0
-801 -496 0
-801 -497 0
-801 -498 0
-801 -499 0
-801 -500 0
-801 -501 0
-801 -502 0
-801 -505 0
-801 -506 0
-801 -507 0
-801 -508 0
-801 -509 0
-801 -510 0
-802 -35 0
-802 -36 0
-802 -37 0
-802 -38 0
-802 -39 0
-802 -40 0
-802 -41 0
-802 -42 0
-802 -43 0
-802 -44 0
-802 -47 0
-802 -48 0
-802 -49 0
-802 -50 0
-802 -51 0
-802 -494 0
-802 -495 0
-802 -496 0
-802 -497 0
-802 -498 0
-802 -499 0
-802 -500 0
-802 -501 0
-802 -502 0
-802 -503 0
-802 -506 0
-802 -507 0
-802 -508 0
-802 -509 0
-802 -510 0
-803 -35 0
-803 -36 0
-803 -37 0
-803 -38 0
-803 -39 0
-803 -40 0
-803 -41 0
-803 -42 0
-803 -43 0
-803 -44 0
-803 -45 0
-803 -48 0
-803 -49 0
-803 -50 0
-803 -51 0
-803 -494 0
-803 -495 0
-803 -496 0
-803 -497 0
-803 -498 0
-803 -499 0
-803 -500 0
-803 -501 0
-803 -502 0
-803 -503 0
-803 -504 0
-803 -507 0
-803 -508 0
-803 -509 0
-803 -510 0
-804 -35 0
-804 -36 0
-804 -37 0
-804 -38 0
-804 -39 0
-804 -40 0
-804 -41 0
-804 -42 0
-804 -43 0
-804 -44 0
-804 -45 0
-804 -46 0
-804 -49 0
-804 -50 0
-804 -51 0
-804 -494 0
-804 -495 0
-804 -496 0
-804 -497 0
-804 -498 0
-804 -499 0
-804 -500 0
-804 -501 0
-804 -502 0
-804 -503 0
-804 -504 0
-804 -505 0
-804 -508 0
-804 -509 0
-804 -510 0
-805 -35 0
-805 -36 0
-805 -37 0
-805 -38 0
-805 -39 0
-805 -40 0
-805 -41 0
-805 -42 0
-805 -43 0
-805 -44 0
-805 -45 0
-805 -46 0
-805 -47 0
-805 -50 0
-805 -51 0
-805 -494 0
-805 -495 0
-805 -496 0
-805 -497 0
-805 -498 0
-805 -499 0
-805 -500 0
-805 -501 0
-805 -502 0
-805 -503 0
-805 -504 0
-805 -505 0
-805 -506 0
-805 -509 0
-805 -510 0
-806 -35 0
-806 -36 0
-806 -37 0
-806 -38 0
-806 -39 0
-806 -40 0
-806 -41 0
-806 -42 0
-806 -43 0
-806 -44 0
-806 -45 0
-806 -46 0
-806 -47 0
-806 -48 0
-806 -51 0
-806 -494 0
-806 -495 0
-806 -496 0
-806 -497 0
-806 -498 0
-806 -499 0
-806 -500 0
-806 -501 0
-806 -502 0
-806 -503 0
-806 -504 0
-806 -505 0
-806 -506 0
-806 -507 0
-806 -510 0
-807 -35 0
-807 -36 0
-807 -37 0
-807 -38 0
-807 -39 0
-807 -40 0
-807 -41 0
-807 -42 0
-807 -43 0
-807 -44 0
-807 -45 0
-807 -46 0
-807 -47 0
-807 -48 0
-807 -49 0
-807 -494 0
-807 -495 0
-807 -496 0
-807 -497 0
-807 -498 0
-807 -499 0
-807 -500 0
-807 -501 0
-807 -502 0
-807 -503 0
-807 -504 0
-807 -505 0
-807 -506 0
-807 -507 0
-807 -508 0
-86 -341 0
-86 -545 0
-341 -545 0
-87 -342 0
-87 -546 0
-342 -546 0
-88 -343 0
-88 -547 0
-343 -547 0
-89 -344 0
-89 -548 0
-344 -548 0
-90 -345 0
-90 -549 0
-345 -549 0
-91 -346 0
-91 -550 0
-346 -550 0
-92 -347 0
-92 -551 0
-347 -551 0
-93 -348 0
-93 -552 0
-348 -552 0
-94 -349 0
-94 -553 0
-349 -553 0
-95 -350 0
-95 -554 0
-350 -554 0
-96 -351 0
-96 -555 0
-351 -555 0
-97 -352 0
-97 -556 0
-352 -556 0
-98 -353 0
-98 -557 0
-353 -557 0
-99 -354 0
-99 -558 0
-354 -558 0
-100 -355 0
-100 -559 0
-355 -559 0
-101 -356 0
-101 -560 0
-356 -560 0
-102 -357 0
-102 -561 0
-357 -561 0
808 809 810 811 812 813 814 815 816 817 818 819 820 821 822 0
-808 -809 0
-808 -810 0
-808 -811 0
-808 -812 0
-808 -813 0
-808 -814 0
-808 -815 0
-808 -816 0
-808 -817 0
-808 -818 0
-808 -819 0
-808 -820 0
-808 -821 0
-808 -822 0
-809 -810 0
-809 -811 0
-809 -812 0
-809 -813 0
-809 -814 0
-809 -815 0
-809 -816 0
-809 -817 0
-809 -818 0
-809 -819 0
-809 -820 0
-809 -821 0
-809 -822 0
-810 -811 0
-810 -812 0
-810 -813 0
-810 -814 0
-810 -815 0
-810 -816 0
-810 -817 0
-810 -818 0
-810 -819 0
-810 -820 0
-810 -821 0
-810 -822 0
-811 -812 0
-811 -813 0
-811 -814 0
-811 -815 0
-811 -816 0
-811 -817 0
-811 -818 0
-811 -819 0
-811 -820 0
-811 -821 0
-811 -822 0
-812 -813 0
-812 -814 0
-812 -815 0
-812 -816 0
-812 -817 0
-812 -818 0
-812 -819 0
-812 -820 0
-812 -821 0
-812 -822 0
-813 -814 0
-813 -815 0
-813 -816 0
-813 -817 0
-813 -818 0
-813 -819 0
-813 -820 0
-813 -821 0
-813 -822 0
-814 -815 0
-814 -816 0
-814 -817 0
-814 -818 0
-814 -819 0
-814 -820 0
-814 -821 0
-814 -822 0
-815 -816 0
-815 -817 0
-815 -818 0
-815 -819 0
-815 -820 0
-815 -821 0
-815 -822 0
-816 -817 0
-816 -818 0
-816 -819 0
-816 -820 0
-816 -821 0
-816 -822 0
-817 -818 0
-817 -819 0
-817 -820 0
-817 -821 0
-817 -822 0
-818 -819 0
-818 -820 0
-818 -821 0
-818 -822 0
-819 -820 0
-819 -821 0
-819 -822 0
-820 -821 0
-820 -822 0
-821 -822 0
-86 808 0
-87 808 809 0
-88 808 809 810 0
-89 809 810 811 0
-90 810 811 812 0
-91 811 812 813 0
-92 812 813 814 0
-93 813 814 815 0
-94 814 815 816 0
-95 815 816 817 0
-96 816 817 818 0
-97 817 818 819 0
-98 818 819 820 0
-99 819 820 821 0
-100 820 821 822 0
-101 821 822 0
-102 822 0
-341 808 0
-342 808 809 0
-343 808 809 810 0
-344 809 810 811 0
-345 810 811 812 0
-346 811 812 813 0
-347 812 813 814 0
-348 813 814 815 0
-349 814 815 816 0
-350 815 816 817 0
-351 816 817 818 0
-352 817 818 819 0
-353 818 819 820 0
-354 819 820 821 0
-355 820 821 822 0
-356 821 822 0
-357 822 0
-545 808 0
-546 808 809 0
-547 808 809 810 0
-548 809 810 811 0
-549 810 811 812 0
-550 811 812 813 0
-551 812 813 814 0
-552 813 814 815 0
-553 814 815 816 0
-554 815 816 817 0
-555 816 817 818 0
-556 817 818 819 0
-557 818 819 820 0
-558 819 820 821 0
-559 820 821 822 0
-560 821 822 0
-561 822 0
-808 -89 0
-808 -90 0
-808 -91 0
-808 -92 0
-808 -93 0
-808 -94 0
-808 -95 0
-808 -96 0
-808 -97 0
-808 -98 0
-808 -99 0
-808 -100 0
-808 -101 0
-808 -102 0
-808 -344 0
-808 -345 0
-808 -346 0
-808 -347 0
-808 -348 0
-808 -349 0
-808 -350 0
-808 -351 0
-808 -352 0
-808 -353 0
-808 -354 0
-808 -355 0
-808 -356 0
-808 -357 0
-808 -548 0
-808 -549 0
-808 -550 0
-808 -551 0
-808 -552 0
-808 -553 0
-808 -554 0
-808 -555 0
-808 -556 0
-808 -557 0
-808 -558 0
-808 -559 0
-808 -560 0
-808 -561 0
-809 -86 0
-809 -90 0
-809 -91 0
-809 -92 0
-809 -93 0
-809 -94 0
-809 -95 0
-809 -96 0
-809 -97 0
-809 -98 0
-809 -99 0
-809 -100 0
-809 -101 0
-809 -102 0
-809 -341 0
-809 -345 0
-809 -346 0
-809 -347 0
-809 -348 0
-809 -349 0
-809 -350 0
-809 -351 0
-809 -352 0
-809 -353 0
-809 -354 0
-809 -355 0
-809 -356 0
-809 -357 0
-809 -545 0
-809 -549 0
-809 -550 0
-809 -551 0
-809 -552 0
-809 -553 0
-809 -554 0
-809 -555 0
-809 -556 0
-809 -557 0
-809 -558 0
-809 -559 0
-809 -560 0
-809 -561 0
-810 -86 0
-810 -87 0
-810 -91 0
-810 -92 0
-810 -93 0
-810 -94 0
-810 -95 0
-810 -96 0
-810 -97 0
-810 -98 0
-810 -99 0
-810 -100 0
-810 -101 0
-810 -102 0
-810 -341 0
-810 -342 0
-810 -346 0
-810 -347 0
-810 -348 0
-810 -349 0
-810 -350 0
-810 -351 0
-810 -352 0
-810 -353 0
-810 -354 0
-810 -355 0
-810 -356 0
-810 -357 0
-810 -545 0
-810 -546 0
-810 -550 0
-810 -551 0
-810 -552 0
-810 -553 0
-810 -554 0
-810 -555 0
-810 -556 0
-810 -557 0
-810 -558 0
-810 -559 0
-810 -560 0
-810 -561 0
-811 -86 0
-811 -87 0
-811 -88 0
-811 -92 0
-811 -93 0
-811 -94 0
-811 -95 0
-811 -96 0
-811 -97 0
-811 -98 0
-811 -99 0
-811 -100 0
-811 -101 0
-811 -102 0
-811 -341 0
-811 -342 0
-811 -343 0
-811 -347 0
-811 -348 0
-811 -349 0
-811 -350 0
-811 -351 0
-811 -352 0
-811 -353 0
-811 -354 0
-811 -355 0
-811 -356 0
-811 -357 0
-811 -545 0
-811 -546 0
-811 -547 0
-811 -551 0
-811 -552 0
-811 -553 0
-811 -554 0
-811 -555 0
-811 -556 0
-811 -557 0
-811 -558 0
-811 -559 0
-811 -560 0
-811 -561 0
-812 -86 0
-812 -87 0
-812 -88 0
-812 -89 0
-812 -93 0
-812 -94 0
-812 -95 0
-812 -96 0
-812 -97 0
-812 -98 0
-812 -99 0
-812 -100 0
-812 -101 0
-812 -102 0
-812 -341 0
-812 -342 0
-812 -343 0
-812 -344 0
-812 -348 0
-812 -349 0
-812 -350 0
-812 -351 0
-812 -352 0
-812 -353 0
-812 -354 0
-812 -355 0
-812 -356 0
-812 -357 0
-812 -545 0
-812 -546 0
-812 -547 0
-812 -548 0
-812 -552 0
-812 -553 0
-812 -554 0
-812 -555 0
-812 -556 0
-812 -557 0
-812 -558 0
-812 -559 0
-812 -560 0
-812 -561 0
-813 -86 0
-813 -87 0
-813 -88 0
-813 -89 0
-813 -90 0
-813 -94 0
-813 -95 0
-813 -96 0
-813 -97 0
-813 -98 0
-813 -99 0
-813 -100 0
-813 -101 0
-813 -102 0
-813 -341 0
-813 -342 0
-813 -343 0
-813 -344 0
-813 -345 0
-813 -349 0
-813 -350 0
-813 -351 0
-813 -352 0
-813 -353 0
-813 -354 0
-813 -355 0
-813 -356 0
-813 -357 0
-813 -545 0
-813 -546 0
-813 -547 0
-813 -548 0
-813 -549 0
-813 -553 0
-813 -554 0
-813 -555 0
-813 -556 0
-813 -557 0
-813 -558 0
-813 -559 0
-813 -560 0
-813 -561 0
-814 -86 0
-814 -87 0
-814 -88 0
-814 -89 0
-814 -90 0
-814 -91 0
-814 -95 0
-814 -96 0
-814 -97 0
-814 -98 0
-814 -99 0
-814 -100 0
-814 -101 0
-814 -102 0
-814 -341 0
-814 -342 0
-814 -343 0
-814 -344 0
-814 -345 0
-814 -346 0
-814 -350 0
-814 -351 0
-814 -352 0
-814 -353 0
-814 -354 0
-814 -355 0
-814 -356 0
-814 -357 0
-814 -545 0
-814 -546 0
-814 -547 0
-814 -548 0
-814 -549 0
-814 -550 0
-814 -554 0
-814 -555 0
-814 -556 0
-814 -557 0
-814 -558 0
-814 -559 0
-814 -560 0
-814 -561 0
-815 -86 0
-815 -87 0
-815 -88 0
-815 -89 0
-815 -90 0
-815 -91 0
-815 -92 0
-815 -96 0
-815 -97 0
-815 -98 0
-815 -99 0
-815 -100 0
-815 -101 0
-815 -102 0
-815 -341 0
-815 -342 0
-815 -343 0
-815 -344 0
-815 -345 0
-815 -346 0
-815 -347 0
-815 -351 0
-815 -352 0
-815 -353 0
-815 -354 0
-815 -355 0
-815 -356 0
-815 -357 0
-815 -545 0
-815 -546 0
-815 -547 0
-815 -548 0
-815 -549 0
-815 -550 0
-815 -551 0
-815 -555 0
-815 -556 0
-815 -557 0
-815 -558 0
-815 -559 0
-815 -560 0
-815 -561 0
-816 -86 0
-816 -87 0
-816 -88 0
-816 -89 0
-816 -90 0
-816 -91 0
-816 -92 0
-816 -93 0
-816 -97 0
-816 -98 0
-816 -99 0
-816 -100 0
-816 -101 0
-816 -102 0
-816 -341 0
-816 -342 0
-816 -343 0
-816 -344 0
-816 -345 0
-816 -346 0
-816 -347 0
-816 -348 0
-816 -352 0
-816 -353 0
-816 -354 0
-816 -355 0
-816 -356 0
-816 -357 0
-816 -545 0
-816 -546 0
-816 -547 0
-816 -548 0
-816 -549 0
-816 -550 0
-816 -551 0
-816 -552 0
-816 -556 0
-816 -557 0
-816 -558 0
-816 -559 0
-816 -560 0
-816 -561 0
-817 -86 0
-817 -87 0
-817 -88 0
-817 -89 0
-817 -90 0
-817 -91 0
-817 -92 0
-817 -93 0
-817 -94 0
-817 -98 0
-817 -99 0
-817 -100 0
-817 -101 0
-817 -102 0
-817 -341 0
-817 -342 0
-817 -343 0
-817 -344 0
-817 -345 0
-817 -346 0
-817 -347 0
-817 -348 0
-817 -349 0
-817 -353 0
-817 -354 0
-817 -355 0
-817 -356 0
-817 -357 0
-817 -545 0
-817 -546 0
-817 -547 0
-817 -548 0
-817 -549 0
-817 -550 0
-817 -551 0
-817 -552 0
-817 -553 0
-817 -557 0
-817 -558 0
-817 -559 0
-817 -560 0
-817 -561 0
-818 -86 0
-818 -87 0
-818 -88 0
-818 -89 0
-818 -90 0
-818 -91 0
-818 -92 0
-818 -93 0
-818 -94 0
-818 -95 0
-818 -99 0
-818 -100 0
-818 -101 0
-818 -102 0
-818 -341 0
-818 -342 0
-818 -343 0
-818 -344 0
-818 -345 0
-818 -346 0
-818 -347 0
-818 -348 0
-818 -349 0
-818 -350 0
-818 -354 0
-818 -355 0
-818 -356 0
-818 -357 0
-818 -545 0
-818 -546 0
-818 -547 0
-818 -548 0
-818 -549 0
-818 -550 0
-818 -551 0
-818 -552 0
-818 -553 0
-818 -554 0
-818 -558 0
-818 -559 0
-818 -560 0
-818 -561 0
-819 -86 0
-819 -87 0
-819 -88 0
-819 -89 0
-819 -90 0
-819 -91 0
-819 -92 0
-819 -93 0
-819 -94 0
-819 -95 0
-819 -96 0
-819 -100 0
-819 -101 0
-819 -102 0
-819 -341 0
-819 -342 0
-819 -343 0
-819 -344 0
-819 -345 0
-819 -346 0
-819 -347 0
-819 -348 0
-819 -349 0
-819 -350 0
-819 -351 0
-819 -355 0
-819 -356 0
-819 -357 0
-819 -545 0
-819 -546 0
-819 -547 0
-819 -548 0
-819 -549 0
-819 -550 0
-819 -551 0
-819 -552 0
-819 -553 0
-819 -554 0
-819 -555 0
-819 -559 0
-819 -560 0
-819 -561 0
-820 -86 0
-820 -87 0
-820 -88 0
-820 -89 0
-820 -90 0
-820 -91 0
-820 -92 0
-820 -93 0
-820 -94 0
-820 -95 0
-820 -96 0
-820 -97 0
-820 -101 0
-820 -102 0
-820 -341 0
-820 -342 0
-820 -343 0
-820 -344 0
-820 -345 0
-820 -346 0
-820 -347 0
-820 -348 0
-820 -349 0
-820 -350 0
-820 -351 0
-820 -352 0
-820 -356 0
-820 -357 0
-820 -545 0
-820 -546 0
-820 -547 0
-820 -548 0
-820 -549 0
-820 -550 0
-820 -551 0
-820 -552 0
-820 -553 0
-820 -554 0
-820 -555 0
-820 -556 0
-820 -560 0
-820 -561 0
-821 -86 0
-821 -87 0
-821 -88 0
-821 -89 0
-821 -90 0
-821 -91 0
-821 -92 0
-821 -93 0
-821 -94 0
-821 -95 0
-821 -96 0
-821 -97 0
-821 -98 0
-821 -102 0
-821 -341 0
-821 -342 0
-821 -343 0
-821 -344 0
-821 -345 0
-821 -346 0
-821 -347 0
-821 -348 0
-821 -349 0
-821 -350 0
-821 -351 0
-821 -352 0
-821 -353 0
-821 -357 0
-821 -545 0
-821 -546 0
-821 -547 0
-821 -548 0
-821 -549 0
-821 -550 0
-821 -551 0
-821 -552 0
-821 -553 0
-821 -554 0
-821 -555 0
-821 -556 0
-821 -557 0
-821 -561 0
-822 -86 0
-822 -87 0
-822 -88 0
-822 -89 0
-822 -90 0
-822 -91 0
-822 -92 0
-822 -93 0
-822 -94 0
-822 -95 0
-822 -96 0
-822 -97 0
-822 -98 0
-822 -99 0
-822 -341 0
-822 -342 0
-822 -343 0
-822 -344 0
-822 -345 0
-822 -346 0
-822 -347 0
-822 -348 0
-822 -349 0
-822 -350 0
-822 -351 0
-822 -352 0
-822 -353 0
-822 -354 0
-822 -545 0
-822 -546 0
-822 -547 0
-822 -548 0
-822 -549 0
-822 -550 0
-822 -551 0
-822 -552 0
-822 -553 0
-822 -554 0
-822 -555 0
-822 -556 0
-822 -557 0
-822 -558 0
-137 -239 0
-137 -392 0
-239 -392 0
-138 -240 0
-138 -393 0
-240 -393 0
-139 -241 0
-139 -394 0
-241 -394 0
-140 -242 0
-140 -395 0
-242 -395 0
-141 -243 0
-141 -396 0
-243 -396 0
-142 -244 0
-142 -397 0
-244 -397 0
-143 -245 0
-143 -398 0
-245 -398 0
-144 -246 0
-144 -399 0
-246 -399 0
-145 -247 0
-145 -400 0
-247 -400 0
-146 -248 0
-146 -401 0
-248 -401 0
-147 -249 0
-147 -402 0
-249 -402 0
-148 -250 0
-148 -403 0
-250 -403 0
-149 -251 0
-149 -404 0
-251 -404 0
-150 -252 0
-150 -405 0
-252 -405 0
-151 -253 0
-151 -406 0
-253 -406 0
-152 -254 0
-152 -407 0
-254 -407 0
-153 -255 0
-153 -408 0
-255 -408 0
823 824 825 826 827 828 829 830 831 832 833 834 835 836 837 0
-823 -824 0
-823 -825 0
-823 -826 0
-823 -827 0
-823 -828 0
-823 -829 0
-823 -830 0
-823 -831 0
-823 -832 0
-823 -833 0
-823 -834 0
-823 -835 0
-823 -836 0
-823 -837 0
-824 -825 0
-824 -826 0
-824 -827 0
-824 -828 0
-824 -829 0
-824 -830 0
-824 -831 0
-824 -832 0
-824 -833 0
-824 -834 0
-824 -835 0
-824 -836 0
-824 -837 0
-825 -826 0
-825 -827 0
-825 -828 0
-825 -829 0
-825 -830 0
-825 -831 0
-825 -832 0
-825 -833 0
-825 -834 0
-825 -835 0
-825 -836 0
-825 -837 0
-826 -827 0
-826 -828 0
-826 -829 0
-826 -830 0
-826 -831 0
-826 -832 0
-826 -833 0
-826 -834 0
-826 -835 0
-826 -836 0
-826 -837 0
-827 -828 0
-827 -829 0
-827 -830 0
-827 -831 0
-827 -832 0
-827 -833 0
-827 -834 0
-827 -835 0
-827 -836 0
-827 -837 0
-828 -829 0
-828 -830 0
-828 -831 0
-828 -832 0
-828 -833 0
-828 -834 0
-828 -835 0
-828 -836 0
-828 -837 0
-829 -830 0
-829 -831 0
-829 -832 0
-829 -833 0
-829 -834 0
-829 -835 0
-829 -836 0
-829 -837 0
-830 -831 0
-830 -832 0
-830 -833 0
-830 -834 0
-830 -835 0
-830 -836 0
-830 -837 0
-831 -832 0
-831 -833 0
-831 -834 0
-831 -835 0
-831 -836 0
-831 -837 0
-832 -833 0
-832 -834 0
-832 -835 0
-832 -836 0
-832 -837 0
-833 -834 0
-833 -835 0
-833 -836 0
-833 -837 0
-834 -835 0
-834 -836 0
-834 -837 0
-835 -836 0
-835 -837 0
-836 -837 0
-137 823 0
-138 823 824 0
-139 823 824 825 0
-140 824 825 826 0
-141 825 826 827 0
-142 826 827 828 0
-143 827 828 829 0
-144 828 829 830 0
-145 829 830 831 0
-146 830 831 832 0
-147 831 832 833 0
-148 832 833 834 0
-149 833 834 835 0
-150 834 835 836 0
-151 835 836 837 0
-152 836 837 0
-153 837 0
-239 823 0
-240 823 824 0
-241 823 824 825 0
-242 824 825 826 0
-243 825 826 827 0
-244 826 827 828 0
-245 827 828 829 0
-246 828 829 830 0
-247 829 830 831 0
-248 830 831 832 0
-249 831 832 833 0
-250 832 833 834 0
-251 833 834 835 0
-252 834 835 836 0
-253 835 836 837 0
-254 836 837 0
-255 837 0
-392 823 0
-393 823 824 0
-394 823 824 825 0
-395 824 825 826 0
-396 825 826 827 0
-397 826 827 828 0
-398 827 828 829 0
-399 828 829 830 0
-400 829 830 831 0
-401 830 831 832 0
-402 831 832 833 0
-403 832 833 834 0
-404 833 834 835 0
-405 834 835 836 0
-406 835 836 837 0
-407 836 837 0
-408 837 0
-823 -140 0
-823 -141 0
-823 -142 0
-823 -143 0
-823 -144 0
-823 -145 0
-823 -146 0
-823 -147 0
-823 -148 0
-823 -149 0
-823 -150 0
-823 -151 0
-823 -152 0
-823 -153 0
-823 -242 0
-823 -243 0
-823 -244 0
-823 -245 0
-823 -246 0
-823 -247 0
-823 -248 0
-823 -249 0
-823 -250 0
-823 -251 0
-823 -252 0
-823 -253 0
-823 -254 0
-823 -255 0
-823 -395 0
-823 -396 0
-823 -397 0
-823 -398 0
-823 -399 0
-823 -400 0
-823 -401 0
-823 -402 0
-823 -403 0
-823 -404 0
-823 -405 0
-823 -406 0
-823 -407 0
-823 -408 0
-824 -137 0
-824 -141 0
-824 -142 0
-824 -143 0
-824 -144 0
-824 -145 0
-824 -146 0
-824 -147 0
-824 -148 0
-824 -149 0
-824 -150 0
-824 -151 0
-824 -152 0
-824 -153 0
-824 -239 0
-824 -243 0
-824 -244 0
-824 -245 0
-824 -246 0
-824 -247 0
-824 -248 0
-824 -249 0
-824 -250 0
-824 -251 0
-824 -252 0
-824 -253 0
-824 -254 0
-824 -255 0
-824 -392 0
-824 -396 0
-824 -397 0
-824 -398 0
-824 -399 0
-824 -400 0
-824 -401 0
-824 -402 0
-824 -403 0
-824 -404 0
-824 -405 0
-824 -406 0
-824 -407 0
-824 -408 0
-825 -137 0
-825 -138 0
-825 -142 0
-825 -143 0
-825 -144 0
-825 -145 0
-825 -146 0
-825 -147 0
-825 -148 0
-825 -149 0
-825 -150 0
-825 -151 0
-825 -152 0
-825 -153 0
-825 -239 0
-825 -240 0
-825 -244 0
-825 -245 0
-825 -246 0
-825 -247 0
-825 -248 0
-825 -249 0
-825 -250 0
-825 -251 0
-825 -252 0
-825 -253 0
-825 -254 0
-825 -255 0
-825 -392 0
-825 -393 0
-825 -397 0
-825 -398 0
-825 -399 0
-825 -400 0
-825 -401 0
-825 -402 0
-825 -403 0
-825 -404 0
-825 -405 0
-825 -406 0
-825 -407 0
-825 -408 0
-826 -137 0
-826 -138 0
-826 -139 0
-826 -143 0
-826 -144 0
-826 -145 0
-826 -146 0
-826 -147 0
-826 -148 0
-826 -149 0
-826 -150 0
-826 -151 0
-826 -152 0
-826 -153 0
-826 -239 0
-826 -240 0
-826 -241 0
-826 -245 0
-826 -246 0
-826 -247 0
-826 -248 0
-826 -249 0
-826 -250 0
-826 -251 0
-826 -252 0
-826 -253 0
-826 -254 0
-826 -255 0
-826 -392 0
-826 -393 0
-826 -394 0
-826 -398 0
-826 -399 0
-826 -400 0
-826 -401 0
-826 -402 0
-826 -403 0
-826 -404 0
-826 -405 0
-826 -406 0
-826 -407 0
-826 -408 0
-827 -137 0
-827 -138 0
-827 -139 0
-827 -140 0
-827 -144 0
-827 -145 0
-827 -146 0
-827 -147 0
-827 -148 0
-827 -149 0
-827 -150 0
-827 -151 0
-827 -152 0
-827 -153 0
-827 -239 0
-827 -240 0
-827 -241 0
-827 -242 0
-827 -246 0
-827 -247 0
-827 -248 0
-827 -249 0
-827 -250 0
-827 -251 0
-827 -252 0
-827 -253 0
-827 -254 0
-827 -255 0
-827 -392 0
-827 -393 0
-827 -394 0
-827 -395 0
-827 -399 0
-827 -400 0
-827 -401 0
-827 -402 0
-827 -403 0
-827 -404 0
-827 -405 0
-827 -406 0
-827 -407 0
-827 -408 0
-828 -137 0
-828 -138 0
-828 -139 0
-828 -140 0
-828 -141 0
-828 -145 0
-828 -146 0
-828 -147 0
-828 -148 0
-828 -149 0
-828 -150 0
-828 -151 0
-828 -152 0
-828 -153 0
-828 -239 0
-828 -240 0
-828 -241 0
-828 -242 0
-828 -243 0
-828 -247 0
-828 -248 0
-828 -249 0
-828 -250 0
-828 -251 0
-828 -252 0
-828 -253 0
-828 -254 0
-828 -255 0
-828 -392 0
-828 -393 0
-828 -394 0
-828 -395 0
-828 -396 0
-828 -400 0
-828 -401 0
-828 -402 0
-828 -403 0
-828 -404 0
-828 -405 0
-828 -406 0
-828 -407 0
-828 -408 0
-829 -137 0
-829 -138 0
-829 -139 0
-829 -140 0
-829 -141 0
-829 -142 0
-829 -146 0
-829 -147 0
-829 -148 0
-829 -149 0
-829 -150 0
-829 -151 0
-829 -152 0
-829 -153 0
-829 -239 0
-829 -240 0
-829 -241 0
-829 -242 0
-829 -243 0
-829 -244 0
-829 -248 0
-829 -249 0
-829 -250 0
-829 -251 0
-829 -252 0
-829 -253 0
-829 -254 0
-829 -255 0
-829 -392 0
-829 -393 0
-829 -394 0
-829 -395 0
-829 -396 0
-829 -397 0
-829 -401 0
-829 -402 0
-829 -403 0
-829 -404 0
-829 -405 0
-829 -406 0
-829 -407 0
-829 -408 0
-830 -137 0
-830 -138 0
-830 -139 0
-830 -140 0
-830 -141 0
-830 -142 0
-830 -143 0
-830 -147 0
-830 -148 0
-830 -149 0
-830 -150 0
-830 -151 0
-830 -152 0
-830 -153 0
-830 -239 0
-830 -240 0
-830 -241 0
-830 -242 0
-830 -243 0
-830 -244 0
-830 -245 0
-830 -249 0
-830 -250 0
-830 -251 0
-830 -252 0
-830 -253 0
-830 -254 0
-830 -255 0
-830 -392 0
-830 -393 0
-830 -394 0
-830 -395 0
-830 -396 0
-830 -397 0
-830 -398 0
-830 -402 0
-830 -403 0
-830 -404 0
-830 -405 0
-830 -406 0
-830 -407 0
-830 -408 0
-831 -137 0
-831 -138 0
-831 -139 0
-831 -140 0
-831 -141 0
-831 -142 0
-831 -143 0
-831 -144 0
-831 -148 0
-831 -149 0
-831 -150 0
-831 -151 0
-831 -152 0
-831 -153 0
-831 -239 0
-831 -240 0
-831 -241 0
-831 -242 0
-831 -243 0
-831 -244 0
-831 -245 0
-831 -246 0
-831 -250 0
-831 -251 0
-831 -252 0
-831 -253 0
-831 -254 0
-831 -255 0
-831 -392 0
-831 -393 0
-831 -394 0
-831 -395 0
-831 -396 0
-831 -397 0
-831 -398 0
-831 -399 0
-831 -403 0
-831 -404 0
-831 -405 0
-831 -406 0
-831 -407 0
-831 -408 0
-832 -137 0
-832 -138 0
-832 -139 0
-832 -140 0
-832 -141 0
-832 -142 0
-832 -143 0
-832 -144 0
-832 -145 0
-832 -149 0
-832 -150 0
-832 -151 0
-832 -152 0
-832 -153 0
-832 -239 0
-832 -240 0
-832 -241 0
-832 -242 0
-832 -243 0
-832 -244 0
-832 -245 0
-832 -246 0
-832 -247 0
-832 -251 0
-832 -252 0
-832 -253 0
-832 -254 0
-832 -255 0
-832 -392 0
-832 -393 0
-832 -394 0
-832 -395 0
-832 -396 0
-832 -397 0
-832 -398 0
-832 -399 0
-832 -400 0
-832 -404 0
-832 -405 0
-832 -406 0
-832 -407 0
-832 -408 0
-833 -137 0
-833 -138 0
-833 -139 0
-833 -140 0
-833 -141 0
-833 -142 0
-833 -143 0
-833 -144 0
-833 -145 0
-833 -146 0
-833 -150 0
-833 -151 0
-833 -152 0
-833 -153 0
-833 -239 0
-833 -240 0
-833 -241 0
-833 -242 0
-833 -243 0
-833 -244 0
-833 -245 0
-833 -246 0
-833 -247 0
-833 -248 0
-833 -252 0
-833 -253 0
-833 -254 0
-833 -255 0
-833 -392 0
-833 -393 0
-833 -394 0
-833 -395 0
-833 -396 0
-833 -397 0
-833 -398 0
-833 -399 0
-833 -400 0
-833 -401 0
-833 -405 0
-833 -406 0
-833 -407 0
-833 -408 0
-834 -137 0
-834 -138 0
-834 -139 0
-834 -140 0
-834 -141 0
-834 -142 0
-834 -143 0
-834 -144 0
-834 -145 0
-834 -146 0
-834 -147 0
-834 -151 0
-834 -152 0
-834 -153 0
-834 -239 0
-834 -240 0
-834 -241 0
-834 -242 0
-834 -243 0
-834 -244 0
-834 -245 0
-834 -246 0
-834 -247 0
-834 -248 0
-834 -249 0
-834 -253 0
-834 -254 0
-834 -255 0
-834 -392 0
-834 -393 0
-834 -394 0
-834 -395 0
-834 -396 0
-834 -397 0
-834 -398 0
-834 -399 0
-834 -400 0
-834 -401 0
-834 -402 0
-834 -406 0
-834 -407 0
-834 -408 0
-835 -137 0
-835 -138 0
-835 -139 0
-835 -140 0
-835 -141 0
-835 -142 0
-835 -143 0
-835 -144 0
-835 -145 0
-835 -146 0
-835 -147 0
-835 -148 0
-835 -152 0
-835 -153 0
-835 -239 0
-835 -240 0
-835 -241 0
-835 -242 0
-835 -243 0
-835 -244 0
-835 -245 0
-835 -246 0
-835 -247 0
-835 -248 0
-835 -249 0
-835 -250 0
-835 -254 0
-835 -255 0
-835 -392 0
-835 -393 0
-835 -394 0
-835 -395 0
-835 -396 0
-835 -397 0
-835 -398 0
-835 -399 0
-835 -400 0
-835 -401 0
-835 -402 0
-835 -403 0
-835 -407 0
-835 -408 0
-836 -137 0
-836 -138 0
-836 -139 0
-836 -140 0
-836 -141 0
-836 -142 0
-836 -143 0
-836 -144 0
-836 -145 0
-836 -146 0
-836 -147 0
-836 -148 0
-836 -149 0
-836 -153 0
-836 -239 0
-836 -240 0
-836 -241 0
-836 -242 0
-836 -243 0
-836 -244 0
-836 -245 0
-836 -246 0
-836 -247 0
-836 -248 0
-836 -249 0
-836 -250 0
-836 -251 0
-836 -255 0
-836 -392 0
-836 -393 0
-836 -394 0
-836 -395 0
-836 -396 0
-836 -397 0
-836 -398 0
-836 -399 0
-836 -400 0
-836 -401 0
-836 -402 0
-836 -403 0
-836 -404 0
-836 -408 0
-837 -137 0
-837 -138 0
-837 -139 0
-837 -140 0
-837 -141 0
-837 -142 0
-837 -143 0
-837 -144 0
-837 -145 0
-837 -146 0
-837 -147 0
-837 -148 0
-837 -149 0
-837 -150 0
-837 -239 0
-837 -240 0
-837 -241 0
-837 -242 0
-837 -243 0
-837 -244 0
-837 -245 0
-837 -246 0
-837 -247 0
-837 -248 0
-837 -249 0
-837 -250 0
-837 -251 0
-837 -252 0
-837 -392 0
-837 -393 0
-837 -394 0
-837 -395 0
-837 -396 0
-837 -397 0
-837 -398 0
-837 -399 0
-837 -400 0
-837 -401 0
-837 -402 0
-837 -403 0
-837 -404 0
-837 -405 0
-188 -290 0
-188 -443 0
-290 -443 0
-189 -291 0
-189 -444 0
-291 -444 0
-190 -292 0
-190 -445 0
-292 -445 0
-191 -293 0
-191 -446 0
-293 -446 0
-192 -294 0
-192 -447 0
-294 -447 0
-193 -295 0
-193 -448 0
-295 -448 0
-194 -296 0
-194 -449 0
-296 -449 0
-195 -297 0
-195 -450 0
-297 -450 0
-196 -298 0
-196 -451 0
-298 -451 0
-197 -299 0
-197 -452 0
-299 -452 0
-198 -300 0
-198 -453 0
-300 -453 0
-199 -301 0
-199 -454 0
-301 -454 0
-200 -302 0
-200 -455 0
-302 -455 0
-201 -303 0
-201 -456 0
-303 -456 0
-202 -304 0
-202 -457 0
-304 -457 0
-203 -305 0
-203 -458 0
-305 -458 0
-204 -306 0
-204 -459 0
-306 -459 0
838 839 840 841 842 843 844 845 846 847 848 849 850 851 852 0
-838 -839 0
-838 -840 0
-838 -841 0
-838 -842 0
-838 -843 0
-838 -844 0
-838 -845 0
-838 -846 0
-838 -847 0
-838 -848 0
-838 -849 0
-838 -850 0
-838 -851 0
-838 -852 0
-839 -840 0
-839 -841 0
-839 -842 0
-839 -843 0
-839 -844 0
-839 -845 0
-839 -846 0
-839 -847 0
-839 -848 0
-839 -849 0
-839 -850 0
-839 -851 0
-839 -852 0
-840 -841 0
-840 -842 0
-840 -843 0
-840 -844 0
-840 -845 0
-840 -846 0
-840 -847 0
-840 -848 0
-840 -849 0
-840 -850 0
-840 -851 0
-840 -852 0
-841 -842 0
-841 -843 0
-841 -844 0
-841 -845 0
-841 -846 0
-841 -847 0
-841 -848 0
-841 -849 0
-841 -850 0
-841 -851 0
-841 -852 0
-842 -843 0
-842 -844 0
-842 -845 0
-842 -846 0
-842 -847 0
-842 -848 0
-842 -849 0
-842 -850 0
-842 -851 0
-842 -852 0
-843 -844 0
-843 -845 0
-843 -846 0
-843 -847 0
-843 -848 0
-843 -849 0
-843 -850 0
-843 -851 0
-843 -852 0
-844 -845 0
-844 -846 0
-844 -847 0
-844 -848 0
-844 -849 0
-844 -850 0
-844 -851 0
-844 -852 0
-845 -846 0
-845 -847 0
-845 -848 0
-845 -849 0
-845 -850 0
-845 -851 0
-845 -852 0
-846 -847 0
-846 -848 0
-846 -849 0
-846 -850 0
-846 -851 0
-846 -852 0
-847 -848 0
-847 -849 0
-847 -850 0
-847 -851 0
-847 -852 0
-848 -849 0
-848 -850 0
-848 -851 0
-848 -852 0
-849 -850 0
-849 -851 0
-849 -852 0
-850 -851 0
-850 -852 0
-851 -852 0
-188 838 0
-189 838 839 0
-190 838 839 840 0
-191 839 840 841 0
-192 840 841 842 0
-193 841 842 843 0
-194 842 843 844 0
-195 843 844 845 0
-196 844 845 846 0
-197 845 846 847 0
-198 846 847 848 0
-199 847 848 849 0
-200 848 849 850 0
-201 849 850 851 0
-202 850 851 852 0
-203 851 852 0
-204 852 0
-290 838 0
-291 838 839 0
-292 838 839 840 0
-293 839 840 841 0
-294 840 841 842 0
-295 841 842 843 0
-296 842 843 844 0
-297 843 844 845 0
-298 844 845 846 0
-299 845 846 847 0
-300 846 847 848 0
-301 847 848 849 0
-302 848 849 850 0
-303 849 850 851 0
-304 850 851 852 0
-305 851 852 0
-306 852 0
-443 838 0
-444 838 839 0
-445 838 839 840 0
-446 839 840 841 0
-447 840 841 842 0
-448 841 842 843 0
-449 842 843 844 0
-450 843 844 845 0
-451 844 845 846 0
-452 845 846 847 0
-453 846 847 848 0
-454 847 848 849 0
-455 848 849 850 0
-456 849 850 851 0
-457 850 851 852 0
-458 851 852 0
-459 852 0
-838 -191 0
-838 -192 0
-838 -193 0
-838 -194 0
-838 -195 0
-838 -196 0
-838 -197 0
-838 -198 0
-838 -199 0
-838 -200 0
-838 -201 0
-838 -202 0
-838 -203 0
-838 -204 0
-838 -293 0
-838 -294 0
-838 -295 0
-838 -296 0
-838 -297 0
-838 -298 0
-838 -299 0
-838 -300 0
-838 -301 0
-838 -302 0
-838 -303 0
-838 -304 0
-838 -305 0
-838 -306 0
-838 -446 0
-838 -447 0
-838 -448 0
-838 -449 0
-838 -450 0
-838 -451 0
-838 -452 0
-838 -453 0
-838 -454 0
-838 -455 0
-838 -456 0
-838 -457 0
-838 -458 0
-838 -459 0
-839 -188 0
-839 -192 0
-839 -193 0
-839 -194 0
-839 -195 0
-839 -196 0
-839 -197 0
-839 -198 0
-839 -199 0
-839 -200 0
-839 -201 0
-839 -202 0
-839 -203 0
-839 -204 0
-839 -290 0
-839 -294 0
-839 -295 0
-839 -296 0
-839 -297 0
-839 -298 0
-839 -299 0
-839 -300 0
-839 -301 0
-839 -302 0
-839 -303 0
-839 -304 0
-839 -305 0
-839 -306 0
-839 -443 0
-839 -447 0
-839 -448 0
-839 -449 0
-839 -450 0
-839 -451 0
-839 -452 0
-839 -453 0
-839 -454 0
-839 -455 0
-839 -456 0
-839 -457 0
-839 -458 0
-839 -459 0
-840 -188 0
-840 -189 0
-840 -193 0
-840 -194 0
-840 -195 0
-840 -196 0
-840 -197 0
-840 -198 0
-840 -199 0
-840 -200 0
-840 -201 0
-840 -202 0
-840 -203 0
-840 -204 0
-840 -290 0
-840 -291 0
-840 -295 0
-840 -296 0
-840 -297 0
-840 -298 0
-840 -299 0
-840 -300 0
-840 -301 0
-840 -302 0
-840 -303 0
-840 -304 0
-840 -305 0
-840 -306 0
-840 -443 0
-840 -444 0
-840 -448 0
-840 -449 0
-840 -450 0
-840 -451 0
-840 -452 0
-840 -453 0
-840 -454 0
-840 -455 0
-840 -456 0
-840 -457 0
-840 -458 0
-840 -459 0
-841 -188 0
-841 -189 0
-841 -190 0
-841 -194 0
-841 -195 0
-841 -196 0
-841 -197 0
-841 -198 0
-841 -199 0
-841 -200 0
-841 -201 0
-841 -202 0
-841 -203 0
-841 -204 0
-841 -290 0
-841 -291 0
-841 -292 0
-841 -296 0
-841 -297 0
-841 -298 0
-841 -299 0
-841 -300 0
-841 -301 0
-841 -302 0
-841 -303 0
-841 -304 0
-841 -305 0
-841 -306 0
-841 -443 0
-841 -444 0
-841 -445 0
-841 -449 0
-841 -450 0
-841 -451 0
-841 -452 0
-841 -453 0
-841 -454 0
-841 -455 0
-841 -456 0
-841 -457 0
-841 -458 0
-841 -459 0
-842 -188 0
-842 -189 0
-842 -190 0
-842 -191 0
-842 -195 0
-842 -196 0
-842 -197 0
-842 -198 0
-842 -199 0
-842 -200 0
-842 -201 0
-842 -202 0
-842 -203 0
-842 -204 0
-842 -290 0
-842 -291 0
-842 -292 0
-842 -293 0
-842 -297 0
-842 -298 0
-842 -299 0
-842 -300 0
-842 -301 0
-842 -302 0
-842 -303 0
-842 -304 0
-842 -305 0
-842 -306 0
-842 -443 0
-842 -444 0
-842 -445 0
-842 -446 0
-842 -450 0
-842 -451 0
-842 -452 0
-842 -453 0
-842 -454 0
-842 -455 0
-842 -456 0
-842 -457 0
-842 -458 0
-842 -459 0
-843 -188 0
-843 -189 0
-843 -190 0
-843 -191 0
-843 -192 0
-843 -196 0
-843 -197 0
-843 -198 0
-843 -199 0
-843 -200 0
-843 -201 0
-843 -202 0
-843 -203 0
-843 -204 0
-843 -290 0
-843 -291 0
-843 -292 0
-843 -293 0
-843 -294 0
-843 -298 0
-843 -299 0
-843 -300 0
-843 -301 0
-843 -302 0
-843 -303 0
-843 -304 0
-843 -305 0
-843 -306 0
-843 -443 0
-843 -444 0
-843 -445 0
-843 -446 0
-843 -447 0
-843 -451 0
-843 -452 0
-843 -453 0
-843 -454 0
-843 -455 0
-843 -456 0
-843 -457 0
-843 -458 0
-843 -459 0
-844 -188 0
-844 -189 0
-844 -190 0
-844 -191 0
-844 -192 0
-844 -193 0
-844 -197 0
-844 -198 0
-844 -199 0
-844 -200 0
-844 -201 0
-844 -202 0
-844 -203 0
-844 -204 0
-844 -290 0
-844 -291 0
-844 -292 0
-844 -293 0
-844 -294 0
-844 -295 0
-844 -299 0
-844 -300 0
-844 -301 0
-844 -302 0
-844 -303 0
-844 -304 0
-844 -305 0
-844 -306 0
-844 -443 0
-844 -444 0
-844 -445 0
-844 -446 0
-844 -447 0
-844 -448 0
-844 -452 0
-844 -453 0
-844 -454 0
-844 -455 0
-844 -456 0
-844 -457 0
-844 -458 0
-844 -459 0
-845 -188 0
-845 -189 0
-845 -190 0
-845 -191 0
-845 -192 0
-845 -193 0
-845 -194 0
-845 -198 0
-845 -199 0
-845 -200 0
-845 -201 0
-845 -202 0
-845 -203 0
-845 -204 0
-845 -290 0
-845 -291 0
-845 -292 0
-845 -293 0
-845 -294 0
-845 -295 0
-845 -296 0
-845 -300 0
-845 -301 0
-845 -302 0
-845 -303 0
-845 -304 0
-845 -305 0
-845 -306 0
-845 -443 0
-845 -444 0
-845 -445 0
-845 -446 0
-845 -447 0
-845 -448 0
-845 -449 0
-845 -453 0
-845 -454 0
-845 -455 0
-845 -456 0
-845 -457 0
-845 -458 0
-845 -459 0
-846 -188 0
-846 -189 0
-846 -190 0
-846 -191 0
-846 -192 0
-846 -193 0
-846 -194 0
-846 -195 0
-846 -199 0
-846 -200 0
-846 -201 0
-846 -202 0
-846 -203 0
-846 -204 0
-846 -290 0
-846 -291 0
-846 -292 0
-846 -293 0
-846 -294 0
-846 -295 0
-846 -296 0
-846 -297 0
-846 -301 0
-846 -302 0
-846 -303 0
-846 -304 0
-846 -305 0
-846 -306 0
-846 -443 0
-846 -444 0
-846 -445 0
-846 -446 0
-846 -447 0
-846 -448 0
-846 -449 0
-846 -450 0
-846 -454 0
-846 -455 0
-846 -456 0
-846 -457 0
-846 -458 0
-846 -459 0
-847 -188 0
-847 -189 0
-847 -190 0
-847 -191 0
-847 -192 0
-847 -193 0
-847 -194 0
-847 -195 0
-847 -196 0
-847 -200 0
-847 -201 0
-847 -202 0
-847 -203 0
-847 -204 0
-847 -290 0
-847 -291 0
-847 -292 0
-847 -293 0
-847 -294 0
-847 -295 0
-847 -296 0
-847 -297 0
-847 -298 0
-847 -302 0
-847 -303 0
-847 -304 0
-847 -305 0
-847 -306 0
-847 -443 0
-847 -444 0
-847 -445 0
-847 -446 0
-847 -447 0
-847 -448 0
-847 -449 0
-847 -450 0
-847 -451 0
-847 -455 0
-847 -456 0
-847 -457 0
-847 -458 0
-847 -459 0
-848 -188 0
-848 -189 0
-848 -190 0
-848 -191 0
-848 -192 0
-848 -193 0
-848 -194 0
-848 -195 0
-848 -196 0
-848 -197 0
-848 -201 0
-848 -202 0
-848 -203 0
-848 -204 0
-848 -290 0
-848 -291 0
-848 -292 0
-848 -293 0
-848 -294 0
-848 -295 0
-848 -296 0
-848 -297 0
-848 -298 0
-848 -299 0
-848 -303 0
-848 -304 0
-848 -305 0
-848 -306 0
-848 -443 0
-848 -444 0
-848 -445 0
-848 -446 0
-848 -447 0
-848 -448 0
-848 -449 0
-848 -450 0
-848 -451 0
-848 -452 0
-848 -456 0
-848 -457 0
-848 -458 0
-848 -459 0
-849 -188 0
-849 -189 0
-849 -190 0
-849 -191 0
-849 -192 0
-849 -193 0
-849 -194 0
-849 -195 0
-849 -196 0
-849 -197 0
-849 -198 0
-849 -202 0
-849 -203 0
-849 -204 0
-849 -290 0
-849 -291 0
-849 -292 0
-849 -293 0
-849 -294 0
-849 -295 0
-849 -296 0
-849 -297 0
-849 -298 0
-849 -299 0
-849 -300 0
-849 -304 0
-849 -305 0
-849 -306 0
-849 -443 0
-849 -444 0
-849 -445 0
-849 -446 0
-849 -447 0
-849 -448 0
-849 -449 0
-849 -450 0
-849 -451 0
-849 -452 0
-849 -453 0
-849 -457 0
-849 -458 0
-849 -459 0
-850 -188 0
-850 -189 0
-850 -190 0
-850 -191 0
-850 -192 0
-850 -193 0
-850 -194 0
-850 -195 0
-850 -196 0
-850 -197 0
-850 -198 0
-850 -199 0
-850 -203 0
-850 -204 0
-850 -290 0
-850 -291 0
-850 -292 0
-850 -293 0
-850 -294 0
-850 -295 0
-850 -296 0
-850 -297 0
-850 -298 0
-850 -299 0
-850 -300 0
-850 -301 0
-850 -305 0
-850 -306 0
-850 -443 0
-850 -444 0
-850 -445 0
-850 -446 0
-850 -447 0
-850 -448 0
-850 -449 0
-850 -450 0
-850 -451 0
-850 -452 0
-850 -453 0
-850 -454 0
-850 -458 0
-850 -459 0
-851 -188 0
-851 -189 0
-851 -190 0
-851 -191 0
-851 -192 0
-851 -193 0
-851 -194 0
-851 -195 0
-851 -196 0
-851 -197 0
-851 -198 0
-851 -199 0
-851 -200 0
-851 -204 0
-851 -290 0
-851 -291 0
-851 -292 0
-851 -293 0
-851 -294 0
-851 -295 0
-851 -296 0
-851 -297 0
-851 -298 0
-851 -299 0
-851 -300 0
-851 -301 0
-851 -302 0
-851 -306 0
-851 -443 0
-851 -444 0
-851 -445 0
-851 -446 0
-851 -447 0
-851 -448 0
-851 -449 0
-851 -450 0
-851 -451 0
-851 -452 0
-851 -453 0
-851 -454 0
-851 -455 0
-851 -459 0
-852 -188 0
-852 -189 0
-852 -190 0
-852 -191 0
-852 -192 0
-852 -193 0
-852 -194 0
-852 -195 0
-852 -196 0
-852 -197 0
-852 -198 0
-852 -199 0
-852 -200 0
-852 -201 0
-852 -290 0
-852 -291 0
-852 -292 0
-852 -293 0
-852 -294 0
-852 -295 0
-852 -296 0
-852 -297 0
-852 -298 0
-852 -299 0
-852 -300 0
-852 -301 0
-852 -302 0
-852 -303 0
-852 -443 0
-852 -444 0
-852 -445 0
-852 -446 0
-852 -447 0
-852 -448 0
-852 -449 0
-852 -450 0
-852 -451 0
-852 -452 0
-852 -453 0
-852 -454 0
-852 -455 0
-852 -456 0
1 18 35 52 69 86 103 120 137 154 171 188 205 222 239 256 273 290 307 324 341 358 375 392 409 426 443 460 477 494 511 528 545 562 0
2 19 36 53 70 87 104 121 138 155 172 189 206 223 240 257 274 291 308 325 342 359 376 393 410 427 444 461 478 495 512 529 546 563 0
3 20 37 54 71 88 105 122 139 156 173 190 207 224 241 258 275 292 309 326 343 360 377 394 411 428 445 462 479 496 513 530 547 564 0
4 21 38 55 72 89 106 123 140 157 174 191 208 225 242 259 276 293 310 327 344 361 378 395 412 429 446 463 480 497 514 531 548 565 0
5 22 39 56 73 90 107 124 141 158 175 192 209 226 243 260 277 294 311 328 345 362 379 396 413 430 447 464 481 498 515 532 549 566 0
6 23 40 57 74 91 108 125 142 159 176 193 210 227 244 261 278 295 312 329 346 363 380 397 414 431 448 465 482 499 516 533 550 567 0
7 24 41 58 75 92 109 126 143 160 177 194 211 228 245 262 279 296 313 330 347 364 381 398 415 432 449 466 483 500 517 534 551 568 0
8 25 42 59 76 93 110 127 144 161 178 195 212 229 246 263 280 297 314 331 348 365 382 399 416 433 450 467 484 501 518 535 552 569 0
9 26 43 60 77 94 111 128 145 162 179 196 213 230 247 264 281 298 315 332 349 366 383 400 417 434 451 468 485 502 519 536 553 570 0
10 27 44 61 78 95 112 129 146 163 180 197 214 231 248 265 282 299 316 333 350 367 384 401 418 435 452 469 486 503 520 537 554 571 0
11 28 45 62 79 96 113 130 147 164 181 198 215 232 249 266 283 300 317 334 351 368 385 402 419 436 453 470 487 504 521 538 555 572 0
12 29 46 63 80 97 114 131 148 165 182 199 216 233 250 267 284 301 318 335 352 369 386 403 420 437 454 471 488 505 522 539 556 573 0
13 30 47 64 81 98 115 132 149 166 183 200 217 234 251 268 285 302 319 336 353 370 387 404 421 438 455 472 489 506 523 540 557 574 0
14 31 48 65 82 99 116 133 150 167 184 201 218 235 252 269 286 303 320 337 354 371 388 405 422 439 456 473 490 507 524 541 558 575 0
15 32 49 66 83 100 117 134 151 168 185 202 219 236 253 270 287 304 321 338 355 372 389 406 423 440 457 474 491 508 525 542 559 576 0
16 33 50 67 84 101 118 135 152 169 186 203 220 237 254 271 288 305 322 339 356 373 390 407 424 441 458 475 492 509 526 543 560 577 0
17 34 51 68 85 102 119 136 153 170 187 204 221 238 255 272 289 306 323 340 357 374 391 408 425 442 459 476 493 510 527 544 561 578 0
