p cnf 693 14318
1 2 3 4 5 6 7 8 9 10 11 12 13 14 0
-1 -2 0
-1 -3 0
-1 -4 0
-1 -5 0
-1 -6 0
-1 -7 0
-1 -8 0
-1 -9 0
-1 -10 0
-1 -11 0
-1 -12 0
-1 -13 0
-1 -14 0
-2 -3 0
-2 -4 0
-2 -5 0
-2 -6 0
-2 -7 0
-2 -8 0
-2 -9 0
-2 -10 0
-2 -11 0
-2 -12 0
-2 -13 0
-2 -14 0
-3 -4 0
-3 -5 0
-3 -6 0
-3 -7 0
-3 -8 0
-3 -9 0
-3 -10 0
-3 -11 0
-3 -12 0
-3 -13 0
-3 -14 0
-4 -5 0
-4 -6 0
-4 -7 0
-4 -8 0
-4 -9 0
-4 -10 0
-4 -11 0
-4 -12 0
-4 -13 0
-4 -14 0
-5 -6 0
-5 -7 0
-5 -8 0
-5 -9 0
-5 -10 0
-5 -11 0
-5 -12 0
-5 -13 0
-5 -14 0
-6 -7 0
-6 -8 0
-6 -9 0
-6 -10 0
-6 -11 0
-6 -12 0
-6 -13 0
-6 -14 0
-7 -8 0
-7 -9 0
-7 -10 0
-7 -11 0
-7 -12 0
-7 -13 0
-7 -14 0
-8 -9 0
-8 -10 0
-8 -11 0
-8 -12 0
-8 -13 0
-8 -14 0
-9 -10 0
-9 -11 0
-9 -12 0
-9 -13 0
-9 -14 0
-10 -11 0
-10 -12 0
-10 -13 0
-10 -14 0
-11 -12 0
-11 -13 0
-11 -14 0
-12 -13 0
-12 -14 0
-13 -14 0
15 16 17 18 19 20 21 22 23 24 25 26 27 28 0
-15 -16 0
-15 -17 0
-15 -18 0
-15 -19 0
-15 -20 0
-15 -21 0
-15 -22 0
-15 -23 0
-15 -24 0
-15 -25 0
-15 -26 0
-15 -27 0
-15 -28 0
-16 -17 0
-16 -18 0
-16 -19 0
-16 -20 0
-16 -21 0
-16 -22 0
-16 -23 0
-16 -24 0
-16 -25 0
-16 -26 0
-16 -27 0
-16 -28 0
-17 -18 0
-17 -19 0
-17 -20 0
-17 -21 0
-17 -22 0
-17 -23 0
-17 -24 0
-17 -25 0
-17 -26 0
-17 -27 0
-17 -28 0
-18 -19 0
-18 -20 0
-18 -21 0
-18 -22 0
-18 -23 0
-18 -24 0
-18 -25 0
-18 -26 0
-18 -27 0
-18 -28 0
-19 -20 0
-19 -21 0
-19 -22 0
-19 -23 0
-19 -24 0
-19 -25 0
-19 -26 0
-19 -27 0
-19 -28 0
-20 -21 0
-20 -22 0
-20 -23 0
-20 -24 0
-20 -25 0
-20 -26 0
-20 -27 0
-20 -28 0
-21 -22 0
-21 -23 0
-21 -24 0
-21 -25 0
-21 -26 0
-21 -27 0
-21 -28 0
-22 -23 0
-22 -24 0
-22 -25 0
-22 -26 0
-22 -27 0
-22 -28 0
-23 -24 0
-23 -25 0
-23 -26 0
-23 -27 0
-23 -28 0
-24 -25 0
-24 -26 0
-24 -27 0
-24 -28 0
-25 -26 0
-25 -27 0
-25 -28 0
-26 -27 0
-26 -28 0
-27 -28 0
29 30 31 32 33 34 35 36 37 38 39 40 41 42 0
-29 -30 0
-29 -31 0
-29 -32 0
-29 -33 0
-29 -34 0
-29 -35 0
-29 -36 0
-29 -37 0
-29 -38 0
-29 -39 0
-29 -40 0
-29 -41 0
-29 -42 0
-30 -31 0
-30 -32 0
-30 -33 0
-30 -34 0
-30 -35 0
-30 -36 0
-30 -37 0
-30 -38 0
-30 -39 0
-30 -40 0
-30 -41 0
-30 -42 0
-31 -32 0
-31 -33 0
-31 -34 0
-31 -35 0
-31 -36 0
-31 -37 0
-31 -38 0
-31 -39 0
-31 -40 0
-31 -41 0
-31 -42 0
-32 -33 0
-32 -34 0
-32 -35 0
-32 -36 0
-32 -37 0
-32 -38 0
-32 -39 0
-32 -40 0
-32 -41 0
-32 -42 0
-33 -34 0
-33 -35 0
-33 -36 0
-33 -37 0
-33 -38 0
-33 -39 0
-33 -40 0
-33 -41 0
-33 -42 0
-34 -35 0
-34 -36 0
-34 -37 0
-34 -38 0
-34 -39 0
-34 -40 0
-34 -41 0
-34 -42 0
-35 -36 0
-35 -37 0
-35 -38 0
-35 -39 0
-35 -40 0
-35 -41 0
-35 -42 0
-36 -37 0
-36 -38 0
-36 -39 0
-36 -40 0
-36 -41 0
-36 -42 0
-37 -38 0
-37 -39 0
-37 -40 0
-37 -41 0
-37 -42 0
-38 -39 0
-38 -40 0
-38 -41 0
-38 -42 0
-39 -40 0
-39 -41 0
-39 -42 0
-40 -41 0
-40 -42 0
-41 -42 0
43 44 45 46 47 48 49 50 51 52 53 54 55 56 0
-43 -44 0
-43 -45 0
-43 -46 0
-43 -47 0
-43 -48 0
-43 -49 0
-43 -50 0
-43 -51 0
-43 -52 0
-43 -53 0
-43 -54 0
-43 -55 0
-43 -56 0
-44 -45 0
-44 -46 0
-44 -47 0
-44 -48 0
-44 -49 0
-44 -50 0
-44 -51 0
-44 -52 0
-44 -53 0
-44 -54 0
-44 -55 0
-44 -56 0
-45 -46 0
-45 -47 0
-45 -48 0
-45 -49 0
-45 -50 0
-45 -51 0
-45 -52 0
-45 -53 0
-45 -54 0
-45 -55 0
-45 -56 0
-46 -47 0
-46 -48 0
-46 -49 0
-46 -50 0
-46 -51 0
-46 -52 0
-46 -53 0
-46 -54 0
-46 -55 0
-46 -56 0
-47 -48 0
-47 -49 0
-47 -50 0
-47 -51 0
-47 -52 0
-47 -53 0
-47 -54 0
-47 -55 0
-47 -56 0
-48 -49 0
-48 -50 0
-48 -51 0
-48 -52 0
-48 -53 0
-48 -54 0
-48 -55 0
-48 -56 0
-49 -50 0
-49 -51 0
-49 -52 0
-49 -53 0
-49 -54 0
-49 -55 0
-49 -56 0
-50 -51 0
-50 -52 0
-50 -53 0
-50 -54 0
-50 -55 0
-50 -56 0
-51 -52 0
-51 -53 0
-51 -54 0
-51 -55 0
-51 -56 0
-52 -53 0
-52 -54 0
-52 -55 0
-52 -56 0
-53 -54 0
-53 -55 0
-53 -56 0
-54 -55 0
-54 -56 0
-55 -56 0
57 58 59 60 61 62 63 64 65 66 67 68 69 70 0
-57 -58 0
-57 -59 0
-57 -60 0
-57 -61 0
-57 -62 0
-57 -63 0
-57 -64 0
-57 -65 0
-57 -66 0
-57 -67 0
-57 -68 0
-57 -69 0
-57 -70 0
-58 -59 0
-58 -60 0
-58 -61 0
-58 -62 0
-58 -63 0
-58 -64 0
-58 -65 0
-58 -66 0
-58 -67 0
-58 -68 0
-58 -69 0
-58 -70 0
-59 -60 0
-59 -61 0
-59 -62 0
-59 -63 0
-59 -64 0
-59 -65 0
-59 -66 0
-59 -67 0
-59 -68 0
-59 -69 0
-59 -70 0
-60 -61 0
-60 -62 0
-60 -63 0
-60 -64 0
-60 -65 0
-60 -66 0
-60 -67 0
-60 -68 0
-60 -69 0
-60 -70 0
-61 -62 0
-61 -63 0
-61 -64 0
-61 -65 0
-61 -66 0
-61 -67 0
-61 -68 0
-61 -69 0
-61 -70 0
-62 -63 0
-62 -64 0
-62 -65 0
-62 -66 0
-62 -67 0
-62 -68 0
-62 -69 0
-62 -70 0
-63 -64 0
-63 -65 0
-63 -66 0
-63 -67 0
-63 -68 0
-63 -69 0
-63 -70 0
-64 -65 0
-64 -66 0
-64 -67 0
-64 -68 0
-64 -69 0
-64 -70 0
-65 -66 0
-65 -67 0
-65 -68 0
-65 -69 0
-65 -70 0
-66 -67 0
-66 -68 0
-66 -69 0
-66 -70 0
-67 -68 0
-67 -69 0
-67 -70 0
-68 -69 0
-68 -70 0
-69 -70 0
71 72 73 74 75 76 77 78 79 80 81 82 83 84 0
-71 -72 0
-71 -73 0
-71 -74 0
-71 -75 0
-71 -76 0
-71 -77 0
-71 -78 0
-71 -79 0
-71 -80 0
-71 -81 0
-71 -82 0
-71 -83 0
-71 -84 0
-72 -73 0
-72 -74 0
-72 -75 0
-72 -76 0
-72 -77 0
-72 -78 0
-72 -79 0
-72 -80 0
-72 -81 0
-72 -82 0
-72 -83 0
-72 -84 0
-73 -74 0
-73 -75 0
-73 -76 0
-73 -77 0
-73 -78 0
-73 -79 0
-73 -80 0
-73 -81 0
-73 -82 0
-73 -83 0
-73 -84 0
-74 -75 0
-74 -76 0
-74 -77 0
-74 -78 0
-74 -79 0
-74 -80 0
-74 -81 0
-74 -82 0
-74 -83 0
-74 -84 0
-75 -76 0
-75 -77 0
-75 -78 0
-75 -79 0
-75 -80 0
-75 -81 0
-75 -82 0
-75 -83 0
-75 -84 0
-76 -77 0
-76 -78 0
-76 -79 0
-76 -80 0
-76 -81 0
-76 -82 0
-76 -83 0
-76 -84 0
-77 -78 0
-77 -79 0
-77 -80 0
-77 -81 0
-77 -82 0
-77 -83 0
-77 -84 0
-78 -79 0
-78 -80 0
-78 -81 0
-78 -82 0
-78 -83 0
-78 -84 0
-79 -80 0
-79 -81 0
-79 -82 0
-79 -83 0
-79 -84 0
-80 -81 0
-80 -82 0
-80 -83 0
-80 -84 0
-81 -82 0
-81 -83 0
-81 -84 0
-82 -83 0
-82 -84 0
-83 -84 0
85 86 87 88 89 90 91 92 93 94 95 96 97 98 0
-85 -86 0
-85 -87 0
-85 -88 0
-85 -89 0
-85 -90 0
-85 -91 0
-85 -92 0
-85 -93 0
-85 -94 0
-85 -95 0
-85 -96 0
-85 -97 0
-85 -98 0
-86 -87 0
-86 -88 0
-86 -89 0
-86 -90 0
-86 -91 0
-86 -92 0
-86 -93 0
-86 -94 0
-86 -95 0
-86 -96 0
-86 -97 0
-86 -98 0
-87 -88 0
-87 -89 0
-87 -90 0
-87 -91 0
-87 -92 0
-87 -93 0
-87 -94 0
-87 -95 0
-87 -96 0
-87 -97 0
-87 -98 0
-88 -89 0
-88 -90 0
-88 -91 0
-88 -92 0
-88 -93 0
-88 -94 0
-88 -95 0
-88 -96 0
-88 -97 0
-88 -98 0
-89 -90 0
-89 -91 0
-89 -92 0
-89 -93 0
-89 -94 0
-89 -95 0
-89 -96 0
-89 -97 0
-89 -98 0
-90 -91 0
-90 -92 0
-90 -93 0
-90 -94 0
-90 -95 0
-90 -96 0
-90 -97 0
-90 -98 0
-91 -92 0
-91 -93 0
-91 -94 0
-91 -95 0
-91 -96 0
-91 -97 0
-91 -98 0
-92 -93 0
-92 -94 0
-92 -95 0
-92 -96 0
-92 -97 0
-92 -98 0
-93 -94 0
-93 -95 0
-93 -96 0
-93 -97 0
-93 -98 0
-94 -95 0
-94 -96 0
-94 -97 0
-94 -98 0
-95 -96 0
-95 -97 0
-95 -98 0
-96 -97 0
-96 -98 0
-97 -98 0
99 100 101 102 103 104 105 106 107 108 109 110 111 112 0
-99 -100 0
-99 -101 0
-99 -102 0
-99 -103 0
-99 -104 0
-99 -105 0
-99 -106 0
-99 -107 0
-99 -108 0
-99 -109 0
-99 -110 0
-99 -111 0
-99 -112 0
-100 -101 0
-100 -102 0
-100 -103 0
-100 -104 0
-100 -105 0
-100 -106 0
-100 -107 0
-100 -108 0
-100 -109 0
-100 -110 0
-100 -111 0
-100 -112 0
-101 -102 0
-101 -103 0
-101 -104 0
-101 -105 0
-101 -106 0
-101 -107 0
-101 -108 0
-101 -109 0
-101 -110 0
-101 -111 0
-101 -112 0
-102 -103 0
-102 -104 0
-102 -105 0
-102 -106 0
-102 -107 0
-102 -108 0
-102 -109 0
-102 -110 0
-102 -111 0
-102 -112 0
-103 -104 0
-103 -105 0
-103 -106 0
-103 -107 0
-103 -108 0
-103 -109 0
-103 -110 0
-103 -111 0
-103 -112 0
-104 -105 0
-104 -106 0
-104 -107 0
-104 -108 0
-104 -109 0
-104 -110 0
-104 -111 0
-104 -112 0
-105 -106 0
-105 -107 0
-105 -108 0
-105 -109 0
-105 -110 0
-105 -111 0
-105 -112 0
-106 -107 0
-106 -108 0
-106 -109 0
-106 -110 0
-106 -111 0
-106 -112 0
-107 -108 0
-107 -109 0
-107 -110 0
-107 -111 0
-107 -112 0
-108 -109 0
-108 -110 0
-108 -111 0
-108 -112 0
-109 -110 0
-109 -111 0
-109 -112 0
-110 -111 0
-110 -112 0
-111 -112 0
113 114 115 116 117 118 119 120 121 122 123 124 125 126 0
-113 -114 0
-113 -115 0
-113 -116 0
-113 -117 0
-113 -118 0
-113 -119 0
-113 -120 0
-113 -121 0
-113 -122 0
-113 -123 0
-113 -124 0
-113 -125 0
-113 -126 0
-114 -115 0
-114 -116 0
-114 -117 0
-114 -118 0
-114 -119 0
-114 -120 0
-114 -121 0
-114 -122 0
-114 -123 0
-114 -124 0
-114 -125 0
-114 -126 0
-115 -116 0
-115 -117 0
-115 -118 0
-115 -119 0
-115 -120 0
-115 -121 0
-115 -122 0
-115 -123 0
-115 -124 0
-115 -125 0
-115 -126 0
-116 -117 0
-116 -118 0
-116 -119 0
-116 -120 0
-116 -121 0
-116 -122 0
-116 -123 0
-116 -124 0
-116 -125 0
-116 -126 0
-117 -118 0
-117 -119 0
-117 -120 0
-117 -121 0
-117 -122 0
-117 -123 0
-117 -124 0
-117 -125 0
-117 -126 0
-118 -119 0
-118 -120 0
-118 -121 0
-118 -122 0
-118 -123 0
-118 -124 0
-118 -125 0
-118 -126 0
-119 -120 0
-119 -121 0
-119 -122 0
-119 -123 0
-119 -124 0
-119 -125 0
-119 -126 0
-120 -121 0
-120 -122 0
-120 -123 0
-120 -124 0
-120 -125 0
-120 -126 0
-121 -122 0
-121 -123 0
-121 -124 0
-121 -125 0
-121 -126 0
-122 -123 0
-122 -124 0
-122 -125 0
-122 -126 0
-123 -124 0
-123 -125 0
-123 -126 0
-124 -125 0
-124 -126 0
-125 -126 0
127 128 129 130 131 132 133 134 135 136 137 138 139 140 0
-127 -128 0
-127 -129 0
-127 -130 0
-127 -131 0
-127 -132 0
-127 -133 0
-127 -134 0
-127 -135 0
-127 -136 0
-127 -137 0
-127 -138 0
-127 -139 0
-127 -140 0
-128 -129 0
-128 -130 0
-128 -131 0
-128 -132 0
-128 -133 0
-128 -134 0
-128 -135 0
-128 -136 0
-128 -137 0
-128 -138 0
-128 -139 0
-128 -140 0
-129 -130 0
-129 -131 0
-129 -132 0
-129 -133 0
-129 -134 0
-129 -135 0
-129 -136 0
-129 -137 0
-129 -138 0
-129 -139 0
-129 -140 0
-130 -131 0
-130 -132 0
-130 -133 0
-130 -134 0
-130 -135 0
-130 -136 0
-130 -137 0
-130 -138 0
-130 -139 0
-130 -140 0
-131 -132 0
-131 -133 0
-131 -134 0
-131 -135 0
-131 -136 0
-131 -137 0
-131 -138 0
-131 -139 0
-131 -140 0
-132 -133 0
-132 -134 0
-132 -135 0
-132 -136 0
-132 -137 0
-132 -138 0
-132 -139 0
-132 -140 0
-133 -134 0
-133 -135 0
-133 -136 0
-133 -137 0
-133 -138 0
-133 -139 0
-133 -140 0
-134 -135 0
-134 -136 0
-134 -137 0
-134 -138 0
-134 -139 0
-134 -140 0
-135 -136 0
-135 -137 0
-135 -138 0
-135 -139 0
-135 -140 0
-136 -137 0
-136 -138 0
-136 -139 0
-136 -140 0
-137 -138 0
-137 -139 0
-137 -140 0
-138 -139 0
-138 -140 0
-139 -140 0
141 142 143 144 145 146 147 148 149 150 151 152 153 154 0
-141 -142 0
-141 -143 0
-141 -144 0
-141 -145 0
-141 -146 0
-141 -147 0
-141 -148 0
-141 -149 0
-141 -150 0
-141 -151 0
-141 -152 0
-141 -153 0
-141 -154 0
-142 -143 0
-142 -144 0
-142 -145 0
-142 -146 0
-142 -147 0
-142 -148 0
-142 -149 0
-142 -150 0
-142 -151 0
-142 -152 0
-142 -153 0
-142 -154 0
-143 -144 0
-143 -145 0
-143 -146 0
-143 -147 0
-143 -148 0
-143 -149 0
-143 -150 0
-143 -151 0
-143 -152 0
-143 -153 0
-143 -154 0
-144 -145 0
-144 -146 0
-144 -147 0
-144 -148 0
-144 -149 0
-144 -150 0
-144 -151 0
-144 -152 0
-144 -153 0
-144 -154 0
-145 -146 0
-145 -147 0
-145 -148 0
-145 -149 0
-145 -150 0
-145 -151 0
-145 -152 0
-145 -153 0
-145 -154 0
-146 -147 0
-146 -148 0
-146 -149 0
-146 -150 0
-146 -151 0
-146 -152 0
-146 -153 0
-146 -154 0
-147 -148 0
-147 -149 0
-147 -150 0
-147 -151 0
-147 -152 0
-147 -153 0
-147 -154 0
-148 -149 0
-148 -150 0
-148 -151 0
-148 -152 0
-148 -153 0
-148 -154 0
-149 -150 0
-149 -151 0
-149 -152 0
-149 -153 0
-149 -154 0
-150 -151 0
-150 -152 0
-150 -153 0
-150 -154 0
-151 -152 0
-151 -153 0
-151 -154 0
-152 -153 0
-152 -154 0
-153 -154 0
155 156 157 158 159 160 161 162 163 164 165 166 167 168 0
-155 -156 0
-155 -157 0
-155 -158 0
-155 -159 0
-155 -160 0
-155 -161 0
-155 -162 0
-155 -163 0
-155 -164 0
-155 -165 0
-155 -166 0
-155 -167 0
-155 -168 0
-156 -157 0
-156 -158 0
-156 -159 0
-156 -160 0
-156 -161 0
-156 -162 0
-156 -163 0
-156 -164 0
-156 -165 0
-156 -166 0
-156 -167 0
-156 -168 0
-157 -158 0
-157 -159 0
-157 -160 0
-157 -161 0
-157 -162 0
-157 -163 0
-157 -164 0
-157 -165 0
-157 -166 0
-157 -167 0
-157 -168 0
-158 -159 0
-158 -160 0
-158 -161 0
-158 -162 0
-158 -163 0
-158 -164 0
-158 -165 0
-158 -166 0
-158 -167 0
-158 -168 0
-159 -160 0
-159 -161 0
-159 -162 0
-159 -163 0
-159 -164 0
-159 -165 0
-159 -166 0
-159 -167 0
-159 -168 0
-160 -161 0
-160 -162 0
-160 -163 0
-160 -164 0
-160 -165 0
-160 -166 0
-160 -167 0
-160 -168 0
-161 -162 0
-161 -163 0
-161 -164 0
-161 -165 0
-161 -166 0
-161 -167 0
-161 -168 0
-162 -163 0
-162 -164 0
-162 -165 0
-162 -166 0
-162 -167 0
-162 -168 0
-163 -164 0
-163 -165 0
-163 -166 0
-163 -167 0
-163 -168 0
-164 -165 0
-164 -166 0
-164 -167 0
-164 -168 0
-165 -166 0
-165 -167 0
-165 -168 0
-166 -167 0
-166 -168 0
-167 -168 0
169 170 171 172 173 174 175 176 177 178 179 180 181 182 0
-169 -170 0
-169 -171 0
-169 -172 0
-169 -173 0
-169 -174 0
-169 -175 0
-169 -176 0
-169 -177 0
-169 -178 0
-169 -179 0
-169 -180 0
-169 -181 0
-169 -182 0
-170 -171 0
-170 -172 0
-170 -173 0
-170 -174 0
-170 -175 0
-170 -176 0
-170 -177 0
-170 -178 0
-170 -179 0
-170 -180 0
-170 -181 0
-170 -182 0
-171 -172 0
-171 -173 0
-171 -174 0
-171 -175 0
-171 -176 0
-171 -177 0
-171 -178 0
-171 -179 0
-171 -180 0
-171 -181 0
-171 -182 0
-172 -173 0
-172 -174 0
-172 -175 0
-172 -176 0
-172 -177 0
-172 -178 0
-172 -179 0
-172 -180 0
-172 -181 0
-172 -182 0
-173 -174 0
-173 -175 0
-173 -176 0
-173 -177 0
-173 -178 0
-173 -179 0
-173 -180 0
-173 -181 0
-173 -182 0
-174 -175 0
-174 -176 0
-174 -177 0
-174 -178 0
-174 -179 0
-174 -180 0
-174 -181 0
-174 -182 0
-175 -176 0
-175 -177 0
-175 -178 0
-175 -179 0
-175 -180 0
-175 -181 0
-175 -182 0
-176 -177 0
-176 -178 0
-176 -179 0
-176 -180 0
-176 -181 0
-176 -182 0
-177 -178 0
-177 -179 0
-177 -180 0
-177 -181 0
-177 -182 0
-178 -179 0
-178 -180 0
-178 -181 0
-178 -182 0
-179 -180 0
-179 -181 0
-179 -182 0
-180 -181 0
-180 -182 0
-181 -182 0
183 184 185 186 187 188 189 190 191 192 193 194 195 196 0
-183 -184 0
-183 -185 0
-183 -186 0
-183 -187 0
-183 -188 0
-183 -189 0
-183 -190 0
-183 -191 0
-183 -192 0
-183 -193 0
-183 -194 0
-183 -195 0
-183 -196 0
-184 -185 0
-184 -186 0
-184 -187 0
-184 -188 0
-184 -189 0
-184 -190 0
-184 -191 0
-184 -192 0
-184 -193 0
-184 -194 0
-184 -195 0
-184 -196 0
-185 -186 0
-185 -187 0
-185 -188 0
-185 -189 0
-185 -190 0
-185 -191 0
-185 -192 0
-185 -193 0
-185 -194 0
-185 -195 0
-185 -196 0
-186 -187 0
-186 -188 0
-186 -189 0
-186 -190 0
-186 -191 0
-186 -192 0
-186 -193 0
-186 -194 0
-186 -195 0
-186 -196 0
-187 -188 0
-187 -189 0
-187 -190 0
-187 -191 0
-187 -192 0
-187 -193 0
-187 -194 0
-187 -195 0
-187 -196 0
-188 -189 0
-188 -190 0
-188 -191 0
-188 -192 0
-188 -193 0
-188 -194 0
-188 -195 0
-188 -196 0
-189 -190 0
-189 -191 0
-189 -192 0
-189 -193 0
-189 -194 0
-189 -195 0
-189 -196 0
-190 -191 0
-190 -192 0
-190 -193 0
-190 -194 0
-190 -195 0
-190 -196 0
-191 -192 0
-191 -193 0
-191 -194 0
-191 -195 0
-191 -196 0
-192 -193 0
-192 -194 0
-192 -195 0
-192 -196 0
-193 -194 0
-193 -195 0
-193 -196 0
-194 -195 0
-194 -196 0
-195 -196 0
197 198 199 200 201 202 203 204 205 206 207 208 209 210 0
-197 -198 0
-197 -199 0
-197 -200 0
-197 -201 0
-197 -202 0
-197 -203 0
-197 -204 0
-197 -205 0
-197 -206 0
-197 -207 0
-197 -208 0
-197 -209 0
-197 -210 0
-198 -199 0
-198 -200 0
-198 -201 0
-198 -202 0
-198 -203 0
-198 -204 0
-198 -205 0
-198 -206 0
-198 -207 0
-198 -208 0
-198 -209 0
-198 -210 0
-199 -200 0
-199 -201 0
-199 -202 0
-199 -203 0
-199 -204 0
-199 -205 0
-199 -206 0
-199 -207 0
-199 -208 0
-199 -209 0
-199 -210 0
-200 -201 0
-200 -202 0
-200 -203 0
-200 -204 0
-200 -205 0
-200 -206 0
-200 -207 0
-200 -208 0
-200 -209 0
-200 -210 0
-201 -202 0
-201 -203 0
-201 -204 0
-201 -205 0
-201 -206 0
-201 -207 0
-201 -208 0
-201 -209 0
-201 -210 0
-202 -203 0
-202 -204 0
-202 -205 0
-202 -206 0
-202 -207 0
-202 -208 0
-202 -209 0
-202 -210 0
-203 -204 0
-203 -205 0
-203 -206 0
-203 -207 0
-203 -208 0
-203 -209 0
-203 -210 0
-204 -205 0
-204 -206 0
-204 -207 0
-204 -208 0
-204 -209 0
-204 -210 0
-205 -206 0
-205 -207 0
-205 -208 0
-205 -209 0
-205 -210 0
-206 -207 0
-206 -208 0
-206 -209 0
-206 -210 0
-207 -208 0
-207 -209 0
-207 -210 0
-208 -209 0
-208 -210 0
-209 -210 0
211 212 213 214 215 216 217 218 219 220 221 222 223 224 0
-211 -212 0
-211 -213 0
-211 -214 0
-211 -215 0
-211 -216 0
-211 -217 0
-211 -218 0
-211 -219 0
-211 -220 0
-211 -221 0
-211 -222 0
-211 -223 0
-211 -224 0
-212 -213 0
-212 -214 0
-212 -215 0
-212 -216 0
-212 -217 0
-212 -218 0
-212 -219 0
-212 -220 0
-212 -221 0
-212 -222 0
-212 -223 0
-212 -224 0
-213 -214 0
-213 -215 0
-213 -216 0
-213 -217 0
-213 -218 0
-213 -219 0
-213 -220 0
-213 -221 0
-213 -222 0
-213 -223 0
-213 -224 0
-214 -215 0
-214 -216 0
-214 -217 0
-214 -218 0
-214 -219 0
-214 -220 0
-214 -221 0
-214 -222 0
-214 -223 0
-214 -224 0
-215 -216 0
-215 -217 0
-215 -218 0
-215 -219 0
-215 -220 0
-215 -221 0
-215 -222 0
-215 -223 0
-215 -224 0
-216 -217 0
-216 -218 0
-216 -219 0
-216 -220 0
-216 -221 0
-216 -222 0
-216 -223 0
-216 -224 0
-217 -218 0
-217 -219 0
-217 -220 0
-217 -221 0
-217 -222 0
-217 -223 0
-217 -224 0
-218 -219 0
-218 -220 0
-218 -221 0
-218 -222 0
-218 -223 0
-218 -224 0
-219 -220 0
-219 -221 0
-219 -222 0
-219 -223 0
-219 -224 0
-220 -221 0
-220 -222 0
-220 -223 0
-220 -224 0
-221 -222 0
-221 -223 0
-221 -224 0
-222 -223 0
-222 -224 0
-223 -224 0
225 226 227 228 229 230 231 232 233 234 235 236 237 238 0
-225 -226 0
-225 -227 0
-225 -228 0
-225 -229 0
-225 -230 0
-225 -231 0
-225 -232 0
-225 -233 0
-225 -234 0
-225 -235 0
-225 -236 0
-225 -237 0
-225 -238 0
-226 -227 0
-226 -228 0
-226 -229 0
-226 -230 0
-226 -231 0
-226 -232 0
-226 -233 0
-226 -234 0
-226 -235 0
-226 -236 0
-226 -237 0
-226 -238 0
-227 -228 0
-227 -229 0
-227 -230 0
-227 -231 0
-227 -232 0
-227 -233 0
-227 -234 0
-227 -235 0
-227 -236 0
-227 -237 0
-227 -238 0
-228 -229 0
-228 -230 0
-228 -231 0
-228 -232 0
-228 -233 0
-228 -234 0
-228 -235 0
-228 -236 0
-228 -237 0
-228 -238 0
-229 -230 0
-229 -231 0
-229 -232 0
-229 -233 0
-229 -234 0
-229 -235 0
-229 -236 0
-229 -237 0
-229 -238 0
-230 -231 0
-230 -232 0
-230 -233 0
-230 -234 0
-230 -235 0
-230 -236 0
-230 -237 0
-230 -238 0
-231 -232 0
-231 -233 0
-231 -234 0
-231 -235 0
-231 -236 0
-231 -237 0
-231 -238 0
-232 -233 0
-232 -234 0
-232 -235 0
-232 -236 0
-232 -237 0
-232 -238 0
-233 -234 0
-233 -235 0
-233 -236 0
-233 -237 0
-233 -238 0
-234 -235 0
-234 -236 0
-234 -237 0
-234 -238 0
-235 -236 0
-235 -237 0
-235 -238 0
-236 -237 0
-236 -238 0
-237 -238 0
239 240 241 242 243 244 245 246 247 248 249 250 251 252 0
-239 -240 0
-239 -241 0
-239 -242 0
-239 -243 0
-239 -244 0
-239 -245 0
-239 -246 0
-239 -247 0
-239 -248 0
-239 -249 0
-239 -250 0
-239 -251 0
-239 -252 0
-240 -241 0
-240 -242 0
-240 -243 0
-240 -244 0
-240 -245 0
-240 -246 0
-240 -247 0
-240 -248 0
-240 -249 0
-240 -250 0
-240 -251 0
-240 -252 0
-241 -242 0
-241 -243 0
-241 -244 0
-241 -245 0
-241 -246 0
-241 -247 0
-241 -248 0
-241 -249 0
-241 -250 0
-241 -251 0
-241 -252 0
-242 -243 0
-242 -244 0
-242 -245 0
-242 -246 0
-242 -247 0
-242 -248 0
-242 -249 0
-242 -250 0
-242 -251 0
-242 -252 0
-243 -244 0
-243 -245 0
-243 -246 0
-243 -247 0
-243 -248 0
-243 -249 0
-243 -250 0
-243 -251 0
-243 -252 0
-244 -245 0
-244 -246 0
-244 -247 0
-244 -248 0
-244 -249 0
-244 -250 0
-244 -251 0
-244 -252 0
-245 -246 0
-245 -247 0
-245 -248 0
-245 -249 0
-245 -250 0
-245 -251 0
-245 -252 0
-246 -247 0
-246 -248 0
-246 -249 0
-246 -250 0
-246 -251 0
-246 -252 0
-247 -248 0
-247 -249 0
-247 -250 0
-247 -251 0
-247 -252 0
-248 -249 0
-248 -250 0
-248 -251 0
-248 -252 0
-249 -250 0
-249 -251 0
-249 -252 0
-250 -251 0
-250 -252 0
-251 -252 0
253 254 255 256 257 258 259 260 261 262 263 264 265 266 0
-253 -254 0
-253 -255 0
-253 -256 0
-253 -257 0
-253 -258 0
-253 -259 0
-253 -260 0
-253 -261 0
-253 -262 0
-253 -263 0
-253 -264 0
-253 -265 0
-253 -266 0
-254 -255 0
-254 -256 0
-254 -257 0
-254 -258 0
-254 -259 0
-254 -260 0
-254 -261 0
-254 -262 0
-254 -263 0
-254 -264 0
-254 -265 0
-254 -266 0
-255 -256 0
-255 -257 0
-255 -258 0
-255 -259 0
-255 -260 0
-255 -261 0
-255 -262 0
-255 -263 0
-255 -264 0
-255 -265 0
-255 -266 0
-256 -257 0
-256 -258 0
-256 -259 0
-256 -260 0
-256 -261 0
-256 -262 0
-256 -263 0
-256 -264 0
-256 -265 0
-256 -266 0
-257 -258 0
-257 -259 0
-257 -260 0
-257 -261 0
-257 -262 0
-257 -263 0
-257 -264 0
-257 -265 0
-257 -266 0
-258 -259 0
-258 -260 0
-258 -261 0
-258 -262 0
-258 -263 0
-258 -264 0
-258 -265 0
-258 -266 0
-259 -260 0
-259 -261 0
-259 -262 0
-259 -263 0
-259 -264 0
-259 -265 0
-259 -266 0
-260 -261 0
-260 -262 0
-260 -263 0
-260 -264 0
-260 -265 0
-260 -266 0
-261 -262 0
-261 -263 0
-261 -264 0
-261 -265 0
-261 -266 0
-262 -263 0
-262 -264 0
-262 -265 0
-262 -266 0
-263 -264 0
-263 -265 0
-263 -266 0
-264 -265 0
-264 -266 0
-265 -266 0
267 268 269 270 271 272 273 274 275 276 277 278 279 280 0
-267 -268 0
-267 -269 0
-267 -270 0
-267 -271 0
-267 -272 0
-267 -273 0
-267 -274 0
-267 -275 0
-267 -276 0
-267 -277 0
-267 -278 0
-267 -279 0
-267 -280 0
-268 -269 0
-268 -270 0
-268 -271 0
-268 -272 0
-268 -273 0
-268 -274 0
-268 -275 0
-268 -276 0
-268 -277 0
-268 -278 0
-268 -279 0
-268 -280 0
-269 -270 0
-269 -271 0
-269 -272 0
-269 -273 0
-269 -274 0
-269 -275 0
-269 -276 0
-269 -277 0
-269 -278 0
-269 -279 0
-269 -280 0
-270 -271 0
-270 -272 0
-270 -273 0
-270 -274 0
-270 -275 0
-270 -276 0
-270 -277 0
-270 -278 0
-270 -279 0
-270 -280 0
-271 -272 0
-271 -273 0
-271 -274 0
-271 -275 0
-271 -276 0
-271 -277 0
-271 -278 0
-271 -279 0
-271 -280 0
-272 -273 0
-272 -274 0
-272 -275 0
-272 -276 0
-272 -277 0
-272 -278 0
-272 -279 0
-272 -280 0
-273 -274 0
-273 -275 0
-273 -276 0
-273 -277 0
-273 -278 0
-273 -279 0
-273 -280 0
-274 -275 0
-274 -276 0
-274 -277 0
-274 -278 0
-274 -279 0
-274 -280 0
-275 -276 0
-275 -277 0
-275 -278 0
-275 -279 0
-275 -280 0
-276 -277 0
-276 -278 0
-276 -279 0
-276 -280 0
-277 -278 0
-277 -279 0
-277 -280 0
-278 -279 0
-278 -280 0
-279 -280 0
281 282 283 284 285 286 287 288 289 290 291 292 293 294 0
-281 -282 0
-281 -283 0
-281 -284 0
-281 -285 0
-281 -286 0
-281 -287 0
-281 -288 0
-281 -289 0
-281 -290 0
-281 -291 0
-281 -292 0
-281 -293 0
-281 -294 0
-282 -283 0
-282 -284 0
-282 -285 0
-282 -286 0
-282 -287 0
-282 -288 0
-282 -289 0
-282 -290 0
-282 -291 0
-282 -292 0
-282 -293 0
-282 -294 0
-283 -284 0
-283 -285 0
-283 -286 0
-283 -287 0
-283 -288 0
-283 -289 0
-283 -290 0
-283 -291 0
-283 -292 0
-283 -293 0
-283 -294 0
-284 -285 0
-284 -286 0
-284 -287 0
-284 -288 0
-284 -289 0
-284 -290 0
-284 -291 0
-284 -292 0
-284 -293 0
-284 -294 0
-285 -286 0
-285 -287 0
-285 -288 0
-285 -289 0
-285 -290 0
-285 -291 0
-285 -292 0
-285 -293 0
-285 -294 0
-286 -287 0
-286 -288 0
-286 -289 0
-286 -290 0
-286 -291 0
-286 -292 0
-286 -293 0
-286 -294 0
-287 -288 0
-287 -289 0
-287 -290 0
-287 -291 0
-287 -292 0
-287 -293 0
-287 -294 0
-288 -289 0
-288 -290 0
-288 -291 0
-288 -292 0
-288 -293 0
-288 -294 0
-289 -290 0
-289 -291 0
-289 -292 0
-289 -293 0
-289 -294 0
-290 -291 0
-290 -292 0
-290 -293 0
-290 -294 0
-291 -292 0
-291 -293 0
-291 -294 0
-292 -293 0
-292 -294 0
-293 -294 0
295 296 297 298 299 300 301 302 303 304 305 306 307 308 0
-295 -296 0
-295 -297 0
-295 -298 0
-295 -299 0
-295 -300 0
-295 -301 0
-295 -302 0
-295 -303 0
-295 -304 0
-295 -305 0
-295 -306 0
-295 -307 0
-295 -308 0
-296 -297 0
-296 -298 0
-296 -299 0
-296 -300 0
-296 -301 0
-296 -302 0
-296 -303 0
-296 -304 0
-296 -305 0
-296 -306 0
-296 -307 0
-296 -308 0
-297 -298 0
-297 -299 0
-297 -300 0
-297 -301 0
-297 -302 0
-297 -303 0
-297 -304 0
-297 -305 0
-297 -306 0
-297 -307 0
-297 -308 0
-298 -299 0
-298 -300 0
-298 -301 0
-298 -302 0
-298 -303 0
-298 -304 0
-298 -305 0
-298 -306 0
-298 -307 0
-298 -308 0
-299 -300 0
-299 -301 0
-299 -302 0
-299 -303 0
-299 -304 0
-299 -305 0
-299 -306 0
-299 -307 0
-299 -308 0
-300 -301 0
-300 -302 0
-300 -303 0
-300 -304 0
-300 -305 0
-300 -306 0
-300 -307 0
-300 -308 0
-301 -302 0
-301 -303 0
-301 -304 0
-301 -305 0
-301 -306 0
-301 -307 0
-301 -308 0
-302 -303 0
-302 -304 0
-302 -305 0
-302 -306 0
-302 -307 0
-302 -308 0
-303 -304 0
-303 -305 0
-303 -306 0
-303 -307 0
-303 -308 0
-304 -305 0
-304 -306 0
-304 -307 0
-304 -308 0
-305 -306 0
-305 -307 0
-305 -308 0
-306 -307 0
-306 -308 0
-307 -308 0
309 310 311 312 313 314 315 316 317 318 319 320 321 322 0
-309 -310 0
-309 -311 0
-309 -312 0
-309 -313 0
-309 -314 0
-309 -315 0
-309 -316 0
-309 -317 0
-309 -318 0
-309 -319 0
-309 -320 0
-309 -321 0
-309 -322 0
-310 -311 0
-310 -312 0
-310 -313 0
-310 -314 0
-310 -315 0
-310 -316 0
-310 -317 0
-310 -318 0
-310 -319 0
-310 -320 0
-310 -321 0
-310 -322 0
-311 -312 0
-311 -313 0
-311 -314 0
-311 -315 0
-311 -316 0
-311 -317 0
-311 -318 0
-311 -319 0
-311 -320 0
-311 -321 0
-311 -322 0
-312 -313 0
-312 -314 0
-312 -315 0
-312 -316 0
-312 -317 0
-312 -318 0
-312 -319 0
-312 -320 0
-312 -321 0
-312 -322 0
-313 -314 0
-313 -315 0
-313 -316 0
-313 -317 0
-313 -318 0
-313 -319 0
-313 -320 0
-313 -321 0
-313 -322 0
-314 -315 0
-314 -316 0
-314 -317 0
-314 -318 0
-314 -319 0
-314 -320 0
-314 -321 0
-314 -322 0
-315 -316 0
-315 -317 0
-315 -318 0
-315 -319 0
-315 -320 0
-315 -321 0
-315 -322 0
-316 -317 0
-316 -318 0
-316 -319 0
-316 -320 0
-316 -321 0
-316 -322 0
-317 -318 0
-317 -319 0
-317 -320 0
-317 -321 0
-317 -322 0
-318 -319 0
-318 -320 0
-318 -321 0
-318 -322 0
-319 -320 0
-319 -321 0
-319 -322 0
-320 -321 0
-320 -322 0
-321 -322 0
323 324 325 326 327 328 329 330 331 332 333 334 335 336 0
-323 -324 0
-323 -325 0
-323 -326 0
-323 -327 0
-323 -328 0
-323 -329 0
-323 -330 0
-323 -331 0
-323 -332 0
-323 -333 0
-323 -334 0
-323 -335 0
-323 -336 0
-324 -325 0
-324 -326 0
-324 -327 0
-324 -328 0
-324 -329 0
-324 -330 0
-324 -331 0
-324 -332 0
-324 -333 0
-324 -334 0
-324 -335 0
-324 -336 0
-325 -326 0
-325 -327 0
-325 -328 0
-325 -329 0
-325 -330 0
-325 -331 0
-325 -332 0
-325 -333 0
-325 -334 0
-325 -335 0
-325 -336 0
-326 -327 0
-326 -328 0
-326 -329 0
-326 -330 0
-326 -331 0
-326 -332 0
-326 -333 0
-326 -334 0
-326 -335 0
-326 -336 0
-327 -328 0
-327 -329 0
-327 -330 0
-327 -331 0
-327 -332 0
-327 -333 0
-327 -334 0
-327 -335 0
-327 -336 0
-328 -329 0
-328 -330 0
-328 -331 0
-328 -332 0
-328 -333 0
-328 -334 0
-328 -335 0
-328 -336 0
-329 -330 0
-329 -331 0
-329 -332 0
-329 -333 0
-329 -334 0
-329 -335 0
-329 -336 0
-330 -331 0
-330 -332 0
-330 -333 0
-330 -334 0
-330 -335 0
-330 -336 0
-331 -332 0
-331 -333 0
-331 -334 0
-331 -335 0
-331 -336 0
-332 -333 0
-332 -334 0
-332 -335 0
-332 -336 0
-333 -334 0
-333 -335 0
-333 -336 0
-334 -335 0
-334 -336 0
-335 -336 0
337 338 339 340 341 342 343 344 345 346 347 348 349 350 0
-337 -338 0
-337 -339 0
-337 -340 0
-337 -341 0
-337 -342 0
-337 -343 0
-337 -344 0
-337 -345 0
-337 -346 0
-337 -347 0
-337 -348 0
-337 -349 0
-337 -350 0
-338 -339 0
-338 -340 0
-338 -341 0
-338 -342 0
-338 -343 0
-338 -344 0
-338 -345 0
-338 -346 0
-338 -347 0
-338 -348 0
-338 -349 0
-338 -350 0
-339 -340 0
-339 -341 0
-339 -342 0
-339 -343 0
-339 -344 0
-339 -345 0
-339 -346 0
-339 -347 0
-339 -348 0
-339 -349 0
-339 -350 0
-340 -341 0
-340 -342 0
-340 -343 0
-340 -344 0
-340 -345 0
-340 -346 0
-340 -347 0
-340 -348 0
-340 -349 0
-340 -350 0
-341 -342 0
-341 -343 0
-341 -344 0
-341 -345 0
-341 -346 0
-341 -347 0
-341 -348 0
-341 -349 0
-341 -350 0
-342 -343 0
-342 -344 0
-342 -345 0
-342 -346 0
-342 -347 0
-342 -348 0
-342 -349 0
-342 -350 0
-343 -344 0
-343 -345 0
-343 -346 0
-343 -347 0
-343 -348 0
-343 -349 0
-343 -350 0
-344 -345 0
-344 -346 0
-344 -347 0
-344 -348 0
-344 -349 0
-344 -350 0
-345 -346 0
-345 -347 0
-345 -348 0
-345 -349 0
-345 -350 0
-346 -347 0
-346 -348 0
-346 -349 0
-346 -350 0
-347 -348 0
-347 -349 0
-347 -350 0
-348 -349 0
-348 -350 0
-349 -350 0
351 352 353 354 355 356 357 358 359 360 361 362 363 364 0
-351 -352 0
-351 -353 0
-351 -354 0
-351 -355 0
-351 -356 0
-351 -357 0
-351 -358 0
-351 -359 0
-351 -360 0
-351 -361 0
-351 -362 0
-351 -363 0
-351 -364 0
-352 -353 0
-352 -354 0
-352 -355 0
-352 -356 0
-352 -357 0
-352 -358 0
-352 -359 0
-352 -360 0
-352 -361 0
-352 -362 0
-352 -363 0
-352 -364 0
-353 -354 0
-353 -355 0
-353 -356 0
-353 -357 0
-353 -358 0
-353 -359 0
-353 -360 0
-353 -361 0
-353 -362 0
-353 -363 0
-353 -364 0
-354 -355 0
-354 -356 0
-354 -357 0
-354 -358 0
-354 -359 0
-354 -360 0
-354 -361 0
-354 -362 0
-354 -363 0
-354 -364 0
-355 -356 0
-355 -357 0
-355 -358 0
-355 -359 0
-355 -360 0
-355 -361 0
-355 -362 0
-355 -363 0
-355 -364 0
-356 -357 0
-356 -358 0
-356 -359 0
-356 -360 0
-356 -361 0
-356 -362 0
-356 -363 0
-356 -364 0
-357 -358 0
-357 -359 0
-357 -360 0
-357 -361 0
-357 -362 0
-357 -363 0
-357 -364 0
-358 -359 0
-358 -360 0
-358 -361 0
-358 -362 0
-358 -363 0
-358 -364 0
-359 -360 0
-359 -361 0
-359 -362 0
-359 -363 0
-359 -364 0
-360 -361 0
-360 -362 0
-360 -363 0
-360 -364 0
-361 -362 0
-361 -363 0
-361 -364 0
-362 -363 0
-362 -364 0
-363 -364 0
365 366 367 368 369 370 371 372 373 374 375 376 377 378 0
-365 -366 0
-365 -367 0
-365 -368 0
-365 -369 0
-365 -370 0
-365 -371 0
-365 -372 0
-365 -373 0
-365 -374 0
-365 -375 0
-365 -376 0
-365 -377 0
-365 -378 0
-366 -367 0
-366 -368 0
-366 -369 0
-366 -370 0
-366 -371 0
-366 -372 0
-366 -373 0
-366 -374 0
-366 -375 0
-366 -376 0
-366 -377 0
-366 -378 0
-367 -368 0
-367 -369 0
-367 -370 0
-367 -371 0
-367 -372 0
-367 -373 0
-367 -374 0
-367 -375 0
-367 -376 0
-367 -377 0
-367 -378 0
-368 -369 0
-368 -370 0
-368 -371 0
-368 -372 0
-368 -373 0
-368 -374 0
-368 -375 0
-368 -376 0
-368 -377 0
-368 -378 0
-369 -370 0
-369 -371 0
-369 -372 0
-369 -373 0
-369 -374 0
-369 -375 0
-369 -376 0
-369 -377 0
-369 -378 0
-370 -371 0
-370 -372 0
-370 -373 0
-370 -374 0
-370 -375 0
-370 -376 0
-370 -377 0
-370 -378 0
-371 -372 0
-371 -373 0
-371 -374 0
-371 -375 0
-371 -376 0
-371 -377 0
-371 -378 0
-372 -373 0
-372 -374 0
-372 -375 0
-372 -376 0
-372 -377 0
-372 -378 0
-373 -374 0
-373 -375 0
-373 -376 0
-373 -377 0
-373 -378 0
-374 -375 0
-374 -376 0
-374 -377 0
-374 -378 0
-375 -376 0
-375 -377 0
-375 -378 0
-376 -377 0
-376 -378 0
-377 -378 0
379 380 381 382 383 384 385 386 387 388 389 390 391 392 0
-379 -380 0
-379 -381 0
-379 -382 0
-379 -383 0
-379 -384 0
-379 -385 0
-379 -386 0
-379 -387 0
-379 -388 0
-379 -389 0
-379 -390 0
-379 -391 0
-379 -392 0
-380 -381 0
-380 -382 0
-380 -383 0
-380 -384 0
-380 -385 0
-380 -386 0
-380 -387 0
-380 -388 0
-380 -389 0
-380 -390 0
-380 -391 0
-380 -392 0
-381 -382 0
-381 -383 0
-381 -384 0
-381 -385 0
-381 -386 0
-381 -387 0
-381 -388 0
-381 -389 0
-381 -390 0
-381 -391 0
-381 -392 0
-382 -383 0
-382 -384 0
-382 -385 0
-382 -386 0
-382 -387 0
-382 -388 0
-382 -389 0
-382 -390 0
-382 -391 0
-382 -392 0
-383 -384 0
-383 -385 0
-383 -386 0
-383 -387 0
-383 -388 0
-383 -389 0
-383 -390 0
-383 -391 0
-383 -392 0
-384 -385 0
-384 -386 0
-384 -387 0
-384 -388 0
-384 -389 0
-384 -390 0
-384 -391 0
-384 -392 0
-385 -386 0
-385 -387 0
-385 -388 0
-385 -389 0
-385 -390 0
-385 -391 0
-385 -392 0
-386 -387 0
-386 -388 0
-386 -389 0
-386 -390 0
-386 -391 0
-386 -392 0
-387 -388 0
-387 -389 0
-387 -390 0
-387 -391 0
-387 -392 0
-388 -389 0
-388 -390 0
-388 -391 0
-388 -392 0
-389 -390 0
-389 -391 0
-389 -392 0
-390 -391 0
-390 -392 0
-391 -392 0
393 394 395 396 397 398 399 400 401 402 403 404 405 406 0
-393 -394 0
-393 -395 0
-393 -396 0
-393 -397 0
-393 -398 0
-393 -399 0
-393 -400 0
-393 -401 0
-393 -402 0
-393 -403 0
-393 -404 0
-393 -405 0
-393 -406 0
-394 -395 0
-394 -396 0
-394 -397 0
-394 -398 0
-394 -399 0
-394 -400 0
-394 -401 0
-394 -402 0
-394 -403 0
-394 -404 0
-394 -405 0
-394 -406 0
-395 -396 0
-395 -397 0
-395 -398 0
-395 -399 0
-395 -400 0
-395 -401 0
-395 -402 0
-395 -403 0
-395 -404 0
-395 -405 0
-395 -406 0
-396 -397 0
-396 -398 0
-396 -399 0
-396 -400 0
-396 -401 0
-396 -402 0
-396 -403 0
-396 -404 0
-396 -405 0
-396 -406 0
-397 -398 0
-397 -399 0
-397 -400 0
-397 -401 0
-397 -402 0
-397 -403 0
-397 -404 0
-397 -405 0
-397 -406 0
-398 -399 0
-398 -400 0
-398 -401 0
-398 -402 0
-398 -403 0
-398 -404 0
-398 -405 0
-398 -406 0
-399 -400 0
-399 -401 0
-399 -402 0
-399 -403 0
-399 -404 0
-399 -405 0
-399 -406 0
-400 -401 0
-400 -402 0
-400 -403 0
-400 -404 0
-400 -405 0
-400 -406 0
-401 -402 0
-401 -403 0
-401 -404 0
-401 -405 0
-401 -406 0
-402 -403 0
-402 -404 0
-402 -405 0
-402 -406 0
-403 -404 0
-403 -405 0
-403 -406 0
-404 -405 0
-404 -406 0
-405 -406 0
407 408 409 410 411 412 413 414 415 416 417 418 419 420 0
-407 -408 0
-407 -409 0
-407 -410 0
-407 -411 0
-407 -412 0
-407 -413 0
-407 -414 0
-407 -415 0
-407 -416 0
-407 -417 0
-407 -418 0
-407 -419 0
-407 -420 0
-408 -409 0
-408 -410 0
-408 -411 0
-408 -412 0
-408 -413 0
-408 -414 0
-408 -415 0
-408 -416 0
-408 -417 0
-408 -418 0
-408 -419 0
-408 -420 0
-409 -410 0
-409 -411 0
-409 -412 0
-409 -413 0
-409 -414 0
-409 -415 0
-409 -416 0
-409 -417 0
-409 -418 0
-409 -419 0
-409 -420 0
-410 -411 0
-410 -412 0
-410 -413 0
-410 -414 0
-410 -415 0
-410 -416 0
-410 -417 0
-410 -418 0
-410 -419 0
-410 -420 0
-411 -412 0
-411 -413 0
-411 -414 0
-411 -415 0
-411 -416 0
-411 -417 0
-411 -418 0
-411 -419 0
-411 -420 0
-412 -413 0
-412 -414 0
-412 -415 0
-412 -416 0
-412 -417 0
-412 -418 0
-412 -419 0
-412 -420 0
-413 -414 0
-413 -415 0
-413 -416 0
-413 -417 0
-413 -418 0
-413 -419 0
-413 -420 0
-414 -415 0
-414 -416 0
-414 -417 0
-414 -418 0
-414 -419 0
-414 -420 0
-415 -416 0
-415 -417 0
-415 -418 0
-415 -419 0
-415 -420 0
-416 -417 0
-416 -418 0
-416 -419 0
-416 -420 0
-417 -418 0
-417 -419 0
-417 -420 0
-418 -419 0
-418 -420 0
-419 -420 0
421 422 423 424 425 426 427 428 429 430 431 432 433 434 0
-421 -422 0
-421 -423 0
-421 -424 0
-421 -425 0
-421 -426 0
-421 -427 0
-421 -428 0
-421 -429 0
-421 -430 0
-421 -431 0
-421 -432 0
-421 -433 0
-421 -434 0
-422 -423 0
-422 -424 0
-422 -425 0
-422 -426 0
-422 -427 0
-422 -428 0
-422 -429 0
-422 -430 0
-422 -431 0
-422 -432 0
-422 -433 0
-422 -434 0
-423 -424 0
-423 -425 0
-423 -426 0
-423 -427 0
-423 -428 0
-423 -429 0
-423 -430 0
-423 -431 0
-423 -432 0
-423 -433 0
-423 -434 0
-424 -425 0
-424 -426 0
-424 -427 0
-424 -428 0
-424 -429 0
-424 -430 0
-424 -431 0
-424 -432 0
-424 -433 0
-424 -434 0
-425 -426 0
-425 -427 0
-425 -428 0
-425 -429 0
-425 -430 0
-425 -431 0
-425 -432 0
-425 -433 0
-425 -434 0
-426 -427 0
-426 -428 0
-426 -429 0
-426 -430 0
-426 -431 0
-426 -432 0
-426 -433 0
-426 -434 0
-427 -428 0
-427 -429 0
-427 -430 0
-427 -431 0
-427 -432 0
-427 -433 0
-427 -434 0
-428 -429 0
-428 -430 0
-428 -431 0
-428 -432 0
-428 -433 0
-428 -434 0
-429 -430 0
-429 -431 0
-429 -432 0
-429 -433 0
-429 -434 0
-430 -431 0
-430 -432 0
-430 -433 0
-430 -434 0
-431 -432 0
-431 -433 0
-431 -434 0
-432 -433 0
-432 -434 0
-433 -434 0
435 436 437 438 439 440 441 442 443 444 445 446 447 448 0
-435 -436 0
-435 -437 0
-435 -438 0
-435 -439 0
-435 -440 0
-435 -441 0
-435 -442 0
-435 -443 0
-435 -444 0
-435 -445 0
-435 -446 0
-435 -447 0
-435 -448 0
-436 -437 0
-436 -438 0
-436 -439 0
-436 -440 0
-436 -441 0
-436 -442 0
-436 -443 0
-436 -444 0
-436 -445 0
-436 -446 0
-436 -447 0
-436 -448 0
-437 -438 0
-437 -439 0
-437 -440 0
-437 -441 0
-437 -442 0
-437 -443 0
-437 -444 0
-437 -445 0
-437 -446 0
-437 -447 0
-437 -448 0
-438 -439 0
-438 -440 0
-438 -441 0
-438 -442 0
-438 -443 0
-438 -444 0
-438 -445 0
-438 -446 0
-438 -447 0
-438 -448 0
-439 -440 0
-439 -441 0
-439 -442 0
-439 -443 0
-439 -444 0
-439 -445 0
-439 -446 0
-439 -447 0
-439 -448 0
-440 -441 0
-440 -442 0
-440 -443 0
-440 -444 0
-440 -445 0
-440 -446 0
-440 -447 0
-440 -448 0
-441 -442 0
-441 -443 0
-441 -444 0
-441 -445 0
-441 -446 0
-441 -447 0
-441 -448 0
-442 -443 0
-442 -444 0
-442 -445 0
-442 -446 0
-442 -447 0
-442 -448 0
-443 -444 0
-443 -445 0
-443 -446 0
-443 -447 0
-443 -448 0
-444 -445 0
-444 -446 0
-444 -447 0
-444 -448 0
-445 -446 0
-445 -447 0
-445 -448 0
-446 -447 0
-446 -448 0
-447 -448 0
449 450 451 452 453 454 455 456 457 458 459 460 461 462 0
-449 -450 0
-449 -451 0
-449 -452 0
-449 -453 0
-449 -454 0
-449 -455 0
-449 -456 0
-449 -457 0
-449 -458 0
-449 -459 0
-449 -460 0
-449 -461 0
-449 -462 0
-450 -451 0
-450 -452 0
-450 -453 0
-450 -454 0
-450 -455 0
-450 -456 0
-450 -457 0
-450 -458 0
-450 -459 0
-450 -460 0
-450 -461 0
-450 -462 0
-451 -452 0
-451 -453 0
-451 -454 0
-451 -455 0
-451 -456 0
-451 -457 0
-451 -458 0
-451 -459 0
-451 -460 0
-451 -461 0
-451 -462 0
-452 -453 0
-452 -454 0
-452 -455 0
-452 -456 0
-452 -457 0
-452 -458 0
-452 -459 0
-452 -460 0
-452 -461 0
-452 -462 0
-453 -454 0
-453 -455 0
-453 -456 0
-453 -457 0
-453 -458 0
-453 -459 0
-453 -460 0
-453 -461 0
-453 -462 0
-454 -455 0
-454 -456 0
-454 -457 0
-454 -458 0
-454 -459 0
-454 -460 0
-454 -461 0
-454 -462 0
-455 -456 0
-455 -457 0
-455 -458 0
-455 -459 0
-455 -460 0
-455 -461 0
-455 -462 0
-456 -457 0
-456 -458 0
-456 -459 0
-456 -460 0
-456 -461 0
-456 -462 0
-457 -458 0
-457 -459 0
-457 -460 0
-457 -461 0
-457 -462 0
-458 -459 0
-458 -460 0
-458 -461 0
-458 -462 0
-459 -460 0
-459 -461 0
-459 -462 0
-460 -461 0
-460 -462 0
-461 -462 0
463 464 465 466 467 468 469 470 471 472 473 474 475 476 0
-463 -464 0
-463 -465 0
-463 -466 0
-463 -467 0
-463 -468 0
-463 -469 0
-463 -470 0
-463 -471 0
-463 -472 0
-463 -473 0
-463 -474 0
-463 -475 0
-463 -476 0
-464 -465 0
-464 -466 0
-464 -467 0
-464 -468 0
-464 -469 0
-464 -470 0
-464 -471 0
-464 -472 0
-464 -473 0
-464 -474 0
-464 -475 0
-464 -476 0
-465 -466 0
-465 -467 0
-465 -468 0
-465 -469 0
-465 -470 0
-465 -471 0
-465 -472 0
-465 -473 0
-465 -474 0
-465 -475 0
-465 -476 0
-466 -467 0
-466 -468 0
-466 -469 0
-466 -470 0
-466 -471 0
-466 -472 0
-466 -473 0
-466 -474 0
-466 -475 0
-466 -476 0
-467 -468 0
-467 -469 0
-467 -470 0
-467 -471 0
-467 -472 0
-467 -473 0
-467 -474 0
-467 -475 0
-467 -476 0
-468 -469 0
-468 -470 0
-468 -471 0
-468 -472 0
-468 -473 0
-468 -474 0
-468 -475 0
-468 -476 0
-469 -470 0
-469 -471 0
-469 -472 0
-469 -473 0
-469 -474 0
-469 -475 0
-469 -476 0
-470 -471 0
-470 -472 0
-470 -473 0
-470 -474 0
-470 -475 0
-470 -476 0
-471 -472 0
-471 -473 0
-471 -474 0
-471 -475 0
-471 -476 0
-472 -473 0
-472 -474 0
-472 -475 0
-472 -476 0
-473 -474 0
-473 -475 0
-473 -476 0
-474 -475 0
-474 -476 0
-475 -476 0
-1 -15 0
-1 -29 0
-1 -43 0
-15 -29 0
-15 -43 0
-29 -43 0
-2 -16 0
-2 -30 0
-2 -44 0
-16 -30 0
-16 -44 0
-30 -44 0
-3 -17 0
-3 -31 0
-3 -45 0
-17 -31 0
-17 -45 0
-31 -45 0
-4 -18 0
-4 -32 0
-4 -46 0
-18 -32 0
-18 -46 0
-32 -46 0
-5 -19 0
-5 -33 0
-5 -47 0
-19 -33 0
-19 -47 0
-33 -47 0
-6 -20 0
-6 -34 0
-6 -48 0
-20 -34 0
-20 -48 0
-34 -48 0
-7 -21 0
-7 -35 0
-7 -49 0
-21 -35 0
-21 -49 0
-35 -49 0
-8 -22 0
-8 -36 0
-8 -50 0
-22 -36 0
-22 -50 0
-36 -50 0
-9 -23 0
-9 -37 0
-9 -51 0
-23 -37 0
-23 -51 0
-37 -51 0
-10 -24 0
-10 -38 0
-10 -52 0
-24 -38 0
-24 -52 0
-38 -52 0
-11 -25 0
-11 -39 0
-11 -53 0
-25 -39 0
-25 -53 0
-39 -53 0
-12 -26 0
-12 -40 0
-12 -54 0
-26 -40 0
-26 -54 0
-40 -54 0
-13 -27 0
-13 -41 0
-13 -55 0
-27 -41 0
-27 -55 0
-41 -55 0
-14 -28 0
-14 -42 0
-14 -56 0
-28 -42 0
-28 -56 0
-42 -56 0
477 478 479 480 481 482 483 484 485 486 487 0
-477 -478 0
-477 -479 0
-477 -480 0
-477 -481 0
-477 -482 0
-477 -483 0
-477 -484 0
-477 -485 0
-477 -486 0
-477 -487 0
-478 -479 0
-478 -480 0
-478 -481 0
-478 -482 0
-478 -483 0
-478 -484 0
-478 -485 0
-478 -486 0
-478 -487 0
-479 -480 0
-479 -481 0
-479 -482 0
-479 -483 0
-479 -484 0
-479 -485 0
-479 -486 0
-479 -487 0
-480 -481 0
-480 -482 0
-480 -483 0
-480 -484 0
-480 -485 0
-480 -486 0
-480 -487 0
-481 -482 0
-481 -483 0
-481 -484 0
-481 -485 0
-481 -486 0
-481 -487 0
-482 -483 0
-482 -484 0
-482 -485 0
-482 -486 0
-482 -487 0
-483 -484 0
-483 -485 0
-483 -486 0
-483 -487 0
-484 -485 0
-484 -486 0
-484 -487 0
-485 -486 0
-485 -487 0
-486 -487 0
-1 477 0
-2 477 478 0
-3 477 478 479 0
-4 477 478 479 480 0
-5 478 479 480 481 0
-6 479 480 481 482 0
-7 480 481 482 483 0
-8 481 482 483 484 0
-9 482 483 484 485 0
-10 483 484 485 486 0
-11 484 485 486 487 0
-12 485 486 487 0
-13 486 487 0
-14 487 0
-15 477 0
-16 477 478 0
-17 477 478 479 0
-18 477 478 479 480 0
-19 478 479 480 481 0
-20 479 480 481 482 0
-21 480 481 482 483 0
-22 481 482 483 484 0
-23 482 483 484 485 0
-24 483 484 485 486 0
-25 484 485 486 487 0
-26 485 486 487 0
-27 486 487 0
-28 487 0
-29 477 0
-30 477 478 0
-31 477 478 479 0
-32 477 478 479 480 0
-33 478 479 480 481 0
-34 479 480 481 482 0
-35 480 481 482 483 0
-36 481 482 483 484 0
-37 482 483 484 485 0
-38 483 484 485 486 0
-39 484 485 486 487 0
-40 485 486 487 0
-41 486 487 0
-42 487 0
-43 477 0
-44 477 478 0
-45 477 478 479 0
-46 477 478 479 480 0
-47 478 479 480 481 0
-48 479 480 481 482 0
-49 480 481 482 483 0
-50 481 482 483 484 0
-51 482 483 484 485 0
-52 483 484 485 486 0
-53 484 485 486 487 0
-54 485 486 487 0
-55 486 487 0
-56 487 0
-477 -5 0
-477 -6 0
-477 -7 0
-477 -8 0
-477 -9 0
-477 -10 0
-477 -11 0
-477 -12 0
-477 -13 0
-477 -14 0
-477 -19 0
-477 -20 0
-477 -21 0
-477 -22 0
-477 -23 0
-477 -24 0
-477 -25 0
-477 -26 0
-477 -27 0
-477 -28 0
-477 -33 0
-477 -34 0
-477 -35 0
-477 -36 0
-477 -37 0
-477 -38 0
-477 -39 0
-477 -40 0
-477 -41 0
-477 -42 0
-477 -47 0
-477 -48 0
-477 -49 0
-477 -50 0
-477 -51 0
-477 -52 0
-477 -53 0
-477 -54 0
-477 -55 0
-477 -56 0
-478 -1 0
-478 -6 0
-478 -7 0
-478 -8 0
-478 -9 0
-478 -10 0
-478 -11 0
-478 -12 0
-478 -13 0
-478 -14 0
-478 -15 0
-478 -20 0
-478 -21 0
-478 -22 0
-478 -23 0
-478 -24 0
-478 -25 0
-478 -26 0
-478 -27 0
-478 -28 0
-478 -29 0
-478 -34 0
-478 -35 0
-478 -36 0
-478 -37 0
-478 -38 0
-478 -39 0
-478 -40 0
-478 -41 0
-478 -42 0
-478 -43 0
-478 -48 0
-478 -49 0
-478 -50 0
-478 -51 0
-478 -52 0
-478 -53 0
-478 -54 0
-478 -55 0
-478 -56 0
-479 -1 0
-479 -2 0
-479 -7 0
-479 -8 0
-479 -9 0
-479 -10 0
-479 -11 0
-479 -12 0
-479 -13 0
-479 -14 0
-479 -15 0
-479 -16 0
-479 -21 0
-479 -22 0
-479 -23 0
-479 -24 0
-479 -25 0
-479 -26 0
-479 -27 0
-479 -28 0
-479 -29 0
-479 -30 0
-479 -35 0
-479 -36 0
-479 -37 0
-479 -38 0
-479 -39 0
-479 -40 0
-479 -41 0
-479 -42 0
-479 -43 0
-479 -44 0
-479 -49 0
-479 -50 0
-479 -51 0
-479 -52 0
-479 -53 0
-479 -54 0
-479 -55 0
-479 -56 0
-480 -1 0
-480 -2 0
-480 -3 0
-480 -8 0
-480 -9 0
-480 -10 0
-480 -11 0
-480 -12 0
-480 -13 0
-480 -14 0
-480 -15 0
-480 -16 0
-480 -17 0
-480 -22 0
-480 -23 0
-480 -24 0
-480 -25 0
-480 -26 0
-480 -27 0
-480 -28 0
-480 -29 0
-480 -30 0
-480 -31 0
-480 -36 0
-480 -37 0
-480 -38 0
-480 -39 0
-480 -40 0
-480 -41 0
-480 -42 0
-480 -43 0
-480 -44 0
-480 -45 0
-480 -50 0
-480 -51 0
-480 -52 0
-480 -53 0
-480 -54 0
-480 -55 0
-480 -56 0
-481 -1 0
-481 -2 0
-481 -3 0
-481 -4 0
-481 -9 0
-481 -10 0
-481 -11 0
-481 -12 0
-481 -13 0
-481 -14 0
-481 -15 0
-481 -16 0
-481 -17 0
-481 -18 0
-481 -23 0
-481 -24 0
-481 -25 0
-481 -26 0
-481 -27 0
-481 -28 0
-481 -29 0
-481 -30 0
-481 -31 0
-481 -32 0
-481 -37 0
-481 -38 0
-481 -39 0
-481 -40 0
-481 -41 0
-481 -42 0
-481 -43 0
-481 -44 0
-481 -45 0
-481 -46 0
-481 -51 0
-481 -52 0
-481 -53 0
-481 -54 0
-481 -55 0
-481 -56 0
-482 -1 0
-482 -2 0
-482 -3 0
-482 -4 0
-482 -5 0
-482 -10 0
-482 -11 0
-482 -12 0
-482 -13 0
-482 -14 0
-482 -15 0
-482 -16 0
-482 -17 0
-482 -18 0
-482 -19 0
-482 -24 0
-482 -25 0
-482 -26 0
-482 -27 0
-482 -28 0
-482 -29 0
-482 -30 0
-482 -31 0
-482 -32 0
-482 -33 0
-482 -38 0
-482 -39 0
-482 -40 0
-482 -41 0
-482 -42 0
-482 -43 0
-482 -44 0
-482 -45 0
-482 -46 0
-482 -47 0
-482 -52 0
-482 -53 0
-482 -54 0
-482 -55 0
-482 -56 0
-483 -1 0
-483 -2 0
-483 -3 0
-483 -4 0
-483 -5 0
-483 -6 0
-483 -11 0
-483 -12 0
-483 -13 0
-483 -14 0
-483 -15 0
-483 -16 0
-483 -17 0
-483 -18 0
-483 -19 0
-483 -20 0
-483 -25 0
-483 -26 0
-483 -27 0
-483 -28 0
-483 -29 0
-483 -30 0
-483 -31 0
-483 -32 0
-483 -33 0
-483 -34 0
-483 -39 0
-483 -40 0
-483 -41 0
-483 -42 0
-483 -43 0
-483 -44 0
-483 -45 0
-483 -46 0
-483 -47 0
-483 -48 0
-483 -53 0
-483 -54 0
-483 -55 0
-483 -56 0
-484 -1 0
-484 -2 0
-484 -3 0
-484 -4 0
-484 -5 0
-484 -6 0
-484 -7 0
-484 -12 0
-484 -13 0
-484 -14 0
-484 -15 0
-484 -16 0
-484 -17 0
-484 -18 0
-484 -19 0
-484 -20 0
-484 -21 0
-484 -26 0
-484 -27 0
-484 -28 0
-484 -29 0
-484 -30 0
-484 -31 0
-484 -32 0
-484 -33 0
-484 -34 0
-484 -35 0
-484 -40 0
-484 -41 0
-484 -42 0
-484 -43 0
-484 -44 0
-484 -45 0
-484 -46 0
-484 -47 0
-484 -48 0
-484 -49 0
-484 -54 0
-484 -55 0
-484 -56 0
-485 -1 0
-485 -2 0
-485 -3 0
-485 -4 0
-485 -5 0
-485 -6 0
-485 -7 0
-485 -8 0
-485 -13 0
-485 -14 0
-485 -15 0
-485 -16 0
-485 -17 0
-485 -18 0
-485 -19 0
-485 -20 0
-485 -21 0
-485 -22 0
-485 -27 0
-485 -28 0
-485 -29 0
-485 -30 0
-485 -31 0
-485 -32 0
-485 -33 0
-485 -34 0
-485 -35 0
-485 -36 0
-485 -41 0
-485 -42 0
-485 -43 0
-485 -44 0
-485 -45 0
-485 -46 0
-485 -47 0
-485 -48 0
-485 -49 0
-485 -50 0
-485 -55 0
-485 -56 0
-486 -1 0
-486 -2 0
-486 -3 0
-486 -4 0
-486 -5 0
-486 -6 0
-486 -7 0
-486 -8 0
-486 -9 0
-486 -14 0
-486 -15 0
-486 -16 0
-486 -17 0
-486 -18 0
-486 -19 0
-486 -20 0
-486 -21 0
-486 -22 0
-486 -23 0
-486 -28 0
-486 -29 0
-486 -30 0
-486 -31 0
-486 -32 0
-486 -33 0
-486 -34 0
-486 -35 0
-486 -36 0
-486 -37 0
-486 -42 0
-486 -43 0
-486 -44 0
-486 -45 0
-486 -46 0
-486 -47 0
-486 -48 0
-486 -49 0
-486 -50 0
-486 -51 0
-486 -56 0
-487 -1 0
-487 -2 0
-487 -3 0
-487 -4 0
-487 -5 0
-487 -6 0
-487 -7 0
-487 -8 0
-487 -9 0
-487 -10 0
-487 -15 0
-487 -16 0
-487 -17 0
-487 -18 0
-487 -19 0
-487 -20 0
-487 -21 0
-487 -22 0
-487 -23 0
-487 -24 0
-487 -29 0
-487 -30 0
-487 -31 0
-487 -32 0
-487 -33 0
-487 -34 0
-487 -35 0
-487 -36 0
-487 -37 0
-487 -38 0
-487 -43 0
-487 -44 0
-487 -45 0
-487 -46 0
-487 -47 0
-487 -48 0
-487 -49 0
-487 -50 0
-487 -51 0
-487 -52 0
-57 -71 0
-57 -85 0
-71 -85 0
-58 -72 0
-58 -86 0
-72 -86 0
-59 -73 0
-59 -87 0
-73 -87 0
-60 -74 0
-60 -88 0
-74 -88 0
-61 -75 0
-61 -89 0
-75 -89 0
-62 -76 0
-62 -90 0
-76 -90 0
-63 -77 0
-63 -91 0
-77 -91 0
-64 -78 0
-64 -92 0
-78 -92 0
-65 -79 0
-65 -93 0
-79 -93 0
-66 -80 0
-66 -94 0
-80 -94 0
-67 -81 0
-67 -95 0
-81 -95 0
-68 -82 0
-68 -96 0
-82 -96 0
-69 -83 0
-69 -97 0
-83 -97 0
-70 -84 0
-70 -98 0
-84 -98 0
488 489 490 491 492 493 494 495 496 497 498 499 0
-488 -489 0
-488 -490 0
-488 -491 0
-488 -492 0
-488 -493 0
-488 -494 0
-488 -495 0
-488 -496 0
-488 -497 0
-488 -498 0
-488 -499 0
-489 -490 0
-489 -491 0
-489 -492 0
-489 -493 0
-489 -494 0
-489 -495 0
-489 -496 0
-489 -497 0
-489 -498 0
-489 -499 0
-490 -491 0
-490 -492 0
-490 -493 0
-490 -494 0
-490 -495 0
-490 -496 0
-490 -497 0
-490 -498 0
-490 -499 0
-491 -492 0
-491 -493 0
-491 -494 0
-491 -495 0
-491 -496 0
-491 -497 0
-491 -498 0
-491 -499 0
-492 -493 0
-492 -494 0
-492 -495 0
-492 -496 0
-492 -497 0
-492 -498 0
-492 -499 0
-493 -494 0
-493 -495 0
-493 -496 0
-493 -497 0
-493 -498 0
-493 -499 0
-494 -495 0
-494 -496 0
-494 -497 0
-494 -498 0
-494 -499 0
-495 -496 0
-495 -497 0
-495 -498 0
-495 -499 0
-496 -497 0
-496 -498 0
-496 -499 0
-497 -498 0
-497 -499 0
-498 -499 0
-57 488 0
-58 488 489 0
-59 488 489 490 0
-60 489 490 491 0
-61 490 491 492 0
-62 491 492 493 0
-63 492 493 494 0
-64 493 494 495 0
-65 494 495 496 0
-66 495 496 497 0
-67 496 497 498 0
-68 497 498 499 0
-69 498 499 0
-70 499 0
-71 488 0
-72 488 489 0
-73 488 489 490 0
-74 489 490 491 0
-75 490 491 492 0
-76 491 492 493 0
-77 492 493 494 0
-78 493 494 495 0
-79 494 495 496 0
-80 495 496 497 0
-81 496 497 498 0
-82 497 498 499 0
-83 498 499 0
-84 499 0
-85 488 0
-86 488 489 0
-87 488 489 490 0
-88 489 490 491 0
-89 490 491 492 0
-90 491 492 493 0
-91 492 493 494 0
-92 493 494 495 0
-93 494 495 496 0
-94 495 496 497 0
-95 496 497 498 0
-96 497 498 499 0
-97 498 499 0
-98 499 0
-488 -60 0
-488 -61 0
-488 -62 0
-488 -63 0
-488 -64 0
-488 -65 0
-488 -66 0
-488 -67 0
-488 -68 0
-488 -69 0
-488 -70 0
-488 -74 0
-488 -75 0
-488 -76 0
-488 -77 0
-488 -78 0
-488 -79 0
-488 -80 0
-488 -81 0
-488 -82 0
-488 -83 0
-488 -84 0
-488 -88 0
-488 -89 0
-488 -90 0
-488 -91 0
-488 -92 0
-488 -93 0
-488 -94 0
-488 -95 0
-488 -96 0
-488 -97 0
-488 -98 0
-489 -57 0
-489 -61 0
-489 -62 0
-489 -63 0
-489 -64 0
-489 -65 0
-489 -66 0
-489 -67 0
-489 -68 0
-489 -69 0
-489 -70 0
-489 -71 0
-489 -75 0
-489 -76 0
-489 -77 0
-489 -78 0
-489 -79 0
-489 -80 0
-489 -81 0
-489 -82 0
-489 -83 0
-489 -84 0
-489 -85 0
-489 -89 0
-489 -90 0
-489 -91 0
-489 -92 0
-489 -93 0
-489 -94 0
-489 -95 0
-489 -96 0
-489 -97 0
-489 -98 0
-490 -57 0
-490 -58 0
-490 -62 0
-490 -63 0
-490 -64 0
-490 -65 0
-490 -66 0
-490 -67 0
-490 -68 0
-490 -69 0
-490 -70 0
-490 -71 0
-490 -72 0
-490 -76 0
-490 -77 0
-490 -78 0
-490 -79 0
-490 -80 0
-490 -81 0
-490 -82 0
-490 -83 0
-490 -84 0
-490 -85 0
-490 -86 0
-490 -90 0
-490 -91 0
-490 -92 0
-490 -93 0
-490 -94 0
-490 -95 0
-490 -96 0
-490 -97 0
-490 -98 0
-491 -57 0
-491 -58 0
-491 -59 0
-491 -63 0
-491 -64 0
-491 -65 0
-491 -66 0
-491 -67 0
-491 -68 0
-491 -69 0
-491 -70 0
-491 -71 0
-491 -72 0
-491 -73 0
-491 -77 0
-491 -78 0
-491 -79 0
-491 -80 0
-491 -81 0
-491 -82 0
-491 -83 0
-491 -84 0
-491 -85 0
-491 -86 0
-491 -87 0
-491 -91 0
-491 -92 0
-491 -93 0
-491 -94 0
-491 -95 0
-491 -96 0
-491 -97 0
-491 -98 0
-492 -57 0
-492 -58 0
-492 -59 0
-492 -60 0
-492 -64 0
-492 -65 0
-492 -66 0
-492 -67 0
-492 -68 0
-492 -69 0
-492 -70 0
-492 -71 0
-492 -72 0
-492 -73 0
-492 -74 0
-492 -78 0
-492 -79 0
-492 -80 0
-492 -81 0
-492 -82 0
-492 -83 0
-492 -84 0
-492 -85 0
-492 -86 0
-492 -87 0
-492 -88 0
-492 -92 0
-492 -93 0
-492 -94 0
-492 -95 0
-492 -96 0
-492 -97 0
-492 -98 0
-493 -57 0
-493 -58 0
-493 -59 0
-493 -60 0
-493 -61 0
-493 -65 0
-493 -66 0
-493 -67 0
-493 -68 0
-493 -69 0
-493 -70 0
-493 -71 0
-493 -72 0
-493 -73 0
-493 -74 0
-493 -75 0
-493 -79 0
-493 -80 0
-493 -81 0
-493 -82 0
-493 -83 0
-493 -84 0
-493 -85 0
-493 -86 0
-493 -87 0
-493 -88 0
-493 -89 0
-493 -93 0
-493 -94 0
-493 -95 0
-493 -96 0
-493 -97 0
-493 -98 0
-494 -57 0
-494 -58 0
-494 -59 0
-494 -60 0
-494 -61 0
-494 -62 0
-494 -66 0
-494 -67 0
-494 -68 0
-494 -69 0
-494 -70 0
-494 -71 0
-494 -72 0
-494 -73 0
-494 -74 0
-494 -75 0
-494 -76 0
-494 -80 0
-494 -81 0
-494 -82 0
-494 -83 0
-494 -84 0
-494 -85 0
-494 -86 0
-494 -87 0
-494 -88 0
-494 -89 0
-494 -90 0
-494 -94 0
-494 -95 0
-494 -96 0
-494 -97 0
-494 -98 0
-495 -57 0
-495 -58 0
-495 -59 0
-495 -60 0
-495 -61 0
-495 -62 0
-495 -63 0
-495 -67 0
-495 -68 0
-495 -69 0
-495 -70 0
-495 -71 0
-495 -72 0
-495 -73 0
-495 -74 0
-495 -75 0
-495 -76 0
-495 -77 0
-495 -81 0
-495 -82 0
-495 -83 0
-495 -84 0
-495 -85 0
-495 -86 0
-495 -87 0
-495 -88 0
-495 -89 0
-495 -90 0
-495 -91 0
-495 -95 0
-495 -96 0
-495 -97 0
-495 -98 0
-496 -57 0
-496 -58 0
-496 -59 0
-496 -60 0
-496 -61 0
-496 -62 0
-496 -63 0
-496 -64 0
-496 -68 0
-496 -69 0
-496 -70 0
-496 -71 0
-496 -72 0
-496 -73 0
-496 -74 0
-496 -75 0
-496 -76 0
-496 -77 0
-496 -78 0
-496 -82 0
-496 -83 0
-496 -84 0
-496 -85 0
-496 -86 0
-496 -87 0
-496 -88 0
-496 -89 0
-496 -90 0
-496 -91 0
-496 -92 0
-496 -96 0
-496 -97 0
-496 -98 0
-497 -57 0
-497 -58 0
-497 -59 0
-497 -60 0
-497 -61 0
-497 -62 0
-497 -63 0
-497 -64 0
-497 -65 0
-497 -69 0
-497 -70 0
-497 -71 0
-497 -72 0
-497 -73 0
-497 -74 0
-497 -75 0
-497 -76 0
-497 -77 0
-497 -78 0
-497 -79 0
-497 -83 0
-497 -84 0
-497 -85 0
-497 -86 0
-497 -87 0
-497 -88 0
-497 -89 0
-497 -90 0
-497 -91 0
-497 -92 0
-497 -93 0
-497 -97 0
-497 -98 0
-498 -57 0
-498 -58 0
-498 -59 0
-498 -60 0
-498 -61 0
-498 -62 0
-498 -63 0
-498 -64 0
-498 -65 0
-498 -66 0
-498 -70 0
-498 -71 0
-498 -72 0
-498 -73 0
-498 -74 0
-498 -75 0
-498 -76 0
-498 -77 0
-498 -78 0
-498 -79 0
-498 -80 0
-498 -84 0
-498 -85 0
-498 -86 0
-498 -87 0
-498 -88 0
-498 -89 0
-498 -90 0
-498 -91 0
-498 -92 0
-498 -93 0
-498 -94 0
-498 -98 0
-499 -57 0
-499 -58 0
-499 -59 0
-499 -60 0
-499 -61 0
-499 -62 0
-499 -63 0
-499 -64 0
-499 -65 0
-499 -66 0
-499 -67 0
-499 -71 0
-499 -72 0
-499 -73 0
-499 -74 0
-499 -75 0
-499 -76 0
-499 -77 0
-499 -78 0
-499 -79 0
-499 -80 0
-499 -81 0
-499 -85 0
-499 -86 0
-499 -87 0
-499 -88 0
-499 -89 0
-499 -90 0
-499 -91 0
-499 -92 0
-499 -93 0
-499 -94 0
-499 -95 0
-99 -113 0
-99 -127 0
-113 -127 0
-100 -114 0
-100 -128 0
-114 -128 0
-101 -115 0
-101 -129 0
-115 -129 0
-102 -116 0
-102 -130 0
-116 -130 0
-103 -117 0
-103 -131 0
-117 -131 0
-104 -118 0
-104 -132 0
-118 -132 0
-105 -119 0
-105 -133 0
-119 -133 0
-106 -120 0
-106 -134 0
-120 -134 0
-107 -121 0
-107 -135 0
-121 -135 0
-108 -122 0
-108 -136 0
-122 -136 0
-109 -123 0
-109 -137 0
-123 -137 0
-110 -124 0
-110 -138 0
-124 -138 0
-111 -125 0
-111 -139 0
-125 -139 0
-112 -126 0
-112 -140 0
-126 -140 0
500 501 502 503 504 505 506 507 508 509 510 511 0
-500 -501 0
-500 -502 0
-500 -503 0
-500 -504 0
-500 -505 0
-500 -506 0
-500 -507 0
-500 -508 0
-500 -509 0
-500 -510 0
-500 -511 0
-501 -502 0
-501 -503 0
-501 -504 0
-501 -505 0
-501 -506 0
-501 -507 0
-501 -508 0
-501 -509 0
-501 -510 0
-501 -511 0
-502 -503 0
-502 -504 0
-502 -505 0
-502 -506 0
-502 -507 0
-502 -508 0
-502 -509 0
-502 -510 0
-502 -511 0
-503 -504 0
-503 -505 0
-503 -506 0
-503 -507 0
-503 -508 0
-503 -509 0
-503 -510 0
-503 -511 0
-504 -505 0
-504 -506 0
-504 -507 0
-504 -508 0
-504 -509 0
-504 -510 0
-504 -511 0
-505 -506 0
-505 -507 0
-505 -508 0
-505 -509 0
-505 -510 0
-505 -511 0
-506 -507 0
-506 -508 0
-506 -509 0
-506 -510 0
-506 -511 0
-507 -508 0
-507 -509 0
-507 -510 0
-507 -511 0
-508 -509 0
-508 -510 0
-508 -511 0
-509 -510 0
-509 -511 0
-510 -511 0
-99 500 0
-100 500 501 0
-101 500 501 502 0
-102 501 502 503 0
-103 502 503 504 0
-104 503 504 505 0
-105 504 505 506 0
-106 505 506 507 0
-107 506 507 508 0
-108 507 508 509 0
-109 508 509 510 0
-110 509 510 511 0
-111 510 511 0
-112 511 0
-113 500 0
-114 500 501 0
-115 500 501 502 0
-116 501 502 503 0
-117 502 503 504 0
-118 503 504 505 0
-119 504 505 506 0
-120 505 506 507 0
-121 506 507 508 0
-122 507 508 509 0
-123 508 509 510 0
-124 509 510 511 0
-125 510 511 0
-126 511 0
-127 500 0
-128 500 501 0
-129 500 501 502 0
-130 501 502 503 0
-131 502 503 504 0
-132 503 504 505 0
-133 504 505 506 0
-134 505 506 507 0
-135 506 507 508 0
-136 507 508 509 0
-137 508 509 510 0
-138 509 510 511 0
-139 510 511 0
-140 511 0
-500 -102 0
-500 -103 0
-500 -104 0
-500 -105 0
-500 -106 0
-500 -107 0
-500 -108 0
-500 -109 0
-500 -110 0
-500 -111 0
-500 -112 0
-500 -116 0
-500 -117 0
-500 -118 0
-500 -119 0
-500 -120 0
-500 -121 0
-500 -122 0
-500 -123 0
-500 -124 0
-500 -125 0
-500 -126 0
-500 -130 0
-500 -131 0
-500 -132 0
-500 -133 0
-500 -134 0
-500 -135 0
-500 -136 0
-500 -137 0
-500 -138 0
-500 -139 0
-500 -140 0
-501 -99 0
-501 -103 0
-501 -104 0
-501 -105 0
-501 -106 0
-501 -107 0
-501 -108 0
-501 -109 0
-501 -110 0
-501 -111 0
-501 -112 0
-501 -113 0
-501 -117 0
-501 -118 0
-501 -119 0
-501 -120 0
-501 -121 0
-501 -122 0
-501 -123 0
-501 -124 0
-501 -125 0
-501 -126 0
-501 -127 0
-501 -131 0
-501 -132 0
-501 -133 0
-501 -134 0
-501 -135 0
-501 -136 0
-501 -137 0
-501 -138 0
-501 -139 0
-501 -140 0
-502 -99 0
-502 -100 0
-502 -104 0
-502 -105 0
-502 -106 0
-502 -107 0
-502 -108 0
-502 -109 0
-502 -110 0
-502 -111 0
-502 -112 0
-502 -113 0
-502 -114 0
-502 -118 0
-502 -119 0
-502 -120 0
-502 -121 0
-502 -122 0
-502 -123 0
-502 -124 0
-502 -125 0
-502 -126 0
-502 -127 0
-502 -128 0
-502 -132 0
-502 -133 0
-502 -134 0
-502 -135 0
-502 -136 0
-502 -137 0
-502 -138 0
-502 -139 0
-502 -140 0
-503 -99 0
-503 -100 0
-503 -101 0
-503 -105 0
-503 -106 0
-503 -107 0
-503 -108 0
-503 -109 0
-503 -110 0
-503 -111 0
-503 -112 0
-503 -113 0
-503 -114 0
-503 -115 0
-503 -119 0
-503 -120 0
-503 -121 0
-503 -122 0
-503 -123 0
-503 -124 0
-503 -125 0
-503 -126 0
-503 -127 0
-503 -128 0
-503 -129 0
-503 -133 0
-503 -134 0
-503 -135 0
-503 -136 0
-503 -137 0
-503 -138 0
-503 -139 0
-503 -140 0
-504 -99 0
-504 -100 0
-504 -101 0
-504 -102 0
-504 -106 0
-504 -107 0
-504 -108 0
-504 -109 0
-504 -110 0
-504 -111 0
-504 -112 0
-504 -113 0
-504 -114 0
-504 -115 0
-504 -116 0
-504 -120 0
-504 -121 0
-504 -122 0
-504 -123 0
-504 -124 0
-504 -125 0
-504 -126 0
-504 -127 0
-504 -128 0
-504 -129 0
-504 -130 0
-504 -134 0
-504 -135 0
-504 -136 0
-504 -137 0
-504 -138 0
-504 -139 0
-504 -140 0
-505 -99 0
-505 -100 0
-505 -101 0
-505 -102 0
-505 -103 0
-505 -107 0
-505 -108 0
-505 -109 0
-505 -110 0
-505 -111 0
-505 -112 0
-505 -113 0
-505 -114 0
-505 -115 0
-505 -116 0
-505 -117 0
-505 -121 0
-505 -122 0
-505 -123 0
-505 -124 0
-505 -125 0
-505 -126 0
-505 -127 0
-505 -128 0
-505 -129 0
-505 -130 0
-505 -131 0
-505 -135 0
-505 -136 0
-505 -137 0
-505 -138 0
-505 -139 0
-505 -140 0
-506 -99 0
-506 -100 0
-506 -101 0
-506 -102 0
-506 -103 0
-506 -104 0
-506 -108 0
-506 -109 0
-506 -110 0
-506 -111 0
-506 -112 0
-506 -113 0
-506 -114 0
-506 -115 0
-506 -116 0
-506 -117 0
-506 -118 0
-506 -122 0
-506 -123 0
-506 -124 0
-506 -125 0
-506 -126 0
-506 -127 0
-506 -128 0
-506 -129 0
-506 -130 0
-506 -131 0
-506 -132 0
-506 -136 0
-506 -137 0
-506 -138 0
-506 -139 0
-506 -140 0
-507 -99 0
-507 -100 0
-507 -101 0
-507 -102 0
-507 -103 0
-507 -104 0
-507 -105 0
-507 -109 0
-507 -110 0
-507 -111 0
-507 -112 0
-507 -113 0
-507 -114 0
-507 -115 0
-507 -116 0
-507 -117 0
-507 -118 0
-507 -119 0
-507 -123 0
-507 -124 0
-507 -125 0
-507 -126 0
-507 -127 0
-507 -128 0
-507 -129 0
-507 -130 0
-507 -131 0
-507 -132 0
-507 -133 0
-507 -137 0
-507 -138 0
-507 -139 0
-507 -140 0
-508 -99 0
-508 -100 0
-508 -101 0
-508 -102 0
-508 -103 0
-508 -104 0
-508 -105 0
-508 -106 0
-508 -110 0
-508 -111 0
-508 -112 0
-508 -113 0
-508 -114 0
-508 -115 0
-508 -116 0
-508 -117 0
-508 -118 0
-508 -119 0
-508 -120 0
-508 -124 0
-508 -125 0
-508 -126 0
-508 -127 0
-508 -128 0
-508 -129 0
-508 -130 0
-508 -131 0
-508 -132 0
-508 -133 0
-508 -134 0
-508 -138 0
-508 -139 0
-508 -140 0
-509 -99 0
-509 -100 0
-509 -101 0
-509 -102 0
-509 -103 0
-509 -104 0
-509 -105 0
-509 -106 0
-509 -107 0
-509 -111 0
-509 -112 0
-509 -113 0
-509 -114 0
-509 -115 0
-509 -116 0
-509 -117 0
-509 -118 0
-509 -119 0
-509 -120 0
-509 -121 0
-509 -125 0
-509 -126 0
-509 -127 0
-509 -128 0
-509 -129 0
-509 -130 0
-509 -131 0
-509 -132 0
-509 -133 0
-509 -134 0
-509 -135 0
-509 -139 0
-509 -140 0
-510 -99 0
-510 -100 0
-510 -101 0
-510 -102 0
-510 -103 0
-510 -104 0
-510 -105 0
-510 -106 0
-510 -107 0
-510 -108 0
-510 -112 0
-510 -113 0
-510 -114 0
-510 -115 0
-510 -116 0
-510 -117 0
-510 -118 0
-510 -119 0
-510 -120 0
-510 -121 0
-510 -122 0
-510 -126 0
-510 -127 0
-510 -128 0
-510 -129 0
-510 -130 0
-510 -131 0
-510 -132 0
-510 -133 0
-510 -134 0
-510 -135 0
-510 -136 0
-510 -140 0
-511 -99 0
-511 -100 0
-511 -101 0
-511 -102 0
-511 -103 0
-511 -104 0
-511 -105 0
-511 -106 0
-511 -107 0
-511 -108 0
-511 -109 0
-511 -113 0
-511 -114 0
-511 -115 0
-511 -116 0
-511 -117 0
-511 -118 0
-511 -119 0
-511 -120 0
-511 -121 0
-511 -122 0
-511 -123 0
-511 -127 0
-511 -128 0
-511 -129 0
-511 -130 0
-511 -131 0
-511 -132 0
-511 -133 0
-511 -134 0
-511 -135 0
-511 -136 0
-511 -137 0
-141 -155 0
-141 -169 0
-155 -169 0
-142 -156 0
-142 -170 0
-156 -170 0
-143 -157 0
-143 -171 0
-157 -171 0
-144 -158 0
-144 -172 0
-158 -172 0
-145 -159 0
-145 -173 0
-159 -173 0
-146 -160 0
-146 -174 0
-160 -174 0
-147 -161 0
-147 -175 0
-161 -175 0
-148 -162 0
-148 -176 0
-162 -176 0
-149 -163 0
-149 -177 0
-163 -177 0
-150 -164 0
-150 -178 0
-164 -178 0
-151 -165 0
-151 -179 0
-165 -179 0
-152 -166 0
-152 -180 0
-166 -180 0
-153 -167 0
-153 -181 0
-167 -181 0
-154 -168 0
-154 -182 0
-168 -182 0
512 513 514 515 516 517 518 519 520 521 522 523 0
-512 -513 0
-512 -514 0
-512 -515 0
-512 -516 0
-512 -517 0
-512 -518 0
-512 -519 0
-512 -520 0
-512 -521 0
-512 -522 0
-512 -523 0
-513 -514 0
-513 -515 0
-513 -516 0
-513 -517 0
-513 -518 0
-513 -519 0
-513 -520 0
-513 -521 0
-513 -522 0
-513 -523 0
-514 -515 0
-514 -516 0
-514 -517 0
-514 -518 0
-514 -519 0
-514 -520 0
-514 -521 0
-514 -522 0
-514 -523 0
-515 -516 0
-515 -517 0
-515 -518 0
-515 -519 0
-515 -520 0
-515 -521 0
-515 -522 0
-515 -523 0
-516 -517 0
-516 -518 0
-516 -519 0
-516 -520 0
-516 -521 0
-516 -522 0
-516 -523 0
-517 -518 0
-517 -519 0
-517 -520 0
-517 -521 0
-517 -522 0
-517 -523 0
-518 -519 0
-518 -520 0
-518 -521 0
-518 -522 0
-518 -523 0
-519 -520 0
-519 -521 0
-519 -522 0
-519 -523 0
-520 -521 0
-520 -522 0
-520 -523 0
-521 -522 0
-521 -523 0
-522 -523 0
-141 512 0
-142 512 513 0
-143 512 513 514 0
-144 513 514 515 0
-145 514 515 516 0
-146 515 516 517 0
-147 516 517 518 0
-148 517 518 519 0
-149 518 519 520 0
-150 519 520 521 0
-151 520 521 522 0
-152 521 522 523 0
-153 522 523 0
-154 523 0
-155 512 0
-156 512 513 0
-157 512 513 514 0
-158 513 514 515 0
-159 514 515 516 0
-160 515 516 517 0
-161 516 517 518 0
-162 517 518 519 0
-163 518 519 520 0
-164 519 520 521 0
-165 520 521 522 0
-166 521 522 523 0
-167 522 523 0
-168 523 0
-169 512 0
-170 512 513 0
-171 512 513 514 0
-172 513 514 515 0
-173 514 515 516 0
-174 515 516 517 0
-175 516 517 518 0
-176 517 518 519 0
-177 518 519 520 0
-178 519 520 521 0
-179 520 521 522 0
-180 521 522 523 0
-181 522 523 0
-182 523 0
-512 -144 0
-512 -145 0
-512 -146 0
-512 -147 0
-512 -148 0
-512 -149 0
-512 -150 0
-512 -151 0
-512 -152 0
-512 -153 0
-512 -154 0
-512 -158 0
-512 -159 0
-512 -160 0
-512 -161 0
-512 -162 0
-512 -163 0
-512 -164 0
-512 -165 0
-512 -166 0
-512 -167 0
-512 -168 0
-512 -172 0
-512 -173 0
-512 -174 0
-512 -175 0
-512 -176 0
-512 -177 0
-512 -178 0
-512 -179 0
-512 -180 0
-512 -181 0
-512 -182 0
-513 -141 0
-513 -145 0
-513 -146 0
-513 -147 0
-513 -148 0
-513 -149 0
-513 -150 0
-513 -151 0
-513 -152 0
-513 -153 0
-513 -154 0
-513 -155 0
-513 -159 0
-513 -160 0
-513 -161 0
-513 -162 0
-513 -163 0
-513 -164 0
-513 -165 0
-513 -166 0
-513 -167 0
-513 -168 0
-513 -169 0
-513 -173 0
-513 -174 0
-513 -175 0
-513 -176 0
-513 -177 0
-513 -178 0
-513 -179 0
-513 -180 0
-513 -181 0
-513 -182 0
-514 -141 0
-514 -142 0
-514 -146 0
-514 -147 0
-514 -148 0
-514 -149 0
-514 -150 0
-514 -151 0
-514 -152 0
-514 -153 0
-514 -154 0
-514 -155 0
-514 -156 0
-514 -160 0
-514 -161 0
-514 -162 0
-514 -163 0
-514 -164 0
-514 -165 0
-514 -166 0
-514 -167 0
-514 -168 0
-514 -169 0
-514 -170 0
-514 -174 0
-514 -175 0
-514 -176 0
-514 -177 0
-514 -178 0
-514 -179 0
-514 -180 0
-514 -181 0
-514 -182 0
-515 -141 0
-515 -142 0
-515 -143 0
-515 -147 0
-515 -148 0
-515 -149 0
-515 -150 0
-515 -151 0
-515 -152 0
-515 -153 0
-515 -154 0
-515 -155 0
-515 -156 0
-515 -157 0
-515 -161 0
-515 -162 0
-515 -163 0
-515 -164 0
-515 -165 0
-515 -166 0
-515 -167 0
-515 -168 0
-515 -169 0
-515 -170 0
-515 -171 0
-515 -175 0
-515 -176 0
-515 -177 0
-515 -178 0
-515 -179 0
-515 -180 0
-515 -181 0
-515 -182 0
-516 -141 0
-516 -142 0
-516 -143 0
-516 -144 0
-516 -148 0
-516 -149 0
-516 -150 0
-516 -151 0
-516 -152 0
-516 -153 0
-516 -154 0
-516 -155 0
-516 -156 0
-516 -157 0
-516 -158 0
-516 -162 0
-516 -163 0
-516 -164 0
-516 -165 0
-516 -166 0
-516 -167 0
-516 -168 0
-516 -169 0
-516 -170 0
-516 -171 0
-516 -172 0
-516 -176 0
-516 -177 0
-516 -178 0
-516 -179 0
-516 -180 0
-516 -181 0
-516 -182 0
-517 -141 0
-517 -142 0
-517 -143 0
-517 -144 0
-517 -145 0
-517 -149 0
-517 -150 0
-517 -151 0
-517 -152 0
-517 -153 0
-517 -154 0
-517 -155 0
-517 -156 0
-517 -157 0
-517 -158 0
-517 -159 0
-517 -163 0
-517 -164 0
-517 -165 0
-517 -166 0
-517 -167 0
-517 -168 0
-517 -169 0
-517 -170 0
-517 -171 0
-517 -172 0
-517 -173 0
-517 -177 0
-517 -178 0
-517 -179 0
-517 -180 0
-517 -181 0
-517 -182 0
-518 -141 0
-518 -142 0
-518 -143 0
-518 -144 0
-518 -145 0
-518 -146 0
-518 -150 0
-518 -151 0
-518 -152 0
-518 -153 0
-518 -154 0
-518 -155 0
-518 -156 0
-518 -157 0
-518 -158 0
-518 -159 0
-518 -160 0
-518 -164 0
-518 -165 0
-518 -166 0
-518 -167 0
-518 -168 0
-518 -169 0
-518 -170 0
-518 -171 0
-518 -172 0
-518 -173 0
-518 -174 0
-518 -178 0
-518 -179 0
-518 -180 0
-518 -181 0
-518 -182 0
-519 -141 0
-519 -142 0
-519 -143 0
-519 -144 0
-519 -145 0
-519 -146 0
-519 -147 0
-519 -151 0
-519 -152 0
-519 -153 0
-519 -154 0
-519 -155 0
-519 -156 0
-519 -157 0
-519 -158 0
-519 -159 0
-519 -160 0
-519 -161 0
-519 -165 0
-519 -166 0
-519 -167 0
-519 -168 0
-519 -169 0
-519 -170 0
-519 -171 0
-519 -172 0
-519 -173 0
-519 -174 0
-519 -175 0
-519 -179 0
-519 -180 0
-519 -181 0
-519 -182 0
-520 -141 0
-520 -142 0
-520 -143 0
-520 -144 0
-520 -145 0
-520 -146 0
-520 -147 0
-520 -148 0
-520 -152 0
-520 -153 0
-520 -154 0
-520 -155 0
-520 -156 0
-520 -157 0
-520 -158 0
-520 -159 0
-520 -160 0
-520 -161 0
-520 -162 0
-520 -166 0
-520 -167 0
-520 -168 0
-520 -169 0
-520 -170 0
-520 -171 0
-520 -172 0
-520 -173 0
-520 -174 0
-520 -175 0
-520 -176 0
-520 -180 0
-520 -181 0
-520 -182 0
-521 -141 0
-521 -142 0
-521 -143 0
-521 -144 0
-521 -145 0
-521 -146 0
-521 -147 0
-521 -148 0
-521 -149 0
-521 -153 0
-521 -154 0
-521 -155 0
-521 -156 0
-521 -157 0
-521 -158 0
-521 -159 0
-521 -160 0
-521 -161 0
-521 -162 0
-521 -163 0
-521 -167 0
-521 -168 0
-521 -169 0
-521 -170 0
-521 -171 0
-521 -172 0
-521 -173 0
-521 -174 0
-521 -175 0
-521 -176 0
-521 -177 0
-521 -181 0
-521 -182 0
-522 -141 0
-522 -142 0
-522 -143 0
-522 -144 0
-522 -145 0
-522 -146 0
-522 -147 0
-522 -148 0
-522 -149 0
-522 -150 0
-522 -154 0
-522 -155 0
-522 -156 0
-522 -157 0
-522 -158 0
-522 -159 0
-522 -160 0
-522 -161 0
-522 -162 0
-522 -163 0
-522 -164 0
-522 -168 0
-522 -169 0
-522 -170 0
-522 -171 0
-522 -172 0
-522 -173 0
-522 -174 0
-522 -175 0
-522 -176 0
-522 -177 0
-522 -178 0
-522 -182 0
-523 -141 0
-523 -142 0
-523 -143 0
-523 -144 0
-523 -145 0
-523 -146 0
-523 -147 0
-523 -148 0
-523 -149 0
-523 -150 0
-523 -151 0
-523 -155 0
-523 -156 0
-523 -157 0
-523 -158 0
-523 -159 0
-523 -160 0
-523 -161 0
-523 -162 0
-523 -163 0
-523 -164 0
-523 -165 0
-523 -169 0
-523 -170 0
-523 -171 0
-523 -172 0
-523 -173 0
-523 -174 0
-523 -175 0
-523 -176 0
-523 -177 0
-523 -178 0
-523 -179 0
-183 -197 0
-183 -211 0
-197 -211 0
-184 -198 0
-184 -212 0
-198 -212 0
-185 -199 0
-185 -213 0
-199 -213 0
-186 -200 0
-186 -214 0
-200 -214 0
-187 -201 0
-187 -215 0
-201 -215 0
-188 -202 0
-188 -216 0
-202 -216 0
-189 -203 0
-189 -217 0
-203 -217 0
-190 -204 0
-190 -218 0
-204 -218 0
-191 -205 0
-191 -219 0
-205 -219 0
-192 -206 0
-192 -220 0
-206 -220 0
-193 -207 0
-193 -221 0
-207 -221 0
-194 -208 0
-194 -222 0
-208 -222 0
-195 -209 0
-195 -223 0
-209 -223 0
-196 -210 0
-196 -224 0
-210 -224 0
524 525 526 527 528 529 530 531 532 533 534 535 0
-524 -525 0
-524 -526 0
-524 -527 0
-524 -528 0
-524 -529 0
-524 -530 0
-524 -531 0
-524 -532 0
-524 -533 0
-524 -534 0
-524 -535 0
-525 -526 0
-525 -527 0
-525 -528 0
-525 -529 0
-525 -530 0
-525 -531 0
-525 -532 0
-525 -533 0
-525 -534 0
-525 -535 0
-526 -527 0
-526 -528 0
-526 -529 0
-526 -530 0
-526 -531 0
-526 -532 0
-526 -533 0
-526 -534 0
-526 -535 0
-527 -528 0
-527 -529 0
-527 -530 0
-527 -531 0
-527 -532 0
-527 -533 0
-527 -534 0
-527 -535 0
-528 -529 0
-528 -530 0
-528 -531 0
-528 -532 0
-528 -533 0
-528 -534 0
-528 -535 0
-529 -530 0
-529 -531 0
-529 -532 0
-529 -533 0
-529 -534 0
-529 -535 0
-530 -531 0
-530 -532 0
-530 -533 0
-530 -534 0
-530 -535 0
-531 -532 0
-531 -533 0
-531 -534 0
-531 -535 0
-532 -533 0
-532 -534 0
-532 -535 0
-533 -534 0
-533 -535 0
-534 -535 0
-183 524 0
-184 524 525 0
-185 524 525 526 0
-186 525 526 527 0
-187 526 527 528 0
-188 527 528 529 0
-189 528 529 530 0
-190 529 530 531 0
-191 530 531 532 0
-192 531 532 533 0
-193 532 533 534 0
-194 533 534 535 0
-195 534 535 0
-196 535 0
-197 524 0
-198 524 525 0
-199 524 525 526 0
-200 525 526 527 0
-201 526 527 528 0
-202 527 528 529 0
-203 528 529 530 0
-204 529 530 531 0
-205 530 531 532 0
-206 531 532 533 0
-207 532 533 534 0
-208 533 534 535 0
-209 534 535 0
-210 535 0
-211 524 0
-212 524 525 0
-213 524 525 526 0
-214 525 526 527 0
-215 526 527 528 0
-216 527 528 529 0
-217 528 529 530 0
-218 529 530 531 0
-219 530 531 532 0
-220 531 532 533 0
-221 532 533 534 0
-222 533 534 535 0
-223 534 535 0
-224 535 0
-524 -186 0
-524 -187 0
-524 -188 0
-524 -189 0
-524 -190 0
-524 -191 0
-524 -192 0
-524 -193 0
-524 -194 0
-524 -195 0
-524 -196 0
-524 -200 0
-524 -201 0
-524 -202 0
-524 -203 0
-524 -204 0
-524 -205 0
-524 -206 0
-524 -207 0
-524 -208 0
-524 -209 0
-524 -210 0
-524 -214 0
-524 -215 0
-524 -216 0
-524 -217 0
-524 -218 0
-524 -219 0
-524 -220 0
-524 -221 0
-524 -222 0
-524 -223 0
-524 -224 0
-525 -183 0
-525 -187 0
-525 -188 0
-525 -189 0
-525 -190 0
-525 -191 0
-525 -192 0
-525 -193 0
-525 -194 0
-525 -195 0
-525 -196 0
-525 -197 0
-525 -201 0
-525 -202 0
-525 -203 0
-525 -204 0
-525 -205 0
-525 -206 0
-525 -207 0
-525 -208 0
-525 -209 0
-525 -210 0
-525 -211 0
-525 -215 0
-525 -216 0
-525 -217 0
-525 -218 0
-525 -219 0
-525 -220 0
-525 -221 0
-525 -222 0
-525 -223 0
-525 -224 0
-526 -183 0
-526 -184 0
-526 -188 0
-526 -189 0
-526 -190 0
-526 -191 0
-526 -192 0
-526 -193 0
-526 -194 0
-526 -195 0
-526 -196 0
-526 -197 0
-526 -198 0
-526 -202 0
-526 -203 0
-526 -204 0
-526 -205 0
-526 -206 0
-526 -207 0
-526 -208 0
-526 -209 0
-526 -210 0
-526 -211 0
-526 -212 0
-526 -216 0
-526 -217 0
-526 -218 0
-526 -219 0
-526 -220 0
-526 -221 0
-526 -222 0
-526 -223 0
-526 -224 0
-527 -183 0
-527 -184 0
-527 -185 0
-527 -189 0
-527 -190 0
-527 -191 0
-527 -192 0
-527 -193 0
-527 -194 0
-527 -195 0
-527 -196 0
-527 -197 0
-527 -198 0
-527 -199 0
-527 -203 0
-527 -204 0
-527 -205 0
-527 -206 0
-527 -207 0
-527 -208 0
-527 -209 0
-527 -210 0
-527 -211 0
-527 -212 0
-527 -213 0
-527 -217 0
-527 -218 0
-527 -219 0
-527 -220 0
-527 -221 0
-527 -222 0
-527 -223 0
-527 -224 0
-528 -183 0
-528 -184 0
-528 -185 0
-528 -186 0
-528 -190 0
-528 -191 0
-528 -192 0
-528 -193 0
-528 -194 0
-528 -195 0
-528 -196 0
-528 -197 0
-528 -198 0
-528 -199 0
-528 -200 0
-528 -204 0
-528 -205 0
-528 -206 0
-528 -207 0
-528 -208 0
-528 -209 0
-528 -210 0
-528 -211 0
-528 -212 0
-528 -213 0
-528 -214 0
-528 -218 0
-528 -219 0
-528 -220 0
-528 -221 0
-528 -222 0
-528 -223 0
-528 -224 0
-529 -183 0
-529 -184 0
-529 -185 0
-529 -186 0
-529 -187 0
-529 -191 0
-529 -192 0
-529 -193 0
-529 -194 0
-529 -195 0
-529 -196 0
-529 -197 0
-529 -198 0
-529 -199 0
-529 -200 0
-529 -201 0
-529 -205 0
-529 -206 0
-529 -207 0
-529 -208 0
-529 -209 0
-529 -210 0
-529 -211 0
-529 -212 0
-529 -213 0
-529 -214 0
-529 -215 0
-529 -219 0
-529 -220 0
-529 -221 0
-529 -222 0
-529 -223 0
-529 -224 0
-530 -183 0
-530 -184 0
-530 -185 0
-530 -186 0
-530 -187 0
-530 -188 0
-530 -192 0
-530 -193 0
-530 -194 0
-530 -195 0
-530 -196 0
-530 -197 0
-530 -198 0
-530 -199 0
-530 -200 0
-530 -201 0
-530 -202 0
-530 -206 0
-530 -207 0
-530 -208 0
-530 -209 0
-530 -210 0
-530 -211 0
-530 -212 0
-530 -213 0
-530 -214 0
-530 -215 0
-530 -216 0
-530 -220 0
-530 -221 0
-530 -222 0
-530 -223 0
-530 -224 0
-531 -183 0
-531 -184 0
-531 -185 0
-531 -186 0
-531 -187 0
-531 -188 0
-531 -189 0
-531 -193 0
-531 -194 0
-531 -195 0
-531 -196 0
-531 -197 0
-531 -198 0
-531 -199 0
-531 -200 0
-531 -201 0
-531 -202 0
-531 -203 0
-531 -207 0
-531 -208 0
-531 -209 0
-531 -210 0
-531 -211 0
-531 -212 0
-531 -213 0
-531 -214 0
-531 -215 0
-531 -216 0
-531 -217 0
-531 -221 0
-531 -222 0
-531 -223 0
-531 -224 0
-532 -183 0
-532 -184 0
-532 -185 0
-532 -186 0
-532 -187 0
-532 -188 0
-532 -189 0
-532 -190 0
-532 -194 0
-532 -195 0
-532 -196 0
-532 -197 0
-532 -198 0
-532 -199 0
-532 -200 0
-532 -201 0
-532 -202 0
-532 -203 0
-532 -204 0
-532 -208 0
-532 -209 0
-532 -210 0
-532 -211 0
-532 -212 0
-532 -213 0
-532 -214 0
-532 -215 0
-532 -216 0
-532 -217 0
-532 -218 0
-532 -222 0
-532 -223 0
-532 -224 0
-533 -183 0
-533 -184 0
-533 -185 0
-533 -186 0
-533 -187 0
-533 -188 0
-533 -189 0
-533 -190 0
-533 -191 0
-533 -195 0
-533 -196 0
-533 -197 0
-533 -198 0
-533 -199 0
-533 -200 0
-533 -201 0
-533 -202 0
-533 -203 0
-533 -204 0
-533 -205 0
-533 -209 0
-533 -210 0
-533 -211 0
-533 -212 0
-533 -213 0
-533 -214 0
-533 -215 0
-533 -216 0
-533 -217 0
-533 -218 0
-533 -219 0
-533 -223 0
-533 -224 0
-534 -183 0
-534 -184 0
-534 -185 0
-534 -186 0
-534 -187 0
-534 -188 0
-534 -189 0
-534 -190 0
-534 -191 0
-534 -192 0
-534 -196 0
-534 -197 0
-534 -198 0
-534 -199 0
-534 -200 0
-534 -201 0
-534 -202 0
-534 -203 0
-534 -204 0
-534 -205 0
-534 -206 0
-534 -210 0
-534 -211 0
-534 -212 0
-534 -213 0
-534 -214 0
-534 -215 0
-534 -216 0
-534 -217 0
-534 -218 0
-534 -219 0
-534 -220 0
-534 -224 0
-535 -183 0
-535 -184 0
-535 -185 0
-535 -186 0
-535 -187 0
-535 -188 0
-535 -189 0
-535 -190 0
-535 -191 0
-535 -192 0
-535 -193 0
-535 -197 0
-535 -198 0
-535 -199 0
-535 -200 0
-535 -201 0
-535 -202 0
-535 -203 0
-535 -204 0
-535 -205 0
-535 -206 0
-535 -207 0
-535 -211 0
-535 -212 0
-535 -213 0
-535 -214 0
-535 -215 0
-535 -216 0
-535 -217 0
-535 -218 0
-535 -219 0
-535 -220 0
-535 -221 0
-225 -239 0
-225 -253 0
-239 -253 0
-226 -240 0
-226 -254 0
-240 -254 0
-227 -241 0
-227 -255 0
-241 -255 0
-228 -242 0
-228 -256 0
-242 -256 0
-229 -243 0
-229 -257 0
-243 -257 0
-230 -244 0
-230 -258 0
-244 -258 0
-231 -245 0
-231 -259 0
-245 -259 0
-232 -246 0
-232 -260 0
-246 -260 0
-233 -247 0
-233 -261 0
-247 -261 0
-234 -248 0
-234 -262 0
-248 -262 0
-235 -249 0
-235 -263 0
-249 -263 0
-236 -250 0
-236 -264 0
-250 -264 0
-237 -251 0
-237 -265 0
-251 -265 0
-238 -252 0
-238 -266 0
-252 -266 0
536 537 538 539 540 541 542 543 544 545 546 547 0
-536 -537 0
-536 -538 0
-536 -539 0
-536 -540 0
-536 -541 0
-536 -542 0
-536 -543 0
-536 -544 0
-536 -545 0
-536 -546 0
-536 -547 0
-537 -538 0
-537 -539 0
-537 -540 0
-537 -541 0
-537 -542 0
-537 -543 0
-537 -544 0
-537 -545 0
-537 -546 0
-537 -547 0
-538 -539 0
-538 -540 0
-538 -541 0
-538 -542 0
-538 -543 0
-538 -544 0
-538 -545 0
-538 -546 0
-538 -547 0
-539 -540 0
-539 -541 0
-539 -542 0
-539 -543 0
-539 -544 0
-539 -545 0
-539 -546 0
-539 -547 0
-540 -541 0
-540 -542 0
-540 -543 0
-540 -544 0
-540 -545 0
-540 -546 0
-540 -547 0
-541 -542 0
-541 -543 0
-541 -544 0
-541 -545 0
-541 -546 0
-541 -547 0
-542 -543 0
-542 -544 0
-542 -545 0
-542 -546 0
-542 -547 0
-543 -544 0
-543 -545 0
-543 -546 0
-543 -547 0
-544 -545 0
-544 -546 0
-544 -547 0
-545 -546 0
-545 -547 0
-546 -547 0
-225 536 0
-226 536 537 0
-227 536 537 538 0
-228 537 538 539 0
-229 538 539 540 0
-230 539 540 541 0
-231 540 541 542 0
-232 541 542 543 0
-233 542 543 544 0
-234 543 544 545 0
-235 544 545 546 0
-236 545 546 547 0
-237 546 547 0
-238 547 0
-239 536 0
-240 536 537 0
-241 536 537 538 0
-242 537 538 539 0
-243 538 539 540 0
-244 539 540 541 0
-245 540 541 542 0
-246 541 542 543 0
-247 542 543 544 0
-248 543 544 545 0
-249 544 545 546 0
-250 545 546 547 0
-251 546 547 0
-252 547 0
-253 536 0
-254 536 537 0
-255 536 537 538 0
-256 537 538 539 0
-257 538 539 540 0
-258 539 540 541 0
-259 540 541 542 0
-260 541 542 543 0
-261 542 543 544 0
-262 543 544 545 0
-263 544 545 546 0
-264 545 546 547 0
-265 546 547 0
-266 547 0
-536 -228 0
-536 -229 0
-536 -230 0
-536 -231 0
-536 -232 0
-536 -233 0
-536 -234 0
-536 -235 0
-536 -236 0
-536 -237 0
-536 -238 0
-536 -242 0
-536 -243 0
-536 -244 0
-536 -245 0
-536 -246 0
-536 -247 0
-536 -248 0
-536 -249 0
-536 -250 0
-536 -251 0
-536 -252 0
-536 -256 0
-536 -257 0
-536 -258 0
-536 -259 0
-536 -260 0
-536 -261 0
-536 -262 0
-536 -263 0
-536 -264 0
-536 -265 0
-536 -266 0
-537 -225 0
-537 -229 0
-537 -230 0
-537 -231 0
-537 -232 0
-537 -233 0
-537 -234 0
-537 -235 0
-537 -236 0
-537 -237 0
-537 -238 0
-537 -239 0
-537 -243 0
-537 -244 0
-537 -245 0
-537 -246 0
-537 -247 0
-537 -248 0
-537 -249 0
-537 -250 0
-537 -251 0
-537 -252 0
-537 -253 0
-537 -257 0
-537 -258 0
-537 -259 0
-537 -260 0
-537 -261 0
-537 -262 0
-537 -263 0
-537 -264 0
-537 -265 0
-537 -266 0
-538 -225 0
-538 -226 0
-538 -230 0
-538 -231 0
-538 -232 0
-538 -233 0
-538 -234 0
-538 -235 0
-538 -236 0
-538 -237 0
-538 -238 0
-538 -239 0
-538 -240 0
-538 -244 0
-538 -245 0
-538 -246 0
-538 -247 0
-538 -248 0
-538 -249 0
-538 -250 0
-538 -251 0
-538 -252 0
-538 -253 0
-538 -254 0
-538 -258 0
-538 -259 0
-538 -260 0
-538 -261 0
-538 -262 0
-538 -263 0
-538 -264 0
-538 -265 0
-538 -266 0
-539 -225 0
-539 -226 0
-539 -227 0
-539 -231 0
-539 -232 0
-539 -233 0
-539 -234 0
-539 -235 0
-539 -236 0
-539 -237 0
-539 -238 0
-539 -239 0
-539 -240 0
-539 -241 0
-539 -245 0
-539 -246 0
-539 -247 0
-539 -248 0
-539 -249 0
-539 -250 0
-539 -251 0
-539 -252 0
-539 -253 0
-539 -254 0
-539 -255 0
-539 -259 0
-539 -260 0
-539 -261 0
-539 -262 0
-539 -263 0
-539 -264 0
-539 -265 0
-539 -266 0
-540 -225 0
-540 -226 0
-540 -227 0
-540 -228 0
-540 -232 0
-540 -233 0
-540 -234 0
-540 -235 0
-540 -236 0
-540 -237 0
-540 -238 0
-540 -239 0
-540 -240 0
-540 -241 0
-540 -242 0
-540 -246 0
-540 -247 0
-540 -248 0
-540 -249 0
-540 -250 0
-540 -251 0
-540 -252 0
-540 -253 0
-540 -254 0
-540 -255 0
-540 -256 0
-540 -260 0
-540 -261 0
-540 -262 0
-540 -263 0
-540 -264 0
-540 -265 0
-540 -266 0
-541 -225 0
-541 -226 0
-541 -227 0
-541 -228 0
-541 -229 0
-541 -233 0
-541 -234 0
-541 -235 0
-541 -236 0
-541 -237 0
-541 -238 0
-541 -239 0
-541 -240 0
-541 -241 0
-541 -242 0
-541 -243 0
-541 -247 0
-541 -248 0
-541 -249 0
-541 -250 0
-541 -251 0
-541 -252 0
-541 -253 0
-541 -254 0
-541 -255 0
-541 -256 0
-541 -257 0
-541 -261 0
-541 -262 0
-541 -263 0
-541 -264 0
-541 -265 0
-541 -266 0
-542 -225 0
-542 -226 0
-542 -227 0
-542 -228 0
-542 -229 0
-542 -230 0
-542 -234 0
-542 -235 0
-542 -236 0
-542 -237 0
-542 -238 0
-542 -239 0
-542 -240 0
-542 -241 0
-542 -242 0
-542 -243 0
-542 -244 0
-542 -248 0
-542 -249 0
-542 -250 0
-542 -251 0
-542 -252 0
-542 -253 0
-542 -254 0
-542 -255 0
-542 -256 0
-542 -257 0
-542 -258 0
-542 -262 0
-542 -263 0
-542 -264 0
-542 -265 0
-542 -266 0
-543 -225 0
-543 -226 0
-543 -227 0
-543 -228 0
-543 -229 0
-543 -230 0
-543 -231 0
-543 -235 0
-543 -236 0
-543 -237 0
-543 -238 0
-543 -239 0
-543 -240 0
-543 -241 0
-543 -242 0
-543 -243 0
-543 -244 0
-543 -245 0
-543 -249 0
-543 -250 0
-543 -251 0
-543 -252 0
-543 -253 0
-543 -254 0
-543 -255 0
-543 -256 0
-543 -257 0
-543 -258 0
-543 -259 0
-543 -263 0
-543 -264 0
-543 -265 0
-543 -266 0
-544 -225 0
-544 -226 0
-544 -227 0
-544 -228 0
-544 -229 0
-544 -230 0
-544 -231 0
-544 -232 0
-544 -236 0
-544 -237 0
-544 -238 0
-544 -239 0
-544 -240 0
-544 -241 0
-544 -242 0
-544 -243 0
-544 -244 0
-544 -245 0
-544 -246 0
-544 -250 0
-544 -251 0
-544 -252 0
-544 -253 0
-544 -254 0
-544 -255 0
-544 -256 0
-544 -257 0
-544 -258 0
-544 -259 0
-544 -260 0
-544 -264 0
-544 -265 0
-544 -266 0
-545 -225 0
-545 -226 0
-545 -227 0
-545 -228 0
-545 -229 0
-545 -230 0
-545 -231 0
-545 -232 0
-545 -233 0
-545 -237 0
-545 -238 0
-545 -239 0
-545 -240 0
-545 -241 0
-545 -242 0
-545 -243 0
-545 -244 0
-545 -245 0
-545 -246 0
-545 -247 0
-545 -251 0
-545 -252 0
-545 -253 0
-545 -254 0
-545 -255 0
-545 -256 0
-545 -257 0
-545 -258 0
-545 -259 0
-545 -260 0
-545 -261 0
-545 -265 0
-545 -266 0
-546 -225 0
-546 -226 0
-546 -227 0
-546 -228 0
-546 -229 0
-546 -230 0
-546 -231 0
-546 -232 0
-546 -233 0
-546 -234 0
-546 -238 0
-546 -239 0
-546 -240 0
-546 -241 0
-546 -242 0
-546 -243 0
-546 -244 0
-546 -245 0
-546 -246 0
-546 -247 0
-546 -248 0
-546 -252 0
-546 -253 0
-546 -254 0
-546 -255 0
-546 -256 0
-546 -257 0
-546 -258 0
-546 -259 0
-546 -260 0
-546 -261 0
-546 -262 0
-546 -266 0
-547 -225 0
-547 -226 0
-547 -227 0
-547 -228 0
-547 -229 0
-547 -230 0
-547 -231 0
-547 -232 0
-547 -233 0
-547 -234 0
-547 -235 0
-547 -239 0
-547 -240 0
-547 -241 0
-547 -242 0
-547 -243 0
-547 -244 0
-547 -245 0
-547 -246 0
-547 -247 0
-547 -248 0
-547 -249 0
-547 -253 0
-547 -254 0
-547 -255 0
-547 -256 0
-547 -257 0
-547 -258 0
-547 -259 0
-547 -260 0
-547 -261 0
-547 -262 0
-547 -263 0
-267 -281 0
-267 -295 0
-281 -295 0
-268 -282 0
-268 -296 0
-282 -296 0
-269 -283 0
-269 -297 0
-283 -297 0
-270 -284 0
-270 -298 0
-284 -298 0
-271 -285 0
-271 -299 0
-285 -299 0
-272 -286 0
-272 -300 0
-286 -300 0
-273 -287 0
-273 -301 0
-287 -301 0
-274 -288 0
-274 -302 0
-288 -302 0
-275 -289 0
-275 -303 0
-289 -303 0
-276 -290 0
-276 -304 0
-290 -304 0
-277 -291 0
-277 -305 0
-291 -305 0
-278 -292 0
-278 -306 0
-292 -306 0
-279 -293 0
-279 -307 0
-293 -307 0
-280 -294 0
-280 -308 0
-294 -308 0
548 549 550 551 552 553 554 555 556 557 558 559 0
-548 -549 0
-548 -550 0
-548 -551 0
-548 -552 0
-548 -553 0
-548 -554 0
-548 -555 0
-548 -556 0
-548 -557 0
-548 -558 0
-548 -559 0
-549 -550 0
-549 -551 0
-549 -552 0
-549 -553 0
-549 -554 0
-549 -555 0
-549 -556 0
-549 -557 0
-549 -558 0
-549 -559 0
-550 -551 0
-550 -552 0
-550 -553 0
-550 -554 0
-550 -555 0
-550 -556 0
-550 -557 0
-550 -558 0
-550 -559 0
-551 -552 0
-551 -553 0
-551 -554 0
-551 -555 0
-551 -556 0
-551 -557 0
-551 -558 0
-551 -559 0
-552 -553 0
-552 -554 0
-552 -555 0
-552 -556 0
-552 -557 0
-552 -558 0
-552 -559 0
-553 -554 0
-553 -555 0
-553 -556 0
-553 -557 0
-553 -558 0
-553 -559 0
-554 -555 0
-554 -556 0
-554 -557 0
-554 -558 0
-554 -559 0
-555 -556 0
-555 -557 0
-555 -558 0
-555 -559 0
-556 -557 0
-556 -558 0
-556 -559 0
-557 -558 0
-557 -559 0
-558 -559 0
-267 548 0
-268 548 549 0
-269 548 549 550 0
-270 549 550 551 0
-271 550 551 552 0
-272 551 552 553 0
-273 552 553 554 0
-274 553 554 555 0
-275 554 555 556 0
-276 555 556 557 0
-277 556 557 558 0
-278 557 558 559 0
-279 558 559 0
-280 559 0
-281 548 0
-282 548 549 0
-283 548 549 550 0
-284 549 550 551 0
-285 550 551 552 0
-286 551 552 553 0
-287 552 553 554 0
-288 553 554 555 0
-289 554 555 556 0
-290 555 556 557 0
-291 556 557 558 0
-292 557 558 559 0
-293 558 559 0
-294 559 0
-295 548 0
-296 548 549 0
-297 548 549 550 0
-298 549 550 551 0
-299 550 551 552 0
-300 551 552 553 0
-301 552 553 554 0
-302 553 554 555 0
-303 554 555 556 0
-304 555 556 557 0
-305 556 557 558 0
-306 557 558 559 0
-307 558 559 0
-308 559 0
-548 -270 0
-548 -271 0
-548 -272 0
-548 -273 0
-548 -274 0
-548 -275 0
-548 -276 0
-548 -277 0
-548 -278 0
-548 -279 0
-548 -280 0
-548 -284 0
-548 -285 0
-548 -286 0
-548 -287 0
-548 -288 0
-548 -289 0
-548 -290 0
-548 -291 0
-548 -292 0
-548 -293 0
-548 -294 0
-548 -298 0
-548 -299 0
-548 -300 0
-548 -301 0
-548 -302 0
-548 -303 0
-548 -304 0
-548 -305 0
-548 -306 0
-548 -307 0
-548 -308 0
-549 -267 0
-549 -271 0
-549 -272 0
-549 -273 0
-549 -274 0
-549 -275 0
-549 -276 0
-549 -277 0
-549 -278 0
-549 -279 0
-549 -280 0
-549 -281 0
-549 -285 0
-549 -286 0
-549 -287 0
-549 -288 0
-549 -289 0
-549 -290 0
-549 -291 0
-549 -292 0
-549 -293 0
-549 -294 0
-549 -295 0
-549 -299 0
-549 -300 0
-549 -301 0
-549 -302 0
-549 -303 0
-549 -304 0
-549 -305 0
-549 -306 0
-549 -307 0
-549 -308 0
-550 -267 0
-550 -268 0
-550 -272 0
-550 -273 0
-550 -274 0
-550 -275 0
-550 -276 0
-550 -277 0
-550 -278 0
-550 -279 0
-550 -280 0
-550 -281 0
-550 -282 0
-550 -286 0
-550 -287 0
-550 -288 0
-550 -289 0
-550 -290 0
-550 -291 0
-550 -292 0
-550 -293 0
-550 -294 0
-550 -295 0
-550 -296 0
-550 -300 0
-550 -301 0
-550 -302 0
-550 -303 0
-550 -304 0
-550 -305 0
-550 -306 0
-550 -307 0
-550 -308 0
-551 -267 0
-551 -268 0
-551 -269 0
-551 -273 0
-551 -274 0
-551 -275 0
-551 -276 0
-551 -277 0
-551 -278 0
-551 -279 0
-551 -280 0
-551 -281 0
-551 -282 0
-551 -283 0
-551 -287 0
-551 -288 0
-551 -289 0
-551 -290 0
-551 -291 0
-551 -292 0
-551 -293 0
-551 -294 0
-551 -295 0
-551 -296 0
-551 -297 0
-551 -301 0
-551 -302 0
-551 -303 0
-551 -304 0
-551 -305 0
-551 -306 0
-551 -307 0
-551 -308 0
-552 -267 0
-552 -268 0
-552 -269 0
-552 -270 0
-552 -274 0
-552 -275 0
-552 -276 0
-552 -277 0
-552 -278 0
-552 -279 0
-552 -280 0
-552 -281 0
-552 -282 0
-552 -283 0
-552 -284 0
-552 -288 0
-552 -289 0
-552 -290 0
-552 -291 0
-552 -292 0
-552 -293 0
-552 -294 0
-552 -295 0
-552 -296 0
-552 -297 0
-552 -298 0
-552 -302 0
-552 -303 0
-552 -304 0
-552 -305 0
-552 -306 0
-552 -307 0
-552 -308 0
-553 -267 0
-553 -268 0
-553 -269 0
-553 -270 0
-553 -271 0
-553 -275 0
-553 -276 0
-553 -277 0
-553 -278 0
-553 -279 0
-553 -280 0
-553 -281 0
-553 -282 0
-553 -283 0
-553 -284 0
-553 -285 0
-553 -289 0
-553 -290 0
-553 -291 0
-553 -292 0
-553 -293 0
-553 -294 0
-553 -295 0
-553 -296 0
-553 -297 0
-553 -298 0
-553 -299 0
-553 -303 0
-553 -304 0
-553 -305 0
-553 -306 0
-553 -307 0
-553 -308 0
-554 -267 0
-554 -268 0
-554 -269 0
-554 -270 0
-554 -271 0
-554 -272 0
-554 -276 0
-554 -277 0
-554 -278 0
-554 -279 0
-554 -280 0
-554 -281 0
-554 -282 0
-554 -283 0
-554 -284 0
-554 -285 0
-554 -286 0
-554 -290 0
-554 -291 0
-554 -292 0
-554 -293 0
-554 -294 0
-554 -295 0
-554 -296 0
-554 -297 0
-554 -298 0
-554 -299 0
-554 -300 0
-554 -304 0
-554 -305 0
-554 -306 0
-554 -307 0
-554 -308 0
-555 -267 0
-555 -268 0
-555 -269 0
-555 -270 0
-555 -271 0
-555 -272 0
-555 -273 0
-555 -277 0
-555 -278 0
-555 -279 0
-555 -280 0
-555 -281 0
-555 -282 0
-555 -283 0
-555 -284 0
-555 -285 0
-555 -286 0
-555 -287 0
-555 -291 0
-555 -292 0
-555 -293 0
-555 -294 0
-555 -295 0
-555 -296 0
-555 -297 0
-555 -298 0
-555 -299 0
-555 -300 0
-555 -301 0
-555 -305 0
-555 -306 0
-555 -307 0
-555 -308 0
-556 -267 0
-556 -268 0
-556 -269 0
-556 -270 0
-556 -271 0
-556 -272 0
-556 -273 0
-556 -274 0
-556 -278 0
-556 -279 0
-556 -280 0
-556 -281 0
-556 -282 0
-556 -283 0
-556 -284 0
-556 -285 0
-556 -286 0
-556 -287 0
-556 -288 0
-556 -292 0
-556 -293 0
-556 -294 0
-556 -295 0
-556 -296 0
-556 -297 0
-556 -298 0
-556 -299 0
-556 -300 0
-556 -301 0
-556 -302 0
-556 -306 0
-556 -307 0
-556 -308 0
-557 -267 0
-557 -268 0
-557 -269 0
-557 -270 0
-557 -271 0
-557 -272 0
-557 -273 0
-557 -274 0
-557 -275 0
-557 -279 0
-557 -280 0
-557 -281 0
-557 -282 0
-557 -283 0
-557 -284 0
-557 -285 0
-557 -286 0
-557 -287 0
-557 -288 0
-557 -289 0
-557 -293 0
-557 -294 0
-557 -295 0
-557 -296 0
-557 -297 0
-557 -298 0
-557 -299 0
-557 -300 0
-557 -301 0
-557 -302 0
-557 -303 0
-557 -307 0
-557 -308 0
-558 -267 0
-558 -268 0
-558 -269 0
-558 -270 0
-558 -271 0
-558 -272 0
-558 -273 0
-558 -274 0
-558 -275 0
-558 -276 0
-558 -280 0
-558 -281 0
-558 -282 0
-558 -283 0
-558 -284 0
-558 -285 0
-558 -286 0
-558 -287 0
-558 -288 0
-558 -289 0
-558 -290 0
-558 -294 0
-558 -295 0
-558 -296 0
-558 -297 0
-558 -298 0
-558 -299 0
-558 -300 0
-558 -301 0
-558 -302 0
-558 -303 0
-558 -304 0
-558 -308 0
-559 -267 0
-559 -268 0
-559 -269 0
-559 -270 0
-559 -271 0
-559 -272 0
-559 -273 0
-559 -274 0
-559 -275 0
-559 -276 0
-559 -277 0
-559 -281 0
-559 -282 0
-559 -283 0
-559 -284 0
-559 -285 0
-559 -286 0
-559 -287 0
-559 -288 0
-559 -289 0
-559 -290 0
-559 -291 0
-559 -295 0
-559 -296 0
-559 -297 0
-559 -298 0
-559 -299 0
-559 -300 0
-559 -301 0
-559 -302 0
-559 -303 0
-559 -304 0
-559 -305 0
-309 -323 0
-309 -337 0
-323 -337 0
-310 -324 0
-310 -338 0
-324 -338 0
-311 -325 0
-311 -339 0
-325 -339 0
-312 -326 0
-312 -340 0
-326 -340 0
-313 -327 0
-313 -341 0
-327 -341 0
-314 -328 0
-314 -342 0
-328 -342 0
-315 -329 0
-315 -343 0
-329 -343 0
-316 -330 0
-316 -344 0
-330 -344 0
-317 -331 0
-317 -345 0
-331 -345 0
-318 -332 0
-318 -346 0
-332 -346 0
-319 -333 0
-319 -347 0
-333 -347 0
-320 -334 0
-320 -348 0
-334 -348 0
-321 -335 0
-321 -349 0
-335 -349 0
-322 -336 0
-322 -350 0
-336 -350 0
560 561 562 563 564 565 566 567 568 569 570 571 0
-560 -561 0
-560 -562 0
-560 -563 0
-560 -564 0
-560 -565 0
-560 -566 0
-560 -567 0
-560 -568 0
-560 -569 0
-560 -570 0
-560 -571 0
-561 -562 0
-561 -563 0
-561 -564 0
-561 -565 0
-561 -566 0
-561 -567 0
-561 -568 0
-561 -569 0
-561 -570 0
-561 -571 0
-562 -563 0
-562 -564 0
-562 -565 0
-562 -566 0
-562 -567 0
-562 -568 0
-562 -569 0
-562 -570 0
-562 -571 0
-563 -564 0
-563 -565 0
-563 -566 0
-563 -567 0
-563 -568 0
-563 -569 0
-563 -570 0
-563 -571 0
-564 -565 0
-564 -566 0
-564 -567 0
-564 -568 0
-564 -569 0
-564 -570 0
-564 -571 0
-565 -566 0
-565 -567 0
-565 -568 0
-565 -569 0
-565 -570 0
-565 -571 0
-566 -567 0
-566 -568 0
-566 -569 0
-566 -570 0
-566 -571 0
-567 -568 0
-567 -569 0
-567 -570 0
-567 -571 0
-568 -569 0
-568 -570 0
-568 -571 0
-569 -570 0
-569 -571 0
-570 -571 0
-309 560 0
-310 560 561 0
-311 560 561 562 0
-312 561 562 563 0
-313 562 563 564 0
-314 563 564 565 0
-315 564 565 566 0
-316 565 566 567 0
-317 566 567 568 0
-318 567 568 569 0
-319 568 569 570 0
-320 569 570 571 0
-321 570 571 0
-322 571 0
-323 560 0
-324 560 561 0
-325 560 561 562 0
-326 561 562 563 0
-327 562 563 564 0
-328 563 564 565 0
-329 564 565 566 0
-330 565 566 567 0
-331 566 567 568 0
-332 567 568 569 0
-333 568 569 570 0
-334 569 570 571 0
-335 570 571 0
-336 571 0
-337 560 0
-338 560 561 0
-339 560 561 562 0
-340 561 562 563 0
-341 562 563 564 0
-342 563 564 565 0
-343 564 565 566 0
-344 565 566 567 0
-345 566 567 568 0
-346 567 568 569 0
-347 568 569 570 0
-348 569 570 571 0
-349 570 571 0
-350 571 0
-560 -312 0
-560 -313 0
-560 -314 0
-560 -315 0
-560 -316 0
-560 -317 0
-560 -318 0
-560 -319 0
-560 -320 0
-560 -321 0
-560 -322 0
-560 -326 0
-560 -327 0
-560 -328 0
-560 -329 0
-560 -330 0
-560 -331 0
-560 -332 0
-560 -333 0
-560 -334 0
-560 -335 0
-560 -336 0
-560 -340 0
-560 -341 0
-560 -342 0
-560 -343 0
-560 -344 0
-560 -345 0
-560 -346 0
-560 -347 0
-560 -348 0
-560 -349 0
-560 -350 0
-561 -309 0
-561 -313 0
-561 -314 0
-561 -315 0
-561 -316 0
-561 -317 0
-561 -318 0
-561 -319 0
-561 -320 0
-561 -321 0
-561 -322 0
-561 -323 0
-561 -327 0
-561 -328 0
-561 -329 0
-561 -330 0
-561 -331 0
-561 -332 0
-561 -333 0
-561 -334 0
-561 -335 0
-561 -336 0
-561 -337 0
-561 -341 0
-561 -342 0
-561 -343 0
-561 -344 0
-561 -345 0
-561 -346 0
-561 -347 0
-561 -348 0
-561 -349 0
-561 -350 0
-562 -309 0
-562 -310 0
-562 -314 0
-562 -315 0
-562 -316 0
-562 -317 0
-562 -318 0
-562 -319 0
-562 -320 0
-562 -321 0
-562 -322 0
-562 -323 0
-562 -324 0
-562 -328 0
-562 -329 0
-562 -330 0
-562 -331 0
-562 -332 0
-562 -333 0
-562 -334 0
-562 -335 0
-562 -336 0
-562 -337 0
-562 -338 0
-562 -342 0
-562 -343 0
-562 -344 0
-562 -345 0
-562 -346 0
-562 -347 0
-562 -348 0
-562 -349 0
-562 -350 0
-563 -309 0
-563 -310 0
-563 -311 0
-563 -315 0
-563 -316 0
-563 -317 0
-563 -318 0
-563 -319 0
-563 -320 0
-563 -321 0
-563 -322 0
-563 -323 0
-563 -324 0
-563 -325 0
-563 -329 0
-563 -330 0
-563 -331 0
-563 -332 0
-563 -333 0
-563 -334 0
-563 -335 0
-563 -336 0
-563 -337 0
-563 -338 0
-563 -339 0
-563 -343 0
-563 -344 0
-563 -345 0
-563 -346 0
-563 -347 0
-563 -348 0
-563 -349 0
-563 -350 0
-564 -309 0
-564 -310 0
-564 -311 0
-564 -312 0
-564 -316 0
-564 -317 0
-564 -318 0
-564 -319 0
-564 -320 0
-564 -321 0
-564 -322 0
-564 -323 0
-564 -324 0
-564 -325 0
-564 -326 0
-564 -330 0
-564 -331 0
-564 -332 0
-564 -333 0
-564 -334 0
-564 -335 0
-564 -336 0
-564 -337 0
-564 -338 0
-564 -339 0
-564 -340 0
-564 -344 0
-564 -345 0
-564 -346 0
-564 -347 0
-564 -348 0
-564 -349 0
-564 -350 0
-565 -309 0
-565 -310 0
-565 -311 0
-565 -312 0
-565 -313 0
-565 -317 0
-565 -318 0
-565 -319 0
-565 -320 0
-565 -321 0
-565 -322 0
-565 -323 0
-565 -324 0
-565 -325 0
-565 -326 0
-565 -327 0
-565 -331 0
-565 -332 0
-565 -333 0
-565 -334 0
-565 -335 0
-565 -336 0
-565 -337 0
-565 -338 0
-565 -339 0
-565 -340 0
-565 -341 0
-565 -345 0
-565 -346 0
-565 -347 0
-565 -348 0
-565 -349 0
-565 -350 0
-566 -309 0
-566 -310 0
-566 -311 0
-566 -312 0
-566 -313 0
-566 -314 0
-566 -318 0
-566 -319 0
-566 -320 0
-566 -321 0
-566 -322 0
-566 -323 0
-566 -324 0
-566 -325 0
-566 -326 0
-566 -327 0
-566 -328 0
-566 -332 0
-566 -333 0
-566 -334 0
-566 -335 0
-566 -336 0
-566 -337 0
-566 -338 0
-566 -339 0
-566 -340 0
-566 -341 0
-566 -342 0
-566 -346 0
-566 -347 0
-566 -348 0
-566 -349 0
-566 -350 0
-567 -309 0
-567 -310 0
-567 -311 0
-567 -312 0
-567 -313 0
-567 -314 0
-567 -315 0
-567 -319 0
-567 -320 0
-567 -321 0
-567 -322 0
-567 -323 0
-567 -324 0
-567 -325 0
-567 -326 0
-567 -327 0
-567 -328 0
-567 -329 0
-567 -333 0
-567 -334 0
-567 -335 0
-567 -336 0
-567 -337 0
-567 -338 0
-567 -339 0
-567 -340 0
-567 -341 0
-567 -342 0
-567 -343 0
-567 -347 0
-567 -348 0
-567 -349 0
-567 -350 0
-568 -309 0
-568 -310 0
-568 -311 0
-568 -312 0
-568 -313 0
-568 -314 0
-568 -315 0
-568 -316 0
-568 -320 0
-568 -321 0
-568 -322 0
-568 -323 0
-568 -324 0
-568 -325 0
-568 -326 0
-568 -327 0
-568 -328 0
-568 -329 0
-568 -330 0
-568 -334 0
-568 -335 0
-568 -336 0
-568 -337 0
-568 -338 0
-568 -339 0
-568 -340 0
-568 -341 0
-568 -342 0
-568 -343 0
-568 -344 0
-568 -348 0
-568 -349 0
-568 -350 0
-569 -309 0
-569 -310 0
-569 -311 0
-569 -312 0
-569 -313 0
-569 -314 0
-569 -315 0
-569 -316 0
-569 -317 0
-569 -321 0
-569 -322 0
-569 -323 0
-569 -324 0
-569 -325 0
-569 -326 0
-569 -327 0
-569 -328 0
-569 -329 0
-569 -330 0
-569 -331 0
-569 -335 0
-569 -336 0
-569 -337 0
-569 -338 0
-569 -339 0
-569 -340 0
-569 -341 0
-569 -342 0
-569 -343 0
-569 -344 0
-569 -345 0
-569 -349 0
-569 -350 0
-570 -309 0
-570 -310 0
-570 -311 0
-570 -312 0
-570 -313 0
-570 -314 0
-570 -315 0
-570 -316 0
-570 -317 0
-570 -318 0
-570 -322 0
-570 -323 0
-570 -324 0
-570 -325 0
-570 -326 0
-570 -327 0
-570 -328 0
-570 -329 0
-570 -330 0
-570 -331 0
-570 -332 0
-570 -336 0
-570 -337 0
-570 -338 0
-570 -339 0
-570 -340 0
-570 -341 0
-570 -342 0
-570 -343 0
-570 -344 0
-570 -345 0
-570 -346 0
-570 -350 0
-571 -309 0
-571 -310 0
-571 -311 0
-571 -312 0
-571 -313 0
-571 -314 0
-571 -315 0
-571 -316 0
-571 -317 0
-571 -318 0
-571 -319 0
-571 -323 0
-571 -324 0
-571 -325 0
-571 -326 0
-571 -327 0
-571 -328 0
-571 -329 0
-571 -330 0
-571 -331 0
-571 -332 0
-571 -333 0
-571 -337 0
-571 -338 0
-571 -339 0
-571 -340 0
-571 -341 0
-571 -342 0
-571 -343 0
-571 -344 0
-571 -345 0
-571 -346 0
-571 -347 0
-351 -365 0
-351 -379 0
-365 -379 0
-352 -366 0
-352 -380 0
-366 -380 0
-353 -367 0
-353 -381 0
-367 -381 0
-354 -368 0
-354 -382 0
-368 -382 0
-355 -369 0
-355 -383 0
-369 -383 0
-356 -370 0
-356 -384 0
-370 -384 0
-357 -371 0
-357 -385 0
-371 -385 0
-358 -372 0
-358 -386 0
-372 -386 0
-359 -373 0
-359 -387 0
-373 -387 0
-360 -374 0
-360 -388 0
-374 -388 0
-361 -375 0
-361 -389 0
-375 -389 0
-362 -376 0
-362 -390 0
-376 -390 0
-363 -377 0
-363 -391 0
-377 -391 0
-364 -378 0
-364 -392 0
-378 -392 0
572 573 574 575 576 577 578 579 580 581 582 583 0
-572 -573 0
-572 -574 0
-572 -575 0
-572 -576 0
-572 -577 0
-572 -578 0
-572 -579 0
-572 -580 0
-572 -581 0
-572 -582 0
-572 -583 0
-573 -574 0
-573 -575 0
-573 -576 0
-573 -577 0
-573 -578 0
-573 -579 0
-573 -580 0
-573 -581 0
-573 -582 0
-573 -583 0
-574 -575 0
-574 -576 0
-574 -577 0
-574 -578 0
-574 -579 0
-574 -580 0
-574 -581 0
-574 -582 0
-574 -583 0
-575 -576 0
-575 -577 0
-575 -578 0
-575 -579 0
-575 -580 0
-575 -581 0
-575 -582 0
-575 -583 0
-576 -577 0
-576 -578 0
-576 -579 0
-576 -580 0
-576 -581 0
-576 -582 0
-576 -583 0
-577 -578 0
-577 -579 0
-577 -580 0
-577 -581 0
-577 -582 0
-577 -583 0
-578 -579 0
-578 -580 0
-578 -581 0
-578 -582 0
-578 -583 0
-579 -580 0
-579 -581 0
-579 -582 0
-579 -583 0
-580 -581 0
-580 -582 0
-580 -583 0
-581 -582 0
-581 -583 0
-582 -583 0
-351 572 0
-352 572 573 0
-353 572 573 574 0
-354 573 574 575 0
-355 574 575 576 0
-356 575 576 577 0
-357 576 577 578 0
-358 577 578 579 0
-359 578 579 580 0
-360 579 580 581 0
-361 580 581 582 0
-362 581 582 583 0
-363 582 583 0
-364 583 0
-365 572 0
-366 572 573 0
-367 572 573 574 0
-368 573 574 575 0
-369 574 575 576 0
-370 575 576 577 0
-371 576 577 578 0
-372 577 578 579 0
-373 578 579 580 0
-374 579 580 581 0
-375 580 581 582 0
-376 581 582 583 0
-377 582 583 0
-378 583 0
-379 572 0
-380 572 573 0
-381 572 573 574 0
-382 573 574 575 0
-383 574 575 576 0
-384 575 576 577 0
-385 576 577 578 0
-386 577 578 579 0
-387 578 579 580 0
-388 579 580 581 0
-389 580 581 582 0
-390 581 582 583 0
-391 582 583 0
-392 583 0
-572 -354 0
-572 -355 0
-572 -356 0
-572 -357 0
-572 -358 0
-572 -359 0
-572 -360 0
-572 -361 0
-572 -362 0
-572 -363 0
-572 -364 0
-572 -368 0
-572 -369 0
-572 -370 0
-572 -371 0
-572 -372 0
-572 -373 0
-572 -374 0
-572 -375 0
-572 -376 0
-572 -377 0
-572 -378 0
-572 -382 0
-572 -383 0
-572 -384 0
-572 -385 0
-572 -386 0
-572 -387 0
-572 -388 0
-572 -389 0
-572 -390 0
-572 -391 0
-572 -392 0
-573 -351 0
-573 -355 0
-573 -356 0
-573 -357 0
-573 -358 0
-573 -359 0
-573 -360 0
-573 -361 0
-573 -362 0
-573 -363 0
-573 -364 0
-573 -365 0
-573 -369 0
-573 -370 0
-573 -371 0
-573 -372 0
-573 -373 0
-573 -374 0
-573 -375 0
-573 -376 0
-573 -377 0
-573 -378 0
-573 -379 0
-573 -383 0
-573 -384 0
-573 -385 0
-573 -386 0
-573 -387 0
-573 -388 0
-573 -389 0
-573 -390 0
-573 -391 0
-573 -392 0
-574 -351 0
-574 -352 0
-574 -356 0
-574 -357 0
-574 -358 0
-574 -359 0
-574 -360 0
-574 -361 0
-574 -362 0
-574 -363 0
-574 -364 0
-574 -365 0
-574 -366 0
-574 -370 0
-574 -371 0
-574 -372 0
-574 -373 0
-574 -374 0
-574 -375 0
-574 -376 0
-574 -377 0
-574 -378 0
-574 -379 0
-574 -380 0
-574 -384 0
-574 -385 0
-574 -386 0
-574 -387 0
-574 -388 0
-574 -389 0
-574 -390 0
-574 -391 0
-574 -392 0
-575 -351 0
-575 -352 0
-575 -353 0
-575 -357 0
-575 -358 0
-575 -359 0
-575 -360 0
-575 -361 0
-575 -362 0
-575 -363 0
-575 -364 0
-575 -365 0
-575 -366 0
-575 -367 0
-575 -371 0
-575 -372 0
-575 -373 0
-575 -374 0
-575 -375 0
-575 -376 0
-575 -377 0
-575 -378 0
-575 -379 0
-575 -380 0
-575 -381 0
-575 -385 0
-575 -386 0
-575 -387 0
-575 -388 0
-575 -389 0
-575 -390 0
-575 -391 0
-575 -392 0
-576 -351 0
-576 -352 0
-576 -353 0
-576 -354 0
-576 -358 0
-576 -359 0
-576 -360 0
-576 -361 0
-576 -362 0
-576 -363 0
-576 -364 0
-576 -365 0
-576 -366 0
-576 -367 0
-576 -368 0
-576 -372 0
-576 -373 0
-576 -374 0
-576 -375 0
-576 -376 0
-576 -377 0
-576 -378 0
-576 -379 0
-576 -380 0
-576 -381 0
-576 -382 0
-576 -386 0
-576 -387 0
-576 -388 0
-576 -389 0
-576 -390 0
-576 -391 0
-576 -392 0
-577 -351 0
-577 -352 0
-577 -353 0
-577 -354 0
-577 -355 0
-577 -359 0
-577 -360 0
-577 -361 0
-577 -362 0
-577 -363 0
-577 -364 0
-577 -365 0
-577 -366 0
-577 -367 0
-577 -368 0
-577 -369 0
-577 -373 0
-577 -374 0
-577 -375 0
-577 -376 0
-577 -377 0
-577 -378 0
-577 -379 0
-577 -380 0
-577 -381 0
-577 -382 0
-577 -383 0
-577 -387 0
-577 -388 0
-577 -389 0
-577 -390 0
-577 -391 0
-577 -392 0
-578 -351 0
-578 -352 0
-578 -353 0
-578 -354 0
-578 -355 0
-578 -356 0
-578 -360 0
-578 -361 0
-578 -362 0
-578 -363 0
-578 -364 0
-578 -365 0
-578 -366 0
-578 -367 0
-578 -368 0
-578 -369 0
-578 -370 0
-578 -374 0
-578 -375 0
-578 -376 0
-578 -377 0
-578 -378 0
-578 -379 0
-578 -380 0
-578 -381 0
-578 -382 0
-578 -383 0
-578 -384 0
-578 -388 0
-578 -389 0
-578 -390 0
-578 -391 0
-578 -392 0
-579 -351 0
-579 -352 0
-579 -353 0
-579 -354 0
-579 -355 0
-579 -356 0
-579 -357 0
-579 -361 0
-579 -362 0
-579 -363 0
-579 -364 0
-579 -365 0
-579 -366 0
-579 -367 0
-579 -368 0
-579 -369 0
-579 -370 0
-579 -371 0
-579 -375 0
-579 -376 0
-579 -377 0
-579 -378 0
-579 -379 0
-579 -380 0
-579 -381 0
-579 -382 0
-579 -383 0
-579 -384 0
-579 -385 0
-579 -389 0
-579 -390 0
-579 -391 0
-579 -392 0
-580 -351 0
-580 -352 0
-580 -353 0
-580 -354 0
-580 -355 0
-580 -356 0
-580 -357 0
-580 -358 0
-580 -362 0
-580 -363 0
-580 -364 0
-580 -365 0
-580 -366 0
-580 -367 0
-580 -368 0
-580 -369 0
-580 -370 0
-580 -371 0
-580 -372 0
-580 -376 0
-580 -377 0
-580 -378 0
-580 -379 0
-580 -380 0
-580 -381 0
-580 -382 0
-580 -383 0
-580 -384 0
-580 -385 0
-580 -386 0
-580 -390 0
-580 -391 0
-580 -392 0
-581 -351 0
-581 -352 0
-581 -353 0
-581 -354 0
-581 -355 0
-581 -356 0
-581 -357 0
-581 -358 0
-581 -359 0
-581 -363 0
-581 -364 0
-581 -365 0
-581 -366 0
-581 -367 0
-581 -368 0
-581 -369 0
-581 -370 0
-581 -371 0
-581 -372 0
-581 -373 0
-581 -377 0
-581 -378 0
-581 -379 0
-581 -380 0
-581 -381 0
-581 -382 0
-581 -383 0
-581 -384 0
-581 -385 0
-581 -386 0
-581 -387 0
-581 -391 0
-581 -392 0
-582 -351 0
-582 -352 0
-582 -353 0
-582 -354 0
-582 -355 0
-582 -356 0
-582 -357 0
-582 -358 0
-582 -359 0
-582 -360 0
-582 -364 0
-582 -365 0
-582 -366 0
-582 -367 0
-582 -368 0
-582 -369 0
-582 -370 0
-582 -371 0
-582 -372 0
-582 -373 0
-582 -374 0
-582 -378 0
-582 -379 0
-582 -380 0
-582 -381 0
-582 -382 0
-582 -383 0
-582 -384 0
-582 -385 0
-582 -386 0
-582 -387 0
-582 -388 0
-582 -392 0
-583 -351 0
-583 -352 0
-583 -353 0
-583 -354 0
-583 -355 0
-583 -356 0
-583 -357 0
-583 -358 0
-583 -359 0
-583 -360 0
-583 -361 0
-583 -365 0
-583 -366 0
-583 -367 0
-583 -368 0
-583 -369 0
-583 -370 0
-583 -371 0
-583 -372 0
-583 -373 0
-583 -374 0
-583 -375 0
-583 -379 0
-583 -380 0
-583 -381 0
-583 -382 0
-583 -383 0
-583 -384 0
-583 -385 0
-583 -386 0
-583 -387 0
-583 -388 0
-583 -389 0
-393 -407 0
-393 -421 0
-407 -421 0
-394 -408 0
-394 -422 0
-408 -422 0
-395 -409 0
-395 -423 0
-409 -423 0
-396 -410 0
-396 -424 0
-410 -424 0
-397 -411 0
-397 -425 0
-411 -425 0
-398 -412 0
-398 -426 0
-412 -426 0
-399 -413 0
-399 -427 0
-413 -427 0
-400 -414 0
-400 -428 0
-414 -428 0
-401 -415 0
-401 -429 0
-415 -429 0
-402 -416 0
-402 -430 0
-416 -430 0
-403 -417 0
-403 -431 0
-417 -431 0
-404 -418 0
-404 -432 0
-418 -432 0
-405 -419 0
-405 -433 0
-419 -433 0
-406 -420 0
-406 -434 0
-420 -434 0
584 585 586 587 588 589 590 591 592 593 594 595 0
-584 -585 0
-584 -586 0
-584 -587 0
-584 -588 0
-584 -589 0
-584 -590 0
-584 -591 0
-584 -592 0
-584 -593 0
-584 -594 0
-584 -595 0
-585 -586 0
-585 -587 0
-585 -588 0
-585 -589 0
-585 -590 0
-585 -591 0
-585 -592 0
-585 -593 0
-585 -594 0
-585 -595 0
-586 -587 0
-586 -588 0
-586 -589 0
-586 -590 0
-586 -591 0
-586 -592 0
-586 -593 0
-586 -594 0
-586 -595 0
-587 -588 0
-587 -589 0
-587 -590 0
-587 -591 0
-587 -592 0
-587 -593 0
-587 -594 0
-587 -595 0
-588 -589 0
-588 -590 0
-588 -591 0
-588 -592 0
-588 -593 0
-588 -594 0
-588 -595 0
-589 -590 0
-589 -591 0
-589 -592 0
-589 -593 0
-589 -594 0
-589 -595 0
-590 -591 0
-590 -592 0
-590 -593 0
-590 -594 0
-590 -595 0
-591 -592 0
-591 -593 0
-591 -594 0
-591 -595 0
-592 -593 0
-592 -594 0
-592 -595 0
-593 -594 0
-593 -595 0
-594 -595 0
-393 584 0
-394 584 585 0
-395 584 585 586 0
-396 585 586 587 0
-397 586 587 588 0
-398 587 588 589 0
-399 588 589 590 0
-400 589 590 591 0
-401 590 591 592 0
-402 591 592 593 0
-403 592 593 594 0
-404 593 594 595 0
-405 594 595 0
-406 595 0
-407 584 0
-408 584 585 0
-409 584 585 586 0
-410 585 586 587 0
-411 586 587 588 0
-412 587 588 589 0
-413 588 589 590 0
-414 589 590 591 0
-415 590 591 592 0
-416 591 592 593 0
-417 592 593 594 0
-418 593 594 595 0
-419 594 595 0
-420 595 0
-421 584 0
-422 584 585 0
-423 584 585 586 0
-424 585 586 587 0
-425 586 587 588 0
-426 587 588 589 0
-427 588 589 590 0
-428 589 590 591 0
-429 590 591 592 0
-430 591 592 593 0
-431 592 593 594 0
-432 593 594 595 0
-433 594 595 0
-434 595 0
-584 -396 0
-584 -397 0
-584 -398 0
-584 -399 0
-584 -400 0
-584 -401 0
-584 -402 0
-584 -403 0
-584 -404 0
-584 -405 0
-584 -406 0
-584 -410 0
-584 -411 0
-584 -412 0
-584 -413 0
-584 -414 0
-584 -415 0
-584 -416 0
-584 -417 0
-584 -418 0
-584 -419 0
-584 -420 0
-584 -424 0
-584 -425 0
-584 -426 0
-584 -427 0
-584 -428 0
-584 -429 0
-584 -430 0
-584 -431 0
-584 -432 0
-584 -433 0
-584 -434 0
-585 -393 0
-585 -397 0
-585 -398 0
-585 -399 0
-585 -400 0
-585 -401 0
-585 -402 0
-585 -403 0
-585 -404 0
-585 -405 0
-585 -406 0
-585 -407 0
-585 -411 0
-585 -412 0
-585 -413 0
-585 -414 0
-585 -415 0
-585 -416 0
-585 -417 0
-585 -418 0
-585 -419 0
-585 -420 0
-585 -421 0
-585 -425 0
-585 -426 0
-585 -427 0
-585 -428 0
-585 -429 0
-585 -430 0
-585 -431 0
-585 -432 0
-585 -433 0
-585 -434 0
-586 -393 0
-586 -394 0
-586 -398 0
-586 -399 0
-586 -400 0
-586 -401 0
-586 -402 0
-586 -403 0
-586 -404 0
-586 -405 0
-586 -406 0
-586 -407 0
-586 -408 0
-586 -412 0
-586 -413 0
-586 -414 0
-586 -415 0
-586 -416 0
-586 -417 0
-586 -418 0
-586 -419 0
-586 -420 0
-586 -421 0
-586 -422 0
-586 -426 0
-586 -427 0
-586 -428 0
-586 -429 0
-586 -430 0
-586 -431 0
-586 -432 0
-586 -433 0
-586 -434 0
-587 -393 0
-587 -394 0
-587 -395 0
-587 -399 0
-587 -400 0
-587 -401 0
-587 -402 0
-587 -403 0
-587 -404 0
-587 -405 0
-587 -406 0
-587 -407 0
-587 -408 0
-587 -409 0
-587 -413 0
-587 -414 0
-587 -415 0
-587 -416 0
-587 -417 0
-587 -418 0
-587 -419 0
-587 -420 0
-587 -421 0
-587 -422 0
-587 -423 0
-587 -427 0
-587 -428 0
-587 -429 0
-587 -430 0
-587 -431 0
-587 -432 0
-587 -433 0
-587 -434 0
-588 -393 0
-588 -394 0
-588 -395 0
-588 -396 0
-588 -400 0
-588 -401 0
-588 -402 0
-588 -403 0
-588 -404 0
-588 -405 0
-588 -406 0
-588 -407 0
-588 -408 0
-588 -409 0
-588 -410 0
-588 -414 0
-588 -415 0
-588 -416 0
-588 -417 0
-588 -418 0
-588 -419 0
-588 -420 0
-588 -421 0
-588 -422 0
-588 -423 0
-588 -424 0
-588 -428 0
-588 -429 0
-588 -430 0
-588 -431 0
-588 -432 0
-588 -433 0
-588 -434 0
-589 -393 0
-589 -394 0
-589 -395 0
-589 -396 0
-589 -397 0
-589 -401 0
-589 -402 0
-589 -403 0
-589 -404 0
-589 -405 0
-589 -406 0
-589 -407 0
-589 -408 0
-589 -409 0
-589 -410 0
-589 -411 0
-589 -415 0
-589 -416 0
-589 -417 0
-589 -418 0
-589 -419 0
-589 -420 0
-589 -421 0
-589 -422 0
-589 -423 0
-589 -424 0
-589 -425 0
-589 -429 0
-589 -430 0
-589 -431 0
-589 -432 0
-589 -433 0
-589 -434 0
-590 -393 0
-590 -394 0
-590 -395 0
-590 -396 0
-590 -397 0
-590 -398 0
-590 -402 0
-590 -403 0
-590 -404 0
-590 -405 0
-590 -406 0
-590 -407 0
-590 -408 0
-590 -409 0
-590 -410 0
-590 -411 0
-590 -412 0
-590 -416 0
-590 -417 0
-590 -418 0
-590 -419 0
-590 -420 0
-590 -421 0
-590 -422 0
-590 -423 0
-590 -424 0
-590 -425 0
-590 -426 0
-590 -430 0
-590 -431 0
-590 -432 0
-590 -433 0
-590 -434 0
-591 -393 0
-591 -394 0
-591 -395 0
-591 -396 0
-591 -397 0
-591 -398 0
-591 -399 0
-591 -403 0
-591 -404 0
-591 -405 0
-591 -406 0
-591 -407 0
-591 -408 0
-591 -409 0
-591 -410 0
-591 -411 0
-591 -412 0
-591 -413 0
-591 -417 0
-591 -418 0
-591 -419 0
-591 -420 0
-591 -421 0
-591 -422 0
-591 -423 0
-591 -424 0
-591 -425 0
-591 -426 0
-591 -427 0
-591 -431 0
-591 -432 0
-591 -433 0
-591 -434 0
-592 -393 0
-592 -394 0
-592 -395 0
-592 -396 0
-592 -397 0
-592 -398 0
-592 -399 0
-592 -400 0
-592 -404 0
-592 -405 0
-592 -406 0
-592 -407 0
-592 -408 0
-592 -409 0
-592 -410 0
-592 -411 0
-592 -412 0
-592 -413 0
-592 -414 0
-592 -418 0
-592 -419 0
-592 -420 0
-592 -421 0
-592 -422 0
-592 -423 0
-592 -424 0
-592 -425 0
-592 -426 0
-592 -427 0
-592 -428 0
-592 -432 0
-592 -433 0
-592 -434 0
-593 -393 0
-593 -394 0
-593 -395 0
-593 -396 0
-593 -397 0
-593 -398 0
-593 -399 0
-593 -400 0
-593 -401 0
-593 -405 0
-593 -406 0
-593 -407 0
-593 -408 0
-593 -409 0
-593 -410 0
-593 -411 0
-593 -412 0
-593 -413 0
-593 -414 0
-593 -415 0
-593 -419 0
-593 -420 0
-593 -421 0
-593 -422 0
-593 -423 0
-593 -424 0
-593 -425 0
-593 -426 0
-593 -427 0
-593 -428 0
-593 -429 0
-593 -433 0
-593 -434 0
-594 -393 0
-594 -394 0
-594 -395 0
-594 -396 0
-594 -397 0
-594 -398 0
-594 -399 0
-594 -400 0
-594 -401 0
-594 -402 0
-594 -406 0
-594 -407 0
-594 -408 0
-594 -409 0
-594 -410 0
-594 -411 0
-594 -412 0
-594 -413 0
-594 -414 0
-594 -415 0
-594 -416 0
-594 -420 0
-594 -421 0
-594 -422 0
-594 -423 0
-594 -424 0
-594 -425 0
-594 -426 0
-594 -427 0
-594 -428 0
-594 -429 0
-594 -430 0
-594 -434 0
-595 -393 0
-595 -394 0
-595 -395 0
-595 -396 0
-595 -397 0
-595 -398 0
-595 -399 0
-595 -400 0
-595 -401 0
-595 -402 0
-595 -403 0
-595 -407 0
-595 -408 0
-595 -409 0
-595 -410 0
-595 -411 0
-595 -412 0
-595 -413 0
-595 -414 0
-595 -415 0
-595 -416 0
-595 -417 0
-595 -421 0
-595 -422 0
-595 -423 0
-595 -424 0
-595 -425 0
-595 -426 0
-595 -427 0
-595 -428 0
-595 -429 0
-595 -430 0
-595 -431 0
-435 -449 0
-435 -463 0
-449 -463 0
-436 -450 0
-436 -464 0
-450 -464 0
-437 -451 0
-437 -465 0
-451 -465 0
-438 -452 0
-438 -466 0
-452 -466 0
-439 -453 0
-439 -467 0
-453 -467 0
-440 -454 0
-440 -468 0
-454 -468 0
-441 -455 0
-441 -469 0
-455 -469 0
-442 -456 0
-442 -470 0
-456 -470 0
-443 -457 0
-443 -471 0
-457 -471 0
-444 -458 0
-444 -472 0
-458 -472 0
-445 -459 0
-445 -473 0
-459 -473 0
-446 -460 0
-446 -474 0
-460 -474 0
-447 -461 0
-447 -475 0
-461 -475 0
-448 -462 0
-448 -476 0
-462 -476 0
596 597 598 599 600 601 602 603 604 605 606 607 0
-596 -597 0
-596 -598 0
-596 -599 0
-596 -600 0
-596 -601 0
-596 -602 0
-596 -603 0
-596 -604 0
-596 -605 0
-596 -606 0
-596 -607 0
-597 -598 0
-597 -599 0
-597 -600 0
-597 -601 0
-597 -602 0
-597 -603 0
-597 -604 0
-597 -605 0
-597 -606 0
-597 -607 0
-598 -599 0
-598 -600 0
-598 -601 0
-598 -602 0
-598 -603 0
-598 -604 0
-598 -605 0
-598 -606 0
-598 -607 0
-599 -600 0
-599 -601 0
-599 -602 0
-599 -603 0
-599 -604 0
-599 -605 0
-599 -606 0
-599 -607 0
-600 -601 0
-600 -602 0
-600 -603 0
-600 -604 0
-600 -605 0
-600 -606 0
-600 -607 0
-601 -602 0
-601 -603 0
-601 -604 0
-601 -605 0
-601 -606 0
-601 -607 0
-602 -603 0
-602 -604 0
-602 -605 0
-602 -606 0
-602 -607 0
-603 -604 0
-603 -605 0
-603 -606 0
-603 -607 0
-604 -605 0
-604 -606 0
-604 -607 0
-605 -606 0
-605 -607 0
-606 -607 0
-435 596 0
-436 596 597 0
-437 596 597 598 0
-438 597 598 599 0
-439 598 599 600 0
-440 599 600 601 0
-441 600 601 602 0
-442 601 602 603 0
-443 602 603 604 0
-444 603 604 605 0
-445 604 605 606 0
-446 605 606 607 0
-447 606 607 0
-448 607 0
-449 596 0
-450 596 597 0
-451 596 597 598 0
-452 597 598 599 0
-453 598 599 600 0
-454 599 600 601 0
-455 600 601 602 0
-456 601 602 603 0
-457 602 603 604 0
-458 603 604 605 0
-459 604 605 606 0
-460 605 606 607 0
-461 606 607 0
-462 607 0
-463 596 0
-464 596 597 0
-465 596 597 598 0
-466 597 598 599 0
-467 598 599 600 0
-468 599 600 601 0
-469 600 601 602 0
-470 601 602 603 0
-471 602 603 604 0
-472 603 604 605 0
-473 604 605 606 0
-474 605 606 607 0
-475 606 607 0
-476 607 0
-596 -438 0
-596 -439 0
-596 -440 0
-596 -441 0
-596 -442 0
-596 -443 0
-596 -444 0
-596 -445 0
-596 -446 0
-596 -447 0
-596 -448 0
-596 -452 0
-596 -453 0
-596 -454 0
-596 -455 0
-596 -456 0
-596 -457 0
-596 -458 0
-596 -459 0
-596 -460 0
-596 -461 0
-596 -462 0
-596 -466 0
-596 -467 0
-596 -468 0
-596 -469 0
-596 -470 0
-596 -471 0
-596 -472 0
-596 -473 0
-596 -474 0
-596 -475 0
-596 -476 0
-597 -435 0
-597 -439 0
-597 -440 0
-597 -441 0
-597 -442 0
-597 -443 0
-597 -444 0
-597 -445 0
-597 -446 0
-597 -447 0
-597 -448 0
-597 -449 0
-597 -453 0
-597 -454 0
-597 -455 0
-597 -456 0
-597 -457 0
-597 -458 0
-597 -459 0
-597 -460 0
-597 -461 0
-597 -462 0
-597 -463 0
-597 -467 0
-597 -468 0
-597 -469 0
-597 -470 0
-597 -471 0
-597 -472 0
-597 -473 0
-597 -474 0
-597 -475 0
-597 -476 0
-598 -435 0
-598 -436 0
-598 -440 0
-598 -441 0
-598 -442 0
-598 -443 0
-598 -444 0
-598 -445 0
-598 -446 0
-598 -447 0
-598 -448 0
-598 -449 0
-598 -450 0
-598 -454 0
-598 -455 0
-598 -456 0
-598 -457 0
-598 -458 0
-598 -459 0
-598 -460 0
-598 -461 0
-598 -462 0
-598 -463 0
-598 -464 0
-598 -468 0
-598 -469 0
-598 -470 0
-598 -471 0
-598 -472 0
-598 -473 0
-598 -474 0
-598 -475 0
-598 -476 0
-599 -435 0
-599 -436 0
-599 -437 0
-599 -441 0
-599 -442 0
-599 -443 0
-599 -444 0
-599 -445 0
-599 -446 0
-599 -447 0
-599 -448 0
-599 -449 0
-599 -450 0
-599 -451 0
-599 -455 0
-599 -456 0
-599 -457 0
-599 -458 0
-599 -459 0
-599 -460 0
-599 -461 0
-599 -462 0
-599 -463 0
-599 -464 0
-599 -465 0
-599 -469 0
-599 -470 0
-599 -471 0
-599 -472 0
-599 -473 0
-599 -474 0
-599 -475 0
-599 -476 0
-600 -435 0
-600 -436 0
-600 -437 0
-600 -438 0
-600 -442 0
-600 -443 0
-600 -444 0
-600 -445 0
-600 -446 0
-600 -447 0
-600 -448 0
-600 -449 0
-600 -450 0
-600 -451 0
-600 -452 0
-600 -456 0
-600 -457 0
-600 -458 0
-600 -459 0
-600 -460 0
-600 -461 0
-600 -462 0
-600 -463 0
-600 -464 0
-600 -465 0
-600 -466 0
-600 -470 0
-600 -471 0
-600 -472 0
-600 -473 0
-600 -474 0
-600 -475 0
-600 -476 0
-601 -435 0
-601 -436 0
-601 -437 0
-601 -438 0
-601 -439 0
-601 -443 0
-601 -444 0
-601 -445 0
-601 -446 0
-601 -447 0
-601 -448 0
-601 -449 0
-601 -450 0
-601 -451 0
-601 -452 0
-601 -453 0
-601 -457 0
-601 -458 0
-601 -459 0
-601 -460 0
-601 -461 0
-601 -462 0
-601 -463 0
-601 -464 0
-601 -465 0
-601 -466 0
-601 -467 0
-601 -471 0
-601 -472 0
-601 -473 0
-601 -474 0
-601 -475 0
-601 -476 0
-602 -435 0
-602 -436 0
-602 -437 0
-602 -438 0
-602 -439 0
-602 -440 0
-602 -444 0
-602 -445 0
-602 -446 0
-602 -447 0
-602 -448 0
-602 -449 0
-602 -450 0
-602 -451 0
-602 -452 0
-602 -453 0
-602 -454 0
-602 -458 0
-602 -459 0
-602 -460 0
-602 -461 0
-602 -462 0
-602 -463 0
-602 -464 0
-602 -465 0
-602 -466 0
-602 -467 0
-602 -468 0
-602 -472 0
-602 -473 0
-602 -474 0
-602 -475 0
-602 -476 0
-603 -435 0
-603 -436 0
-603 -437 0
-603 -438 0
-603 -439 0
-603 -440 0
-603 -441 0
-603 -445 0
-603 -446 0
-603 -447 0
-603 -448 0
-603 -449 0
-603 -450 0
-603 -451 0
-603 -452 0
-603 -453 0
-603 -454 0
-603 -455 0
-603 -459 0
-603 -460 0
-603 -461 0
-603 -462 0
-603 -463 0
-603 -464 0
-603 -465 0
-603 -466 0
-603 -467 0
-603 -468 0
-603 -469 0
-603 -473 0
-603 -474 0
-603 -475 0
-603 -476 0
-604 -435 0
-604 -436 0
-604 -437 0
-604 -438 0
-604 -439 0
-604 -440 0
-604 -441 0
-604 -442 0
-604 -446 0
-604 -447 0
-604 -448 0
-604 -449 0
-604 -450 0
-604 -451 0
-604 -452 0
-604 -453 0
-604 -454 0
-604 -455 0
-604 -456 0
-604 -460 0
-604 -461 0
-604 -462 0
-604 -463 0
-604 -464 0
-604 -465 0
-604 -466 0
-604 -467 0
-604 -468 0
-604 -469 0
-604 -470 0
-604 -474 0
-604 -475 0
-604 -476 0
-605 -435 0
-605 -436 0
-605 -437 0
-605 -438 0
-605 -439 0
-605 -440 0
-605 -441 0
-605 -442 0
-605 -443 0
-605 -447 0
-605 -448 0
-605 -449 0
-605 -450 0
-605 -451 0
-605 -452 0
-605 -453 0
-605 -454 0
-605 -455 0
-605 -456 0
-605 -457 0
-605 -461 0
-605 -462 0
-605 -463 0
-605 -464 0
-605 -465 0
-605 -466 0
-605 -467 0
-605 -468 0
-605 -469 0
-605 -470 0
-605 -471 0
-605 -475 0
-605 -476 0
-606 -435 0
-606 -436 0
-606 -437 0
-606 -438 0
-606 -439 0
-606 -440 0
-606 -441 0
-606 -442 0
-606 -443 0
-606 -444 0
-606 -448 0
-606 -449 0
-606 -450 0
-606 -451 0
-606 -452 0
-606 -453 0
-606 -454 0
-606 -455 0
-606 -456 0
-606 -457 0
-606 -458 0
-606 -462 0
-606 -463 0
-606 -464 0
-606 -465 0
-606 -466 0
-606 -467 0
-606 -468 0
-606 -469 0
-606 -470 0
-606 -471 0
-606 -472 0
-606 -476 0
-607 -435 0
-607 -436 0
-607 -437 0
-607 -438 0
-607 -439 0
-607 -440 0
-607 -441 0
-607 -442 0
-607 -443 0
-607 -444 0
-607 -445 0
-607 -449 0
-607 -450 0
-607 -451 0
-607 -452 0
-607 -453 0
-607 -454 0
-607 -455 0
-607 -456 0
-607 -457 0
-607 -458 0
-607 -459 0
-607 -463 0
-607 -464 0
-607 -465 0
-607 -466 0
-607 -467 0
-607 -468 0
-607 -469 0
-607 -470 0
-607 -471 0
-607 -472 0
-607 -473 0
-43 -85 0
-43 -127 0
-43 -169 0
-43 -211 0
-43 -253 0
-43 -295 0
-43 -337 0
-43 -379 0
-43 -421 0
-43 -463 0
-85 -127 0
-85 -169 0
-85 -211 0
-85 -253 0
-85 -295 0
-85 -337 0
-85 -379 0
-85 -421 0
-85 -463 0
-127 -169 0
-127 -211 0
-127 -253 0
-127 -295 0
-127 -337 0
-127 -379 0
-127 -421 0
-127 -463 0
-169 -211 0
-169 -253 0
-169 -295 0
-169 -337 0
-169 -379 0
-169 -421 0
-169 -463 0
-211 -253 0
-211 -295 0
-211 -337 0
-211 -379 0
-211 -421 0
-211 -463 0
-253 -295 0
-253 -337 0
-253 -379 0
-253 -421 0
-253 -463 0
-295 -337 0
-295 -379 0
-295 -421 0
-295 -463 0
-337 -379 0
-337 -421 0
-337 -463 0
-379 -421 0
-379 -463 0
-421 -463 0
-44 -86 0
-44 -128 0
-44 -170 0
-44 -212 0
-44 -254 0
-44 -296 0
-44 -338 0
-44 -380 0
-44 -422 0
-44 -464 0
-86 -128 0
-86 -170 0
-86 -212 0
-86 -254 0
-86 -296 0
-86 -338 0
-86 -380 0
-86 -422 0
-86 -464 0
-128 -170 0
-128 -212 0
-128 -254 0
-128 -296 0
-128 -338 0
-128 -380 0
-128 -422 0
-128 -464 0
-170 -212 0
-170 -254 0
-170 -296 0
-170 -338 0
-170 -380 0
-170 -422 0
-170 -464 0
-212 -254 0
-212 -296 0
-212 -338 0
-212 -380 0
-212 -422 0
-212 -464 0
-254 -296 0
-254 -338 0
-254 -380 0
-254 -422 0
-254 -464 0
-296 -338 0
-296 -380 0
-296 -422 0
-296 -464 0
-338 -380 0
-338 -422 0
-338 -464 0
-380 -422 0
-380 -464 0
-422 -464 0
-45 -87 0
-45 -129 0
-45 -171 0
-45 -213 0
-45 -255 0
-45 -297 0
-45 -339 0
-45 -381 0
-45 -423 0
-45 -465 0
-87 -129 0
-87 -171 0
-87 -213 0
-87 -255 0
-87 -297 0
-87 -339 0
-87 -381 0
-87 -423 0
-87 -465 0
-129 -171 0
-129 -213 0
-129 -255 0
-129 -297 0
-129 -339 0
-129 -381 0
-129 -423 0
-129 -465 0
-171 -213 0
-171 -255 0
-171 -297 0
-171 -339 0
-171 -381 0
-171 -423 0
-171 -465 0
-213 -255 0
-213 -297 0
-213 -339 0
-213 -381 0
-213 -423 0
-213 -465 0
-255 -297 0
-255 -339 0
-255 -381 0
-255 -423 0
-255 -465 0
-297 -339 0
-297 -381 0
-297 -423 0
-297 -465 0
-339 -381 0
-339 -423 0
-339 -465 0
-381 -423 0
-381 -465 0
-423 -465 0
-46 -88 0
-46 -130 0
-46 -172 0
-46 -214 0
-46 -256 0
-46 -298 0
-46 -340 0
-46 -382 0
-46 -424 0
-46 -466 0
-88 -130 0
-88 -172 0
-88 -214 0
-88 -256 0
-88 -298 0
-88 -340 0
-88 -382 0
-88 -424 0
-88 -466 0
-130 -172 0
-130 -214 0
-130 -256 0
-130 -298 0
-130 -340 0
-130 -382 0
-130 -424 0
-130 -466 0
-172 -214 0
-172 -256 0
-172 -298 0
-172 -340 0
-172 -382 0
-172 -424 0
-172 -466 0
-214 -256 0
-214 -298 0
-214 -340 0
-214 -382 0
-214 -424 0
-214 -466 0
-256 -298 0
-256 -340 0
-256 -382 0
-256 -424 0
-256 -466 0
-298 -340 0
-298 -382 0
-298 -424 0
-298 -466 0
-340 -382 0
-340 -424 0
-340 -466 0
-382 -424 0
-382 -466 0
-424 -466 0
-47 -89 0
-47 -131 0
-47 -173 0
-47 -215 0
-47 -257 0
-47 -299 0
-47 -341 0
-47 -383 0
-47 -425 0
-47 -467 0
-89 -131 0
-89 -173 0
-89 -215 0
-89 -257 0
-89 -299 0
-89 -341 0
-89 -383 0
-89 -425 0
-89 -467 0
-131 -173 0
-131 -215 0
-131 -257 0
-131 -299 0
-131 -341 0
-131 -383 0
-131 -425 0
-131 -467 0
-173 -215 0
-173 -257 0
-173 -299 0
-173 -341 0
-173 -383 0
-173 -425 0
-173 -467 0
-215 -257 0
-215 -299 0
-215 -341 0
-215 -383 0
-215 -425 0
-215 -467 0
-257 -299 0
-257 -341 0
-257 -383 0
-257 -425 0
-257 -467 0
-299 -341 0
-299 -383 0
-299 -425 0
-299 -467 0
-341 -383 0
-341 -425 0
-341 -467 0
-383 -425 0
-383 -467 0
-425 -467 0
-48 -90 0
-48 -132 0
-48 -174 0
-48 -216 0
-48 -258 0
-48 -300 0
-48 -342 0
-48 -384 0
-48 -426 0
-48 -468 0
-90 -132 0
-90 -174 0
-90 -216 0
-90 -258 0
-90 -300 0
-90 -342 0
-90 -384 0
-90 -426 0
-90 -468 0
-132 -174 0
-132 -216 0
-132 -258 0
-132 -300 0
-132 -342 0
-132 -384 0
-132 -426 0
-132 -468 0
-174 -216 0
-174 -258 0
-174 -300 0
-174 -342 0
-174 -384 0
-174 -426 0
-174 -468 0
-216 -258 0
-216 -300 0
-216 -342 0
-216 -384 0
-216 -426 0
-216 -468 0
-258 -300 0
-258 -342 0
-258 -384 0
-258 -426 0
-258 -468 0
-300 -342 0
-300 -384 0
-300 -426 0
-300 -468 0
-342 -384 0
-342 -426 0
-342 -468 0
-384 -426 0
-384 -468 0
-426 -468 0
-49 -91 0
-49 -133 0
-49 -175 0
-49 -217 0
-49 -259 0
-49 -301 0
-49 -343 0
-49 -385 0
-49 -427 0
-49 -469 0
-91 -133 0
-91 -175 0
-91 -217 0
-91 -259 0
-91 -301 0
-91 -343 0
-91 -385 0
-91 -427 0
-91 -469 0
-133 -175 0
-133 -217 0
-133 -259 0
-133 -301 0
-133 -343 0
-133 -385 0
-133 -427 0
-133 -469 0
-175 -217 0
-175 -259 0
-175 -301 0
-175 -343 0
-175 -385 0
-175 -427 0
-175 -469 0
-217 -259 0
-217 -301 0
-217 -343 0
-217 -385 0
-217 -427 0
-217 -469 0
-259 -301 0
-259 -343 0
-259 -385 0
-259 -427 0
-259 -469 0
-301 -343 0
-301 -385 0
-301 -427 0
-301 -469 0
-343 -385 0
-343 -427 0
-343 -469 0
-385 -427 0
-385 -469 0
-427 -469 0
-50 -92 0
-50 -134 0
-50 -176 0
-50 -218 0
-50 -260 0
-50 -302 0
-50 -344 0
-50 -386 0
-50 -428 0
-50 -470 0
-92 -134 0
-92 -176 0
-92 -218 0
-92 -260 0
-92 -302 0
-92 -344 0
-92 -386 0
-92 -428 0
-92 -470 0
-134 -176 0
-134 -218 0
-134 -260 0
-134 -302 0
-134 -344 0
-134 -386 0
-134 -428 0
-134 -470 0
-176 -218 0
-176 -260 0
-176 -302 0
-176 -344 0
-176 -386 0
-176 -428 0
-176 -470 0
-218 -260 0
-218 -302 0
-218 -344 0
-218 -386 0
-218 -428 0
-218 -470 0
-260 -302 0
-260 -344 0
-260 -386 0
-260 -428 0
-260 -470 0
-302 -344 0
-302 -386 0
-302 -428 0
-302 -470 0
-344 -386 0
-344 -428 0
-344 -470 0
-386 -428 0
-386 -470 0
-428 -470 0
-51 -93 0
-51 -135 0
-51 -177 0
-51 -219 0
-51 -261 0
-51 -303 0
-51 -345 0
-51 -387 0
-51 -429 0
-51 -471 0
-93 -135 0
-93 -177 0
-93 -219 0
-93 -261 0
-93 -303 0
-93 -345 0
-93 -387 0
-93 -429 0
-93 -471 0
-135 -177 0
-135 -219 0
-135 -261 0
-135 -303 0
-135 -345 0
-135 -387 0
-135 -429 0
-135 -471 0
-177 -219 0
-177 -261 0
-177 -303 0
-177 -345 0
-177 -387 0
-177 -429 0
-177 -471 0
-219 -261 0
-219 -303 0
-219 -345 0
-219 -387 0
-219 -429 0
-219 -471 0
-261 -303 0
-261 -345 0
-261 -387 0
-261 -429 0
-261 -471 0
-303 -345 0
-303 -387 0
-303 -429 0
-303 -471 0
-345 -387 0
-345 -429 0
-345 -471 0
-387 -429 0
-387 -471 0
-429 -471 0
-52 -94 0
-52 -136 0
-52 -178 0
-52 -220 0
-52 -262 0
-52 -304 0
-52 -346 0
-52 -388 0
-52 -430 0
-52 -472 0
-94 -136 0
-94 -178 0
-94 -220 0
-94 -262 0
-94 -304 0
-94 -346 0
-94 -388 0
-94 -430 0
-94 -472 0
-136 -178 0
-136 -220 0
-136 -262 0
-136 -304 0
-136 -346 0
-136 -388 0
-136 -430 0
-136 -472 0
-178 -220 0
-178 -262 0
-178 -304 0
-178 -346 0
-178 -388 0
-178 -430 0
-178 -472 0
-220 -262 0
-220 -304 0
-220 -346 0
-220 -388 0
-220 -430 0
-220 -472 0
-262 -304 0
-262 -346 0
-262 -388 0
-262 -430 0
-262 -472 0
-304 -346 0
-304 -388 0
-304 -430 0
-304 -472 0
-346 -388 0
-346 -430 0
-346 -472 0
-388 -430 0
-388 -472 0
-430 -472 0
-53 -95 0
-53 -137 0
-53 -179 0
-53 -221 0
-53 -263 0
-53 -305 0
-53 -347 0
-53 -389 0
-53 -431 0
-53 -473 0
-95 -137 0
-95 -179 0
-95 -221 0
-95 -263 0
-95 -305 0
-95 -347 0
-95 -389 0
-95 -431 0
-95 -473 0
-137 -179 0
-137 -221 0
-137 -263 0
-137 -305 0
-137 -347 0
-137 -389 0
-137 -431 0
-137 -473 0
-179 -221 0
-179 -263 0
-179 -305 0
-179 -347 0
-179 -389 0
-179 -431 0
-179 -473 0
-221 -263 0
-221 -305 0
-221 -347 0
-221 -389 0
-221 -431 0
-221 -473 0
-263 -305 0
-263 -347 0
-263 -389 0
-263 -431 0
-263 -473 0
-305 -347 0
-305 -389 0
-305 -431 0
-305 -473 0
-347 -389 0
-347 -431 0
-347 -473 0
-389 -431 0
-389 -473 0
-431 -473 0
-54 -96 0
-54 -138 0
-54 -180 0
-54 -222 0
-54 -264 0
-54 -306 0
-54 -348 0
-54 -390 0
-54 -432 0
-54 -474 0
-96 -138 0
-96 -180 0
-96 -222 0
-96 -264 0
-96 -306 0
-96 -348 0
-96 -390 0
-96 -432 0
-96 -474 0
-138 -180 0
-138 -222 0
-138 -264 0
-138 -306 0
-138 -348 0
-138 -390 0
-138 -432 0
-138 -474 0
-180 -222 0
-180 -264 0
-180 -306 0
-180 -348 0
-180 -390 0
-180 -432 0
-180 -474 0
-222 -264 0
-222 -306 0
-222 -348 0
-222 -390 0
-222 -432 0
-222 -474 0
-264 -306 0
-264 -348 0
-264 -390 0
-264 -432 0
-264 -474 0
-306 -348 0
-306 -390 0
-306 -432 0
-306 -474 0
-348 -390 0
-348 -432 0
-348 -474 0
-390 -432 0
-390 -474 0
-432 -474 0
-55 -97 0
-55 -139 0
-55 -181 0
-55 -223 0
-55 -265 0
-55 -307 0
-55 -349 0
-55 -391 0
-55 -433 0
-55 -475 0
-97 -139 0
-97 -181 0
-97 -223 0
-97 -265 0
-97 -307 0
-97 -349 0
-97 -391 0
-97 -433 0
-97 -475 0
-139 -181 0
-139 -223 0
-139 -265 0
-139 -307 0
-139 -349 0
-139 -391 0
-139 -433 0
-139 -475 0
-181 -223 0
-181 -265 0
-181 -307 0
-181 -349 0
-181 -391 0
-181 -433 0
-181 -475 0
-223 -265 0
-223 -307 0
-223 -349 0
-223 -391 0
-223 -433 0
-223 -475 0
-265 -307 0
-265 -349 0
-265 -391 0
-265 -433 0
-265 -475 0
-307 -349 0
-307 -391 0
-307 -433 0
-307 -475 0
-349 -391 0
-349 -433 0
-349 -475 0
-391 -433 0
-391 -475 0
-433 -475 0
-56 -98 0
-56 -140 0
-56 -182 0
-56 -224 0
-56 -266 0
-56 -308 0
-56 -350 0
-56 -392 0
-56 -434 0
-56 -476 0
-98 -140 0
-98 -182 0
-98 -224 0
-98 -266 0
-98 -308 0
-98 -350 0
-98 -392 0
-98 -434 0
-98 -476 0
-140 -182 0
-140 -224 0
-140 -266 0
-140 -308 0
-140 -350 0
-140 -392 0
-140 -434 0
-140 -476 0
-182 -224 0
-182 -266 0
-182 -308 0
-182 -350 0
-182 -392 0
-182 -434 0
-182 -476 0
-224 -266 0
-224 -308 0
-224 -350 0
-224 -392 0
-224 -434 0
-224 -476 0
-266 -308 0
-266 -350 0
-266 -392 0
-266 -434 0
-266 -476 0
-308 -350 0
-308 -392 0
-308 -434 0
-308 -476 0
-350 -392 0
-350 -434 0
-350 -476 0
-392 -434 0
-392 -476 0
-434 -476 0
608 609 610 611 0
-608 -609 0
-608 -610 0
-608 -611 0
-609 -610 0
-609 -611 0
-610 -611 0
-43 608 0
-44 608 609 0
-45 608 609 610 0
-46 608 609 610 611 0
-47 608 609 610 611 0
-48 608 609 610 611 0
-49 608 609 610 611 0
-50 608 609 610 611 0
-51 608 609 610 611 0
-52 608 609 610 611 0
-53 608 609 610 611 0
-54 609 610 611 0
-55 610 611 0
-56 611 0
-85 608 0
-86 608 609 0
-87 608 609 610 0
-88 608 609 610 611 0
-89 608 609 610 611 0
-90 608 609 610 611 0
-91 608 609 610 611 0
-92 608 609 610 611 0
-93 608 609 610 611 0
-94 608 609 610 611 0
-95 608 609 610 611 0
-96 609 610 611 0
-97 610 611 0
-98 611 0
-127 608 0
-128 608 609 0
-129 608 609 610 0
-130 608 609 610 611 0
-131 608 609 610 611 0
-132 608 609 610 611 0
-133 608 609 610 611 0
-134 608 609 610 611 0
-135 608 609 610 611 0
-136 608 609 610 611 0
-137 608 609 610 611 0
-138 609 610 611 0
-139 610 611 0
-140 611 0
-169 608 0
-170 608 609 0
-171 608 609 610 0
-172 608 609 610 611 0
-173 608 609 610 611 0
-174 608 609 610 611 0
-175 608 609 610 611 0
-176 608 609 610 611 0
-177 608 609 610 611 0
-178 608 609 610 611 0
-179 608 609 610 611 0
-180 609 610 611 0
-181 610 611 0
-182 611 0
-211 608 0
-212 608 609 0
-213 608 609 610 0
-214 608 609 610 611 0
-215 608 609 610 611 0
-216 608 609 610 611 0
-217 608 609 610 611 0
-218 608 609 610 611 0
-219 608 609 610 611 0
-220 608 609 610 611 0
-221 608 609 610 611 0
-222 609 610 611 0
-223 610 611 0
-224 611 0
-253 608 0
-254 608 609 0
-255 608 609 610 0
-256 608 609 610 611 0
-257 608 609 610 611 0
-258 608 609 610 611 0
-259 608 609 610 611 0
-260 608 609 610 611 0
-261 608 609 610 611 0
-262 608 609 610 611 0
-263 608 609 610 611 0
-264 609 610 611 0
-265 610 611 0
-266 611 0
-295 608 0
-296 608 609 0
-297 608 609 610 0
-298 608 609 610 611 0
-299 608 609 610 611 0
-300 608 609 610 611 0
-301 608 609 610 611 0
-302 608 609 610 611 0
-303 608 609 610 611 0
-304 608 609 610 611 0
-305 608 609 610 611 0
-306 609 610 611 0
-307 610 611 0
-308 611 0
-337 608 0
-338 608 609 0
-339 608 609 610 0
-340 608 609 610 611 0
-341 608 609 610 611 0
-342 608 609 610 611 0
-343 608 609 610 611 0
-344 608 609 610 611 0
-345 608 609 610 611 0
-346 608 609 610 611 0
-347 608 609 610 611 0
-348 609 610 611 0
-349 610 611 0
-350 611 0
-379 608 0
-380 608 609 0
-381 608 609 610 0
-382 608 609 610 611 0
-383 608 609 610 611 0
-384 608 609 610 611 0
-385 608 609 610 611 0
-386 608 609 610 611 0
-387 608 609 610 611 0
-388 608 609 610 611 0
-389 608 609 610 611 0
-390 609 610 611 0
-391 610 611 0
-392 611 0
-421 608 0
-422 608 609 0
-423 608 609 610 0
-424 608 609 610 611 0
-425 608 609 610 611 0
-426 608 609 610 611 0
-427 608 609 610 611 0
-428 608 609 610 611 0
-429 608 609 610 611 0
-430 608 609 610 611 0
-431 608 609 610 611 0
-432 609 610 611 0
-433 610 611 0
-434 611 0
-463 608 0
-464 608 609 0
-465 608 609 610 0
-466 608 609 610 611 0
-467 608 609 610 611 0
-468 608 609 610 611 0
-469 608 609 610 611 0
-470 608 609 610 611 0
-471 608 609 610 611 0
-472 608 609 610 611 0
-473 608 609 610 611 0
-474 609 610 611 0
-475 610 611 0
-476 611 0
-608 -54 0
-608 -55 0
-608 -56 0
-608 -96 0
-608 -97 0
-608 -98 0
-608 -138 0
-608 -139 0
-608 -140 0
-608 -180 0
-608 -181 0
-608 -182 0
-608 -222 0
-608 -223 0
-608 -224 0
-608 -264 0
-608 -265 0
-608 -266 0
-608 -306 0
-608 -307 0
-608 -308 0
-608 -348 0
-608 -349 0
-608 -350 0
-608 -390 0
-608 -391 0
-608 -392 0
-608 -432 0
-608 -433 0
-608 -434 0
-608 -474 0
-608 -475 0
-608 -476 0
-609 -43 0
-609 -55 0
-609 -56 0
-609 -85 0
-609 -97 0
-609 -98 0
-609 -127 0
-609 -139 0
-609 -140 0
-609 -169 0
-609 -181 0
-609 -182 0
-609 -211 0
-609 -223 0
-609 -224 0
-609 -253 0
-609 -265 0
-609 -266 0
-609 -295 0
-609 -307 0
-609 -308 0
-609 -337 0
-609 -349 0
-609 -350 0
-609 -379 0
-609 -391 0
-609 -392 0
-609 -421 0
-609 -433 0
-609 -434 0
-609 -463 0
-609 -475 0
-609 -476 0
-610 -43 0
-610 -44 0
-610 -56 0
-610 -85 0
-610 -86 0
-610 -98 0
-610 -127 0
-610 -128 0
-610 -140 0
-610 -169 0
-610 -170 0
-610 -182 0
-610 -211 0
-610 -212 0
-610 -224 0
-610 -253 0
-610 -254 0
-610 -266 0
-610 -295 0
-610 -296 0
-610 -308 0
-610 -337 0
-610 -338 0
-610 -350 0
-610 -379 0
-610 -380 0
-610 -392 0
-610 -421 0
-610 -422 0
-610 -434 0
-610 -463 0
-610 -464 0
-610 -476 0
-611 -43 0
-611 -44 0
-611 -45 0
-611 -85 0
-611 -86 0
-611 -87 0
-611 -127 0
-611 -128 0
-611 -129 0
-611 -169 0
-611 -170 0
-611 -171 0
-611 -211 0
-611 -212 0
-611 -213 0
-611 -253 0
-611 -254 0
-611 -255 0
-611 -295 0
-611 -296 0
-611 -297 0
-611 -337 0
-611 -338 0
-611 -339 0
-611 -379 0
-611 -380 0
-611 -381 0
-611 -421 0
-611 -422 0
-611 -423 0
-611 -463 0
-611 -464 0
-611 -465 0
-1 -141 0
-1 -183 0
-141 -183 0
-2 -142 0
-2 -184 0
-142 -184 0
-3 -143 0
-3 -185 0
-143 -185 0
-4 -144 0
-4 -186 0
-144 -186 0
-5 -145 0
-5 -187 0
-145 -187 0
-6 -146 0
-6 -188 0
-146 -188 0
-7 -147 0
-7 -189 0
-147 -189 0
-8 -148 0
-8 -190 0
-148 -190 0
-9 -149 0
-9 -191 0
-149 -191 0
-10 -150 0
-10 -192 0
-150 -192 0
-11 -151 0
-11 -193 0
-151 -193 0
-12 -152 0
-12 -194 0
-152 -194 0
-13 -153 0
-13 -195 0
-153 -195 0
-14 -154 0
-14 -196 0
-154 -196 0
612 613 614 615 616 617 618 619 620 621 622 623 0
-612 -613 0
-612 -614 0
-612 -615 0
-612 -616 0
-612 -617 0
-612 -618 0
-612 -619 0
-612 -620 0
-612 -621 0
-612 -622 0
-612 -623 0
-613 -614 0
-613 -615 0
-613 -616 0
-613 -617 0
-613 -618 0
-613 -619 0
-613 -620 0
-613 -621 0
-613 -622 0
-613 -623 0
-614 -615 0
-614 -616 0
-614 -617 0
-614 -618 0
-614 -619 0
-614 -620 0
-614 -621 0
-614 -622 0
-614 -623 0
-615 -616 0
-615 -617 0
-615 -618 0
-615 -619 0
-615 -620 0
-615 -621 0
-615 -622 0
-615 -623 0
-616 -617 0
-616 -618 0
-616 -619 0
-616 -620 0
-616 -621 0
-616 -622 0
-616 -623 0
-617 -618 0
-617 -619 0
-617 -620 0
-617 -621 0
-617 -622 0
-617 -623 0
-618 -619 0
-618 -620 0
-618 -621 0
-618 -622 0
-618 -623 0
-619 -620 0
-619 -621 0
-619 -622 0
-619 -623 0
-620 -621 0
-620 -622 0
-620 -623 0
-621 -622 0
-621 -623 0
-622 -623 0
-1 612 0
-2 612 613 0
-3 612 613 614 0
-4 613 614 615 0
-5 614 615 616 0
-6 615 616 617 0
-7 616 617 618 0
-8 617 618 619 0
-9 618 619 620 0
-10 619 620 621 0
-11 620 621 622 0
-12 621 622 623 0
-13 622 623 0
-14 623 0
-141 612 0
-142 612 613 0
-143 612 613 614 0
-144 613 614 615 0
-145 614 615 616 0
-146 615 616 617 0
-147 616 617 618 0
-148 617 618 619 0
-149 618 619 620 0
-150 619 620 621 0
-151 620 621 622 0
-152 621 622 623 0
-153 622 623 0
-154 623 0
-183 612 0
-184 612 613 0
-185 612 613 614 0
-186 613 614 615 0
-187 614 615 616 0
-188 615 616 617 0
-189 616 617 618 0
-190 617 618 619 0
-191 618 619 620 0
-192 619 620 621 0
-193 620 621 622 0
-194 621 622 623 0
-195 622 623 0
-196 623 0
-612 -4 0
-612 -5 0
-612 -6 0
-612 -7 0
-612 -8 0
-612 -9 0
-612 -10 0
-612 -11 0
-612 -12 0
-612 -13 0
-612 -14 0
-612 -144 0
-612 -145 0
-612 -146 0
-612 -147 0
-612 -148 0
-612 -149 0
-612 -150 0
-612 -151 0
-612 -152 0
-612 -153 0
-612 -154 0
-612 -186 0
-612 -187 0
-612 -188 0
-612 -189 0
-612 -190 0
-612 -191 0
-612 -192 0
-612 -193 0
-612 -194 0
-612 -195 0
-612 -196 0
-613 -1 0
-613 -5 0
-613 -6 0
-613 -7 0
-613 -8 0
-613 -9 0
-613 -10 0
-613 -11 0
-613 -12 0
-613 -13 0
-613 -14 0
-613 -141 0
-613 -145 0
-613 -146 0
-613 -147 0
-613 -148 0
-613 -149 0
-613 -150 0
-613 -151 0
-613 -152 0
-613 -153 0
-613 -154 0
-613 -183 0
-613 -187 0
-613 -188 0
-613 -189 0
-613 -190 0
-613 -191 0
-613 -192 0
-613 -193 0
-613 -194 0
-613 -195 0
-613 -196 0
-614 -1 0
-614 -2 0
-614 -6 0
-614 -7 0
-614 -8 0
-614 -9 0
-614 -10 0
-614 -11 0
-614 -12 0
-614 -13 0
-614 -14 0
-614 -141 0
-614 -142 0
-614 -146 0
-614 -147 0
-614 -148 0
-614 -149 0
-614 -150 0
-614 -151 0
-614 -152 0
-614 -153 0
-614 -154 0
-614 -183 0
-614 -184 0
-614 -188 0
-614 -189 0
-614 -190 0
-614 -191 0
-614 -192 0
-614 -193 0
-614 -194 0
-614 -195 0
-614 -196 0
-615 -1 0
-615 -2 0
-615 -3 0
-615 -7 0
-615 -8 0
-615 -9 0
-615 -10 0
-615 -11 0
-615 -12 0
-615 -13 0
-615 -14 0
-615 -141 0
-615 -142 0
-615 -143 0
-615 -147 0
-615 -148 0
-615 -149 0
-615 -150 0
-615 -151 0
-615 -152 0
-615 -153 0
-615 -154 0
-615 -183 0
-615 -184 0
-615 -185 0
-615 -189 0
-615 -190 0
-615 -191 0
-615 -192 0
-615 -193 0
-615 -194 0
-615 -195 0
-615 -196 0
-616 -1 0
-616 -2 0
-616 -3 0
-616 -4 0
-616 -8 0
-616 -9 0
-616 -10 0
-616 -11 0
-616 -12 0
-616 -13 0
-616 -14 0
-616 -141 0
-616 -142 0
-616 -143 0
-616 -144 0
-616 -148 0
-616 -149 0
-616 -150 0
-616 -151 0
-616 -152 0
-616 -153 0
-616 -154 0
-616 -183 0
-616 -184 0
-616 -185 0
-616 -186 0
-616 -190 0
-616 -191 0
-616 -192 0
-616 -193 0
-616 -194 0
-616 -195 0
-616 -196 0
-617 -1 0
-617 -2 0
-617 -3 0
-617 -4 0
-617 -5 0
-617 -9 0
-617 -10 0
-617 -11 0
-617 -12 0
-617 -13 0
-617 -14 0
-617 -141 0
-617 -142 0
-617 -143 0
-617 -144 0
-617 -145 0
-617 -149 0
-617 -150 0
-617 -151 0
-617 -152 0
-617 -153 0
-617 -154 0
-617 -183 0
-617 -184 0
-617 -185 0
-617 -186 0
-617 -187 0
-617 -191 0
-617 -192 0
-617 -193 0
-617 -194 0
-617 -195 0
-617 -196 0
-618 -1 0
-618 -2 0
-618 -3 0
-618 -4 0
-618 -5 0
-618 -6 0
-618 -10 0
-618 -11 0
-618 -12 0
-618 -13 0
-618 -14 0
-618 -141 0
-618 -142 0
-618 -143 0
-618 -144 0
-618 -145 0
-618 -146 0
-618 -150 0
-618 -151 0
-618 -152 0
-618 -153 0
-618 -154 0
-618 -183 0
-618 -184 0
-618 -185 0
-618 -186 0
-618 -187 0
-618 -188 0
-618 -192 0
-618 -193 0
-618 -194 0
-618 -195 0
-618 -196 0
-619 -1 0
-619 -2 0
-619 -3 0
-619 -4 0
-619 -5 0
-619 -6 0
-619 -7 0
-619 -11 0
-619 -12 0
-619 -13 0
-619 -14 0
-619 -141 0
-619 -142 0
-619 -143 0
-619 -144 0
-619 -145 0
-619 -146 0
-619 -147 0
-619 -151 0
-619 -152 0
-619 -153 0
-619 -154 0
-619 -183 0
-619 -184 0
-619 -185 0
-619 -186 0
-619 -187 0
-619 -188 0
-619 -189 0
-619 -193 0
-619 -194 0
-619 -195 0
-619 -196 0
-620 -1 0
-620 -2 0
-620 -3 0
-620 -4 0
-620 -5 0
-620 -6 0
-620 -7 0
-620 -8 0
-620 -12 0
-620 -13 0
-620 -14 0
-620 -141 0
-620 -142 0
-620 -143 0
-620 -144 0
-620 -145 0
-620 -146 0
-620 -147 0
-620 -148 0
-620 -152 0
-620 -153 0
-620 -154 0
-620 -183 0
-620 -184 0
-620 -185 0
-620 -186 0
-620 -187 0
-620 -188 0
-620 -189 0
-620 -190 0
-620 -194 0
-620 -195 0
-620 -196 0
-621 -1 0
-621 -2 0
-621 -3 0
-621 -4 0
-621 -5 0
-621 -6 0
-621 -7 0
-621 -8 0
-621 -9 0
-621 -13 0
-621 -14 0
-621 -141 0
-621 -142 0
-621 -143 0
-621 -144 0
-621 -145 0
-621 -146 0
-621 -147 0
-621 -148 0
-621 -149 0
-621 -153 0
-621 -154 0
-621 -183 0
-621 -184 0
-621 -185 0
-621 -186 0
-621 -187 0
-621 -188 0
-621 -189 0
-621 -190 0
-621 -191 0
-621 -195 0
-621 -196 0
-622 -1 0
-622 -2 0
-622 -3 0
-622 -4 0
-622 -5 0
-622 -6 0
-622 -7 0
-622 -8 0
-622 -9 0
-622 -10 0
-622 -14 0
-622 -141 0
-622 -142 0
-622 -143 0
-622 -144 0
-622 -145 0
-622 -146 0
-622 -147 0
-622 -148 0
-622 -149 0
-622 -150 0
-622 -154 0
-622 -183 0
-622 -184 0
-622 -185 0
-622 -186 0
-622 -187 0
-622 -188 0
-622 -189 0
-622 -190 0
-622 -191 0
-622 -192 0
-622 -196 0
-623 -1 0
-623 -2 0
-623 -3 0
-623 -4 0
-623 -5 0
-623 -6 0
-623 -7 0
-623 -8 0
-623 -9 0
-623 -10 0
-623 -11 0
-623 -141 0
-623 -142 0
-623 -143 0
-623 -144 0
-623 -145 0
-623 -146 0
-623 -147 0
-623 -148 0
-623 -149 0
-623 -150 0
-623 -151 0
-623 -183 0
-623 -184 0
-623 -185 0
-623 -186 0
-623 -187 0
-623 -188 0
-623 -189 0
-623 -190 0
-623 -191 0
-623 -192 0
-623 -193 0
-225 -267 0
-225 -309 0
-225 -351 0
-267 -309 0
-267 -351 0
-309 -351 0
-226 -268 0
-226 -310 0
-226 -352 0
-268 -310 0
-268 -352 0
-310 -352 0
-227 -269 0
-227 -311 0
-227 -353 0
-269 -311 0
-269 -353 0
-311 -353 0
-228 -270 0
-228 -312 0
-228 -354 0
-270 -312 0
-270 -354 0
-312 -354 0
-229 -271 0
-229 -313 0
-229 -355 0
-271 -313 0
-271 -355 0
-313 -355 0
-230 -272 0
-230 -314 0
-230 -356 0
-272 -314 0
-272 -356 0
-314 -356 0
-231 -273 0
-231 -315 0
-231 -357 0
-273 -315 0
-273 -357 0
-315 -357 0
-232 -274 0
-232 -316 0
-232 -358 0
-274 -316 0
-274 -358 0
-316 -358 0
-233 -275 0
-233 -317 0
-233 -359 0
-275 -317 0
-275 -359 0
-317 -359 0
-234 -276 0
-234 -318 0
-234 -360 0
-276 -318 0
-276 -360 0
-318 -360 0
-235 -277 0
-235 -319 0
-235 -361 0
-277 -319 0
-277 -361 0
-319 -361 0
-236 -278 0
-236 -320 0
-236 -362 0
-278 -320 0
-278 -362 0
-320 -362 0
-237 -279 0
-237 -321 0
-237 -363 0
-279 -321 0
-279 -363 0
-321 -363 0
-238 -280 0
-238 -322 0
-238 -364 0
-280 -322 0
-280 -364 0
-322 -364 0
624 625 626 627 628 629 630 631 632 633 634 0
-624 -625 0
-624 -626 0
-624 -627 0
-624 -628 0
-624 -629 0
-624 -630 0
-624 -631 0
-624 -632 0
-624 -633 0
-624 -634 0
-625 -626 0
-625 -627 0
-625 -628 0
-625 -629 0
-625 -630 0
-625 -631 0
-625 -632 0
-625 -633 0
-625 -634 0
-626 -627 0
-626 -628 0
-626 -629 0
-626 -630 0
-626 -631 0
-626 -632 0
-626 -633 0
-626 -634 0
-627 -628 0
-627 -629 0
-627 -630 0
-627 -631 0
-627 -632 0
-627 -633 0
-627 -634 0
-628 -629 0
-628 -630 0
-628 -631 0
-628 -632 0
-628 -633 0
-628 -634 0
-629 -630 0
-629 -631 0
-629 -632 0
-629 -633 0
-629 -634 0
-630 -631 0
-630 -632 0
-630 -633 0
-630 -634 0
-631 -632 0
-631 -633 0
-631 -634 0
-632 -633 0
-632 -634 0
-633 -634 0
-225 624 0
-226 624 625 0
-227 624 625 626 0
-228 624 625 626 627 0
-229 625 626 627 628 0
-230 626 627 628 629 0
-231 627 628 629 630 0
-232 628 629 630 631 0
-233 629 630 631 632 0
-234 630 631 632 633 0
-235 631 632 633 634 0
-236 632 633 634 0
-237 633 634 0
-238 634 0
-267 624 0
-268 624 625 0
-269 624 625 626 0
-270 624 625 626 627 0
-271 625 626 627 628 0
-272 626 627 628 629 0
-273 627 628 629 630 0
-274 628 629 630 631 0
-275 629 630 631 632 0
-276 630 631 632 633 0
-277 631 632 633 634 0
-278 632 633 634 0
-279 633 634 0
-280 634 0
-309 624 0
-310 624 625 0
-311 624 625 626 0
-312 624 625 626 627 0
-313 625 626 627 628 0
-314 626 627 628 629 0
-315 627 628 629 630 0
-316 628 629 630 631 0
-317 629 630 631 632 0
-318 630 631 632 633 0
-319 631 632 633 634 0
-320 632 633 634 0
-321 633 634 0
-322 634 0
-351 624 0
-352 624 625 0
-353 624 625 626 0
-354 624 625 626 627 0
-355 625 626 627 628 0
-356 626 627 628 629 0
-357 627 628 629 630 0
-358 628 629 630 631 0
-359 629 630 631 632 0
-360 630 631 632 633 0
-361 631 632 633 634 0
-362 632 633 634 0
-363 633 634 0
-364 634 0
-624 -229 0
-624 -230 0
-624 -231 0
-624 -232 0
-624 -233 0
-624 -234 0
-624 -235 0
-624 -236 0
-624 -237 0
-624 -238 0
-624 -271 0
-624 -272 0
-624 -273 0
-624 -274 0
-624 -275 0
-624 -276 0
-624 -277 0
-624 -278 0
-624 -279 0
-624 -280 0
-624 -313 0
-624 -314 0
-624 -315 0
-624 -316 0
-624 -317 0
-624 -318 0
-624 -319 0
-624 -320 0
-624 -321 0
-624 -322 0
-624 -355 0
-624 -356 0
-624 -357 0
-624 -358 0
-624 -359 0
-624 -360 0
-624 -361 0
-624 -362 0
-624 -363 0
-624 -364 0
-625 -225 0
-625 -230 0
-625 -231 0
-625 -232 0
-625 -233 0
-625 -234 0
-625 -235 0
-625 -236 0
-625 -237 0
-625 -238 0
-625 -267 0
-625 -272 0
-625 -273 0
-625 -274 0
-625 -275 0
-625 -276 0
-625 -277 0
-625 -278 0
-625 -279 0
-625 -280 0
-625 -309 0
-625 -314 0
-625 -315 0
-625 -316 0
-625 -317 0
-625 -318 0
-625 -319 0
-625 -320 0
-625 -321 0
-625 -322 0
-625 -351 0
-625 -356 0
-625 -357 0
-625 -358 0
-625 -359 0
-625 -360 0
-625 -361 0
-625 -362 0
-625 -363 0
-625 -364 0
-626 -225 0
-626 -226 0
-626 -231 0
-626 -232 0
-626 -233 0
-626 -234 0
-626 -235 0
-626 -236 0
-626 -237 0
-626 -238 0
-626 -267 0
-626 -268 0
-626 -273 0
-626 -274 0
-626 -275 0
-626 -276 0
-626 -277 0
-626 -278 0
-626 -279 0
-626 -280 0
-626 -309 0
-626 -310 0
-626 -315 0
-626 -316 0
-626 -317 0
-626 -318 0
-626 -319 0
-626 -320 0
-626 -321 0
-626 -322 0
-626 -351 0
-626 -352 0
-626 -357 0
-626 -358 0
-626 -359 0
-626 -360 0
-626 -361 0
-626 -362 0
-626 -363 0
-626 -364 0
-627 -225 0
-627 -226 0
-627 -227 0
-627 -232 0
-627 -233 0
-627 -234 0
-627 -235 0
-627 -236 0
-627 -237 0
-627 -238 0
-627 -267 0
-627 -268 0
-627 -269 0
-627 -274 0
-627 -275 0
-627 -276 0
-627 -277 0
-627 -278 0
-627 -279 0
-627 -280 0
-627 -309 0
-627 -310 0
-627 -311 0
-627 -316 0
-627 -317 0
-627 -318 0
-627 -319 0
-627 -320 0
-627 -321 0
-627 -322 0
-627 -351 0
-627 -352 0
-627 -353 0
-627 -358 0
-627 -359 0
-627 -360 0
-627 -361 0
-627 -362 0
-627 -363 0
-627 -364 0
-628 -225 0
-628 -226 0
-628 -227 0
-628 -228 0
-628 -233 0
-628 -234 0
-628 -235 0
-628 -236 0
-628 -237 0
-628 -238 0
-628 -267 0
-628 -268 0
-628 -269 0
-628 -270 0
-628 -275 0
-628 -276 0
-628 -277 0
-628 -278 0
-628 -279 0
-628 -280 0
-628 -309 0
-628 -310 0
-628 -311 0
-628 -312 0
-628 -317 0
-628 -318 0
-628 -319 0
-628 -320 0
-628 -321 0
-628 -322 0
-628 -351 0
-628 -352 0
-628 -353 0
-628 -354 0
-628 -359 0
-628 -360 0
-628 -361 0
-628 -362 0
-628 -363 0
-628 -364 0
-629 -225 0
-629 -226 0
-629 -227 0
-629 -228 0
-629 -229 0
-629 -234 0
-629 -235 0
-629 -236 0
-629 -237 0
-629 -238 0
-629 -267 0
-629 -268 0
-629 -269 0
-629 -270 0
-629 -271 0
-629 -276 0
-629 -277 0
-629 -278 0
-629 -279 0
-629 -280 0
-629 -309 0
-629 -310 0
-629 -311 0
-629 -312 0
-629 -313 0
-629 -318 0
-629 -319 0
-629 -320 0
-629 -321 0
-629 -322 0
-629 -351 0
-629 -352 0
-629 -353 0
-629 -354 0
-629 -355 0
-629 -360 0
-629 -361 0
-629 -362 0
-629 -363 0
-629 -364 0
-630 -225 0
-630 -226 0
-630 -227 0
-630 -228 0
-630 -229 0
-630 -230 0
-630 -235 0
-630 -236 0
-630 -237 0
-630 -238 0
-630 -267 0
-630 -268 0
-630 -269 0
-630 -270 0
-630 -271 0
-630 -272 0
-630 -277 0
-630 -278 0
-630 -279 0
-630 -280 0
-630 -309 0
-630 -310 0
-630 -311 0
-630 -312 0
-630 -313 0
-630 -314 0
-630 -319 0
-630 -320 0
-630 -321 0
-630 -322 0
-630 -351 0
-630 -352 0
-630 -353 0
-630 -354 0
-630 -355 0
-630 -356 0
-630 -361 0
-630 -362 0
-630 -363 0
-630 -364 0
-631 -225 0
-631 -226 0
-631 -227 0
-631 -228 0
-631 -229 0
-631 -230 0
-631 -231 0
-631 -236 0
-631 -237 0
-631 -238 0
-631 -267 0
-631 -268 0
-631 -269 0
-631 -270 0
-631 -271 0
-631 -272 0
-631 -273 0
-631 -278 0
-631 -279 0
-631 -280 0
-631 -309 0
-631 -310 0
-631 -311 0
-631 -312 0
-631 -313 0
-631 -314 0
-631 -315 0
-631 -320 0
-631 -321 0
-631 -322 0
-631 -351 0
-631 -352 0
-631 -353 0
-631 -354 0
-631 -355 0
-631 -356 0
-631 -357 0
-631 -362 0
-631 -363 0
-631 -364 0
-632 -225 0
-632 -226 0
-632 -227 0
-632 -228 0
-632 -229 0
-632 -230 0
-632 -231 0
-632 -232 0
-632 -237 0
-632 -238 0
-632 -267 0
-632 -268 0
-632 -269 0
-632 -270 0
-632 -271 0
-632 -272 0
-632 -273 0
-632 -274 0
-632 -279 0
-632 -280 0
-632 -309 0
-632 -310 0
-632 -311 0
-632 -312 0
-632 -313 0
-632 -314 0
-632 -315 0
-632 -316 0
-632 -321 0
-632 -322 0
-632 -351 0
-632 -352 0
-632 -353 0
-632 -354 0
-632 -355 0
-632 -356 0
-632 -357 0
-632 -358 0
-632 -363 0
-632 -364 0
-633 -225 0
-633 -226 0
-633 -227 0
-633 -228 0
-633 -229 0
-633 -230 0
-633 -231 0
-633 -232 0
-633 -233 0
-633 -238 0
-633 -267 0
-633 -268 0
-633 -269 0
-633 -270 0
-633 -271 0
-633 -272 0
-633 -273 0
-633 -274 0
-633 -275 0
-633 -280 0
-633 -309 0
-633 -310 0
-633 -311 0
-633 -312 0
-633 -313 0
-633 -314 0
-633 -315 0
-633 -316 0
-633 -317 0
-633 -322 0
-633 -351 0
-633 -352 0
-633 -353 0
-633 -354 0
-633 -355 0
-633 -356 0
-633 -357 0
-633 -358 0
-633 -359 0
-633 -364 0
-634 -225 0
-634 -226 0
-634 -227 0
-634 -228 0
-634 -229 0
-634 -230 0
-634 -231 0
-634 -232 0
-634 -233 0
-634 -234 0
-634 -267 0
-634 -268 0
-634 -269 0
-634 -270 0
-634 -271 0
-634 -272 0
-634 -273 0
-634 -274 0
-634 -275 0
-634 -276 0
-634 -309 0
-634 -310 0
-634 -311 0
-634 -312 0
-634 -313 0
-634 -314 0
-634 -315 0
-634 -316 0
-634 -317 0
-634 -318 0
-634 -351 0
-634 -352 0
-634 -353 0
-634 -354 0
-634 -355 0
-634 -356 0
-634 -357 0
-634 -358 0
-634 -359 0
-634 -360 0
-57 -99 0
-57 -393 0
-57 -435 0
-99 -393 0
-99 -435 0
-393 -435 0
-58 -100 0
-58 -394 0
-58 -436 0
-100 -394 0
-100 -436 0
-394 -436 0
-59 -101 0
-59 -395 0
-59 -437 0
-101 -395 0
-101 -437 0
-395 -437 0
-60 -102 0
-60 -396 0
-60 -438 0
-102 -396 0
-102 -438 0
-396 -438 0
-61 -103 0
-61 -397 0
-61 -439 0
-103 -397 0
-103 -439 0
-397 -439 0
-62 -104 0
-62 -398 0
-62 -440 0
-104 -398 0
-104 -440 0
-398 -440 0
-63 -105 0
-63 -399 0
-63 -441 0
-105 -399 0
-105 -441 0
-399 -441 0
-64 -106 0
-64 -400 0
-64 -442 0
-106 -400 0
-106 -442 0
-400 -442 0
-65 -107 0
-65 -401 0
-65 -443 0
-107 -401 0
-107 -443 0
-401 -443 0
-66 -108 0
-66 -402 0
-66 -444 0
-108 -402 0
-108 -444 0
-402 -444 0
-67 -109 0
-67 -403 0
-67 -445 0
-109 -403 0
-109 -445 0
-403 -445 0
-68 -110 0
-68 -404 0
-68 -446 0
-110 -404 0
-110 -446 0
-404 -446 0
-69 -111 0
-69 -405 0
-69 -447 0
-111 -405 0
-111 -447 0
-405 -447 0
-70 -112 0
-70 -406 0
-70 -448 0
-112 -406 0
-112 -448 0
-406 -448 0
635 636 637 638 639 640 641 642 643 644 645 0
-635 -636 0
-635 -637 0
-635 -638 0
-635 -639 0
-635 -640 0
-635 -641 0
-635 -642 0
-635 -643 0
-635 -644 0
-635 -645 0
-636 -637 0
-636 -638 0
-636 -639 0
-636 -640 0
-636 -641 0
-636 -642 0
-636 -643 0
-636 -644 0
-636 -645 0
-637 -638 0
-637 -639 0
-637 -640 0
-637 -641 0
-637 -642 0
-637 -643 0
-637 -644 0
-637 -645 0
-638 -639 0
-638 -640 0
-638 -641 0
-638 -642 0
-638 -643 0
-638 -644 0
-638 -645 0
-639 -640 0
-639 -641 0
-639 -642 0
-639 -643 0
-639 -644 0
-639 -645 0
-640 -641 0
-640 -642 0
-640 -643 0
-640 -644 0
-640 -645 0
-641 -642 0
-641 -643 0
-641 -644 0
-641 -645 0
-642 -643 0
-642 -644 0
-642 -645 0
-643 -644 0
-643 -645 0
-644 -645 0
-57 635 0
-58 635 636 0
-59 635 636 637 0
-60 635 636 637 638 0
-61 636 637 638 639 0
-62 637 638 639 640 0
-63 638 639 640 641 0
-64 639 640 641 642 0
-65 640 641 642 643 0
-66 641 642 643 644 0
-67 642 643 644 645 0
-68 643 644 645 0
-69 644 645 0
-70 645 0
-99 635 0
-100 635 636 0
-101 635 636 637 0
-102 635 636 637 638 0
-103 636 637 638 639 0
-104 637 638 639 640 0
-105 638 639 640 641 0
-106 639 640 641 642 0
-107 640 641 642 643 0
-108 641 642 643 644 0
-109 642 643 644 645 0
-110 643 644 645 0
-111 644 645 0
-112 645 0
-393 635 0
-394 635 636 0
-395 635 636 637 0
-396 635 636 637 638 0
-397 636 637 638 639 0
-398 637 638 639 640 0
-399 638 639 640 641 0
-400 639 640 641 642 0
-401 640 641 642 643 0
-402 641 642 643 644 0
-403 642 643 644 645 0
-404 643 644 645 0
-405 644 645 0
-406 645 0
-435 635 0
-436 635 636 0
-437 635 636 637 0
-438 635 636 637 638 0
-439 636 637 638 639 0
-440 637 638 639 640 0
-441 638 639 640 641 0
-442 639 640 641 642 0
-443 640 641 642 643 0
-444 641 642 643 644 0
-445 642 643 644 645 0
-446 643 644 645 0
-447 644 645 0
-448 645 0
-635 -61 0
-635 -62 0
-635 -63 0
-635 -64 0
-635 -65 0
-635 -66 0
-635 -67 0
-635 -68 0
-635 -69 0
-635 -70 0
-635 -103 0
-635 -104 0
-635 -105 0
-635 -106 0
-635 -107 0
-635 -108 0
-635 -109 0
-635 -110 0
-635 -111 0
-635 -112 0
-635 -397 0
-635 -398 0
-635 -399 0
-635 -400 0
-635 -401 0
-635 -402 0
-635 -403 0
-635 -404 0
-635 -405 0
-635 -406 0
-635 -439 0
-635 -440 0
-635 -441 0
-635 -442 0
-635 -443 0
-635 -444 0
-635 -445 0
-635 -446 0
-635 -447 0
-635 -448 0
-636 -57 0
-636 -62 0
-636 -63 0
-636 -64 0
-636 -65 0
-636 -66 0
-636 -67 0
-636 -68 0
-636 -69 0
-636 -70 0
-636 -99 0
-636 -104 0
-636 -105 0
-636 -106 0
-636 -107 0
-636 -108 0
-636 -109 0
-636 -110 0
-636 -111 0
-636 -112 0
-636 -393 0
-636 -398 0
-636 -399 0
-636 -400 0
-636 -401 0
-636 -402 0
-636 -403 0
-636 -404 0
-636 -405 0
-636 -406 0
-636 -435 0
-636 -440 0
-636 -441 0
-636 -442 0
-636 -443 0
-636 -444 0
-636 -445 0
-636 -446 0
-636 -447 0
-636 -448 0
-637 -57 0
-637 -58 0
-637 -63 0
-637 -64 0
-637 -65 0
-637 -66 0
-637 -67 0
-637 -68 0
-637 -69 0
-637 -70 0
-637 -99 0
-637 -100 0
-637 -105 0
-637 -106 0
-637 -107 0
-637 -108 0
-637 -109 0
-637 -110 0
-637 -111 0
-637 -112 0
-637 -393 0
-637 -394 0
-637 -399 0
-637 -400 0
-637 -401 0
-637 -402 0
-637 -403 0
-637 -404 0
-637 -405 0
-637 -406 0
-637 -435 0
-637 -436 0
-637 -441 0
-637 -442 0
-637 -443 0
-637 -444 0
-637 -445 0
-637 -446 0
-637 -447 0
-637 -448 0
-638 -57 0
-638 -58 0
-638 -59 0
-638 -64 0
-638 -65 0
-638 -66 0
-638 -67 0
-638 -68 0
-638 -69 0
-638 -70 0
-638 -99 0
-638 -100 0
-638 -101 0
-638 -106 0
-638 -107 0
-638 -108 0
-638 -109 0
-638 -110 0
-638 -111 0
-638 -112 0
-638 -393 0
-638 -394 0
-638 -395 0
-638 -400 0
-638 -401 0
-638 -402 0
-638 -403 0
-638 -404 0
-638 -405 0
-638 -406 0
-638 -435 0
-638 -436 0
-638 -437 0
-638 -442 0
-638 -443 0
-638 -444 0
-638 -445 0
-638 -446 0
-638 -447 0
-638 -448 0
-639 -57 0
-639 -58 0
-639 -59 0
-639 -60 0
-639 -65 0
-639 -66 0
-639 -67 0
-639 -68 0
-639 -69 0
-639 -70 0
-639 -99 0
-639 -100 0
-639 -101 0
-639 -102 0
-639 -107 0
-639 -108 0
-639 -109 0
-639 -110 0
-639 -111 0
-639 -112 0
-639 -393 0
-639 -394 0
-639 -395 0
-639 -396 0
-639 -401 0
-639 -402 0
-639 -403 0
-639 -404 0
-639 -405 0
-639 -406 0
-639 -435 0
-639 -436 0
-639 -437 0
-639 -438 0
-639 -443 0
-639 -444 0
-639 -445 0
-639 -446 0
-639 -447 0
-639 -448 0
-640 -57 0
-640 -58 0
-640 -59 0
-640 -60 0
-640 -61 0
-640 -66 0
-640 -67 0
-640 -68 0
-640 -69 0
-640 -70 0
-640 -99 0
-640 -100 0
-640 -101 0
-640 -102 0
-640 -103 0
-640 -108 0
-640 -109 0
-640 -110 0
-640 -111 0
-640 -112 0
-640 -393 0
-640 -394 0
-640 -395 0
-640 -396 0
-640 -397 0
-640 -402 0
-640 -403 0
-640 -404 0
-640 -405 0
-640 -406 0
-640 -435 0
-640 -436 0
-640 -437 0
-640 -438 0
-640 -439 0
-640 -444 0
-640 -445 0
-640 -446 0
-640 -447 0
-640 -448 0
-641 -57 0
-641 -58 0
-641 -59 0
-641 -60 0
-641 -61 0
-641 -62 0
-641 -67 0
-641 -68 0
-641 -69 0
-641 -70 0
-641 -99 0
-641 -100 0
-641 -101 0
-641 -102 0
-641 -103 0
-641 -104 0
-641 -109 0
-641 -110 0
-641 -111 0
-641 -112 0
-641 -393 0
-641 -394 0
-641 -395 0
-641 -396 0
-641 -397 0
-641 -398 0
-641 -403 0
-641 -404 0
-641 -405 0
-641 -406 0
-641 -435 0
-641 -436 0
-641 -437 0
-641 -438 0
-641 -439 0
-641 -440 0
-641 -445 0
-641 -446 0
-641 -447 0
-641 -448 0
-642 -57 0
-642 -58 0
-642 -59 0
-642 -60 0
-642 -61 0
-642 -62 0
-642 -63 0
-642 -68 0
-642 -69 0
-642 -70 0
-642 -99 0
-642 -100 0
-642 -101 0
-642 -102 0
-642 -103 0
-642 -104 0
-642 -105 0
-642 -110 0
-642 -111 0
-642 -112 0
-642 -393 0
-642 -394 0
-642 -395 0
-642 -396 0
-642 -397 0
-642 -398 0
-642 -399 0
-642 -404 0
-642 -405 0
-642 -406 0
-642 -435 0
-642 -436 0
-642 -437 0
-642 -438 0
-642 -439 0
-642 -440 0
-642 -441 0
-642 -446 0
-642 -447 0
-642 -448 0
-643 -57 0
-643 -58 0
-643 -59 0
-643 -60 0
-643 -61 0
-643 -62 0
-643 -63 0
-643 -64 0
-643 -69 0
-643 -70 0
-643 -99 0
-643 -100 0
-643 -101 0
-643 -102 0
-643 -103 0
-643 -104 0
-643 -105 0
-643 -106 0
-643 -111 0
-643 -112 0
-643 -393 0
-643 -394 0
-643 -395 0
-643 -396 0
-643 -397 0
-643 -398 0
-643 -399 0
-643 -400 0
-643 -405 0
-643 -406 0
-643 -435 0
-643 -436 0
-643 -437 0
-643 -438 0
-643 -439 0
-643 -440 0
-643 -441 0
-643 -442 0
-643 -447 0
-643 -448 0
-644 -57 0
-644 -58 0
-644 -59 0
-644 -60 0
-644 -61 0
-644 -62 0
-644 -63 0
-644 -64 0
-644 -65 0
-644 -70 0
-644 -99 0
-644 -100 0
-644 -101 0
-644 -102 0
-644 -103 0
-644 -104 0
-644 -105 0
-644 -106 0
-644 -107 0
-644 -112 0
-644 -393 0
-644 -394 0
-644 -395 0
-644 -396 0
-644 -397 0
-644 -398 0
-644 -399 0
-644 -400 0
-644 -401 0
-644 -406 0
-644 -435 0
-644 -436 0
-644 -437 0
-644 -438 0
-644 -439 0
-644 -440 0
-644 -441 0
-644 -442 0
-644 -443 0
-644 -448 0
-645 -57 0
-645 -58 0
-645 -59 0
-645 -60 0
-645 -61 0
-645 -62 0
-645 -63 0
-645 -64 0
-645 -65 0
-645 -66 0
-645 -99 0
-645 -100 0
-645 -101 0
-645 -102 0
-645 -103 0
-645 -104 0
-645 -105 0
-645 -106 0
-645 -107 0
-645 -108 0
-645 -393 0
-645 -394 0
-645 -395 0
-645 -396 0
-645 -397 0
-645 -398 0
-645 -399 0
-645 -400 0
-645 -401 0
-645 -402 0
-645 -435 0
-645 -436 0
-645 -437 0
-645 -438 0
-645 -439 0
-645 -440 0
-645 -441 0
-645 -442 0
-645 -443 0
-645 -444 0
-15 -239 0
-15 -407 0
-239 -407 0
-16 -240 0
-16 -408 0
-240 -408 0
-17 -241 0
-17 -409 0
-241 -409 0
-18 -242 0
-18 -410 0
-242 -410 0
-19 -243 0
-19 -411 0
-243 -411 0
-20 -244 0
-20 -412 0
-244 -412 0
-21 -245 0
-21 -413 0
-245 -413 0
-22 -246 0
-22 -414 0
-246 -414 0
-23 -247 0
-23 -415 0
-247 -415 0
-24 -248 0
-24 -416 0
-248 -416 0
-25 -249 0
-25 -417 0
-249 -417 0
-26 -250 0
-26 -418 0
-250 -418 0
-27 -251 0
-27 -419 0
-251 -419 0
-28 -252 0
-28 -420 0
-252 -420 0
646 647 648 649 650 651 652 653 654 655 656 657 0
-646 -647 0
-646 -648 0
-646 -649 0
-646 -650 0
-646 -651 0
-646 -652 0
-646 -653 0
-646 -654 0
-646 -655 0
-646 -656 0
-646 -657 0
-647 -648 0
-647 -649 0
-647 -650 0
-647 -651 0
-647 -652 0
-647 -653 0
-647 -654 0
-647 -655 0
-647 -656 0
-647 -657 0
-648 -649 0
-648 -650 0
-648 -651 0
-648 -652 0
-648 -653 0
-648 -654 0
-648 -655 0
-648 -656 0
-648 -657 0
-649 -650 0
-649 -651 0
-649 -652 0
-649 -653 0
-649 -654 0
-649 -655 0
-649 -656 0
-649 -657 0
-650 -651 0
-650 -652 0
-650 -653 0
-650 -654 0
-650 -655 0
-650 -656 0
-650 -657 0
-651 -652 0
-651 -653 0
-651 -654 0
-651 -655 0
-651 -656 0
-651 -657 0
-652 -653 0
-652 -654 0
-652 -655 0
-652 -656 0
-652 -657 0
-653 -654 0
-653 -655 0
-653 -656 0
-653 -657 0
-654 -655 0
-654 -656 0
-654 -657 0
-655 -656 0
-655 -657 0
-656 -657 0
-15 646 0
-16 646 647 0
-17 646 647 648 0
-18 647 648 649 0
-19 648 649 650 0
-20 649 650 651 0
-21 650 651 652 0
-22 651 652 653 0
-23 652 653 654 0
-24 653 654 655 0
-25 654 655 656 0
-26 655 656 657 0
-27 656 657 0
-28 657 0
-239 646 0
-240 646 647 0
-241 646 647 648 0
-242 647 648 649 0
-243 648 649 650 0
-244 649 650 651 0
-245 650 651 652 0
-246 651 652 653 0
-247 652 653 654 0
-248 653 654 655 0
-249 654 655 656 0
-250 655 656 657 0
-251 656 657 0
-252 657 0
-407 646 0
-408 646 647 0
-409 646 647 648 0
-410 647 648 649 0
-411 648 649 650 0
-412 649 650 651 0
-413 650 651 652 0
-414 651 652 653 0
-415 652 653 654 0
-416 653 654 655 0
-417 654 655 656 0
-418 655 656 657 0
-419 656 657 0
-420 657 0
-646 -18 0
-646 -19 0
-646 -20 0
-646 -21 0
-646 -22 0
-646 -23 0
-646 -24 0
-646 -25 0
-646 -26 0
-646 -27 0
-646 -28 0
-646 -242 0
-646 -243 0
-646 -244 0
-646 -245 0
-646 -246 0
-646 -247 0
-646 -248 0
-646 -249 0
-646 -250 0
-646 -251 0
-646 -252 0
-646 -410 0
-646 -411 0
-646 -412 0
-646 -413 0
-646 -414 0
-646 -415 0
-646 -416 0
-646 -417 0
-646 -418 0
-646 -419 0
-646 -420 0
-647 -15 0
-647 -19 0
-647 -20 0
-647 -21 0
-647 -22 0
-647 -23 0
-647 -24 0
-647 -25 0
-647 -26 0
-647 -27 0
-647 -28 0
-647 -239 0
-647 -243 0
-647 -244 0
-647 -245 0
-647 -246 0
-647 -247 0
-647 -248 0
-647 -249 0
-647 -250 0
-647 -251 0
-647 -252 0
-647 -407 0
-647 -411 0
-647 -412 0
-647 -413 0
-647 -414 0
-647 -415 0
-647 -416 0
-647 -417 0
-647 -418 0
-647 -419 0
-647 -420 0
-648 -15 0
-648 -16 0
-648 -20 0
-648 -21 0
-648 -22 0
-648 -23 0
-648 -24 0
-648 -25 0
-648 -26 0
-648 -27 0
-648 -28 0
-648 -239 0
-648 -240 0
-648 -244 0
-648 -245 0
-648 -246 0
-648 -247 0
-648 -248 0
-648 -249 0
-648 -250 0
-648 -251 0
-648 -252 0
-648 -407 0
-648 -408 0
-648 -412 0
-648 -413 0
-648 -414 0
-648 -415 0
-648 -416 0
-648 -417 0
-648 -418 0
-648 -419 0
-648 -420 0
-649 -15 0
-649 -16 0
-649 -17 0
-649 -21 0
-649 -22 0
-649 -23 0
-649 -24 0
-649 -25 0
-649 -26 0
-649 -27 0
-649 -28 0
-649 -239 0
-649 -240 0
-649 -241 0
-649 -245 0
-649 -246 0
-649 -247 0
-649 -248 0
-649 -249 0
-649 -250 0
-649 -251 0
-649 -252 0
-649 -407 0
-649 -408 0
-649 -409 0
-649 -413 0
-649 -414 0
-649 -415 0
-649 -416 0
-649 -417 0
-649 -418 0
-649 -419 0
-649 -420 0
-650 -15 0
-650 -16 0
-650 -17 0
-650 -18 0
-650 -22 0
-650 -23 0
-650 -24 0
-650 -25 0
-650 -26 0
-650 -27 0
-650 -28 0
-650 -239 0
-650 -240 0
-650 -241 0
-650 -242 0
-650 -246 0
-650 -247 0
-650 -248 0
-650 -249 0
-650 -250 0
-650 -251 0
-650 -252 0
-650 -407 0
-650 -408 0
-650 -409 0
-650 -410 0
-650 -414 0
-650 -415 0
-650 -416 0
-650 -417 0
-650 -418 0
-650 -419 0
-650 -420 0
-651 -15 0
-651 -16 0
-651 -17 0
-651 -18 0
-651 -19 0
-651 -23 0
-651 -24 0
-651 -25 0
-651 -26 0
-651 -27 0
-651 -28 0
-651 -239 0
-651 -240 0
-651 -241 0
-651 -242 0
-651 -243 0
-651 -247 0
-651 -248 0
-651 -249 0
-651 -250 0
-651 -251 0
-651 -252 0
-651 -407 0
-651 -408 0
-651 -409 0
-651 -410 0
-651 -411 0
-651 -415 0
-651 -416 0
-651 -417 0
-651 -418 0
-651 -419 0
-651 -420 0
-652 -15 0
-652 -16 0
-652 -17 0
-652 -18 0
-652 -19 0
-652 -20 0
-652 -24 0
-652 -25 0
-652 -26 0
-652 -27 0
-652 -28 0
-652 -239 0
-652 -240 0
-652 -241 0
-652 -242 0
-652 -243 0
-652 -244 0
-652 -248 0
-652 -249 0
-652 -250 0
-652 -251 0
-652 -252 0
-652 -407 0
-652 -408 0
-652 -409 0
-652 -410 0
-652 -411 0
-652 -412 0
-652 -416 0
-652 -417 0
-652 -418 0
-652 -419 0
-652 -420 0
-653 -15 0
-653 -16 0
-653 -17 0
-653 -18 0
-653 -19 0
-653 -20 0
-653 -21 0
-653 -25 0
-653 -26 0
-653 -27 0
-653 -28 0
-653 -239 0
-653 -240 0
-653 -241 0
-653 -242 0
-653 -243 0
-653 -244 0
-653 -245 0
-653 -249 0
-653 -250 0
-653 -251 0
-653 -252 0
-653 -407 0
-653 -408 0
-653 -409 0
-653 -410 0
-653 -411 0
-653 -412 0
-653 -413 0
-653 -417 0
-653 -418 0
-653 -419 0
-653 -420 0
-654 -15 0
-654 -16 0
-654 -17 0
-654 -18 0
-654 -19 0
-654 -20 0
-654 -21 0
-654 -22 0
-654 -26 0
-654 -27 0
-654 -28 0
-654 -239 0
-654 -240 0
-654 -241 0
-654 -242 0
-654 -243 0
-654 -244 0
-654 -245 0
-654 -246 0
-654 -250 0
-654 -251 0
-654 -252 0
-654 -407 0
-654 -408 0
-654 -409 0
-654 -410 0
-654 -411 0
-654 -412 0
-654 -413 0
-654 -414 0
-654 -418 0
-654 -419 0
-654 -420 0
-655 -15 0
-655 -16 0
-655 -17 0
-655 -18 0
-655 -19 0
-655 -20 0
-655 -21 0
-655 -22 0
-655 -23 0
-655 -27 0
-655 -28 0
-655 -239 0
-655 -240 0
-655 -241 0
-655 -242 0
-655 -243 0
-655 -244 0
-655 -245 0
-655 -246 0
-655 -247 0
-655 -251 0
-655 -252 0
-655 -407 0
-655 -408 0
-655 -409 0
-655 -410 0
-655 -411 0
-655 -412 0
-655 -413 0
-655 -414 0
-655 -415 0
-655 -419 0
-655 -420 0
-656 -15 0
-656 -16 0
-656 -17 0
-656 -18 0
-656 -19 0
-656 -20 0
-656 -21 0
-656 -22 0
-656 -23 0
-656 -24 0
-656 -28 0
-656 -239 0
-656 -240 0
-656 -241 0
-656 -242 0
-656 -243 0
-656 -244 0
-656 -245 0
-656 -246 0
-656 -247 0
-656 -248 0
-656 -252 0
-656 -407 0
-656 -408 0
-656 -409 0
-656 -410 0
-656 -411 0
-656 -412 0
-656 -413 0
-656 -414 0
-656 -415 0
-656 -416 0
-656 -420 0
-657 -15 0
-657 -16 0
-657 -17 0
-657 -18 0
-657 -19 0
-657 -20 0
-657 -21 0
-657 -22 0
-657 -23 0
-657 -24 0
-657 -25 0
-657 -239 0
-657 -240 0
-657 -241 0
-657 -242 0
-657 -243 0
-657 -244 0
-657 -245 0
-657 -246 0
-657 -247 0
-657 -248 0
-657 -249 0
-657 -407 0
-657 -408 0
-657 -409 0
-657 -410 0
-657 -411 0
-657 -412 0
-657 -413 0
-657 -414 0
-657 -415 0
-657 -416 0
-657 -417 0
-29 -281 0
-29 -449 0
-281 -449 0
-30 -282 0
-30 -450 0
-282 -450 0
-31 -283 0
-31 -451 0
-283 -451 0
-32 -284 0
-32 -452 0
-284 -452 0
-33 -285 0
-33 -453 0
-285 -453 0
-34 -286 0
-34 -454 0
-286 -454 0
-35 -287 0
-35 -455 0
-287 -455 0
-36 -288 0
-36 -456 0
-288 -456 0
-37 -289 0
-37 -457 0
-289 -457 0
-38 -290 0
-38 -458 0
-290 -458 0
-39 -291 0
-39 -459 0
-291 -459 0
-40 -292 0
-40 -460 0
-292 -460 0
-41 -293 0
-41 -461 0
-293 -461 0
-42 -294 0
-42 -462 0
-294 -462 0
658 659 660 661 662 663 664 665 666 667 668 669 0
-658 -659 0
-658 -660 0
-658 -661 0
-658 -662 0
-658 -663 0
-658 -664 0
-658 -665 0
-658 -666 0
-658 -667 0
-658 -668 0
-658 -669 0
-659 -660 0
-659 -661 0
-659 -662 0
-659 -663 0
-659 -664 0
-659 -665 0
-659 -666 0
-659 -667 0
-659 -668 0
-659 -669 0
-660 -661 0
-660 -662 0
-660 -663 0
-660 -664 0
-660 -665 0
-660 -666 0
-660 -667 0
-660 -668 0
-660 -669 0
-661 -662 0
-661 -663 0
-661 -664 0
-661 -665 0
-661 -666 0
-661 -667 0
-661 -668 0
-661 -669 0
-662 -663 0
-662 -664 0
-662 -665 0
-662 -666 0
-662 -667 0
-662 -668 0
-662 -669 0
-663 -664 0
-663 -665 0
-663 -666 0
-663 -667 0
-663 -668 0
-663 -669 0
-664 -665 0
-664 -666 0
-664 -667 0
-664 -668 0
-664 -669 0
-665 -666 0
-665 -667 0
-665 -668 0
-665 -669 0
-666 -667 0
-666 -668 0
-666 -669 0
-667 -668 0
-667 -669 0
-668 -669 0
-29 658 0
-30 658 659 0
-31 658 659 660 0
-32 659 660 661 0
-33 660 661 662 0
-34 661 662 663 0
-35 662 663 664 0
-36 663 664 665 0
-37 664 665 666 0
-38 665 666 667 0
-39 666 667 668 0
-40 667 668 669 0
-41 668 669 0
-42 669 0
-281 658 0
-282 658 659 0
-283 658 659 660 0
-284 659 660 661 0
-285 660 661 662 0
-286 661 662 663 0
-287 662 663 664 0
-288 663 664 665 0
-289 664 665 666 0
-290 665 666 667 0
-291 666 667 668 0
-292 667 668 669 0
-293 668 669 0
-294 669 0
-449 658 0
-450 658 659 0
-451 658 659 660 0
-452 659 660 661 0
-453 660 661 662 0
-454 661 662 663 0
-455 662 663 664 0
-456 663 664 665 0
-457 664 665 666 0
-458 665 666 667 0
-459 666 667 668 0
-460 667 668 669 0
-461 668 669 0
-462 669 0
-658 -32 0
-658 -33 0
-658 -34 0
-658 -35 0
-658 -36 0
-658 -37 0
-658 -38 0
-658 -39 0
-658 -40 0
-658 -41 0
-658 -42 0
-658 -284 0
-658 -285 0
-658 -286 0
-658 -287 0
-658 -288 0
-658 -289 0
-658 -290 0
-658 -291 0
-658 -292 0
-658 -293 0
-658 -294 0
-658 -452 0
-658 -453 0
-658 -454 0
-658 -455 0
-658 -456 0
-658 -457 0
-658 -458 0
-658 -459 0
-658 -460 0
-658 -461 0
-658 -462 0
-659 -29 0
-659 -33 0
-659 -34 0
-659 -35 0
-659 -36 0
-659 -37 0
-659 -38 0
-659 -39 0
-659 -40 0
-659 -41 0
-659 -42 0
-659 -281 0
-659 -285 0
-659 -286 0
-659 -287 0
-659 -288 0
-659 -289 0
-659 -290 0
-659 -291 0
-659 -292 0
-659 -293 0
-659 -294 0
-659 -449 0
-659 -453 0
-659 -454 0
-659 -455 0
-659 -456 0
-659 -457 0
-659 -458 0
-659 -459 0
-659 -460 0
-659 -461 0
-659 -462 0
-660 -29 0
-660 -30 0
-660 -34 0
-660 -35 0
-660 -36 0
-660 -37 0
-660 -38 0
-660 -39 0
-660 -40 0
-660 -41 0
-660 -42 0
-660 -281 0
-660 -282 0
-660 -286 0
-660 -287 0
-660 -288 0
-660 -289 0
-660 -290 0
-660 -291 0
-660 -292 0
-660 -293 0
-660 -294 0
-660 -449 0
-660 -450 0
-660 -454 0
-660 -455 0
-660 -456 0
-660 -457 0
-660 -458 0
-660 -459 0
-660 -460 0
-660 -461 0
-660 -462 0
-661 -29 0
-661 -30 0
-661 -31 0
-661 -35 0
-661 -36 0
-661 -37 0
-661 -38 0
-661 -39 0
-661 -40 0
-661 -41 0
-661 -42 0
-661 -281 0
-661 -282 0
-661 -283 0
-661 -287 0
-661 -288 0
-661 -289 0
-661 -290 0
-661 -291 0
-661 -292 0
-661 -293 0
-661 -294 0
-661 -449 0
-661 -450 0
-661 -451 0
-661 -455 0
-661 -456 0
-661 -457 0
-661 -458 0
-661 -459 0
-661 -460 0
-661 -461 0
-661 -462 0
-662 -29 0
-662 -30 0
-662 -31 0
-662 -32 0
-662 -36 0
-662 -37 0
-662 -38 0
-662 -39 0
-662 -40 0
-662 -41 0
-662 -42 0
-662 -281 0
-662 -282 0
-662 -283 0
-662 -284 0
-662 -288 0
-662 -289 0
-662 -290 0
-662 -291 0
-662 -292 0
-662 -293 0
-662 -294 0
-662 -449 0
-662 -450 0
-662 -451 0
-662 -452 0
-662 -456 0
-662 -457 0
-662 -458 0
-662 -459 0
-662 -460 0
-662 -461 0
-662 -462 0
-663 -29 0
-663 -30 0
-663 -31 0
-663 -32 0
-663 -33 0
-663 -37 0
-663 -38 0
-663 -39 0
-663 -40 0
-663 -41 0
-663 -42 0
-663 -281 0
-663 -282 0
-663 -283 0
-663 -284 0
-663 -285 0
-663 -289 0
-663 -290 0
-663 -291 0
-663 -292 0
-663 -293 0
-663 -294 0
-663 -449 0
-663 -450 0
-663 -451 0
-663 -452 0
-663 -453 0
-663 -457 0
-663 -458 0
-663 -459 0
-663 -460 0
-663 -461 0
-663 -462 0
-664 -29 0
-664 -30 0
-664 -31 0
-664 -32 0
-664 -33 0
-664 -34 0
-664 -38 0
-664 -39 0
-664 -40 0
-664 -41 0
-664 -42 0
-664 -281 0
-664 -282 0
-664 -283 0
-664 -284 0
-664 -285 0
-664 -286 0
-664 -290 0
-664 -291 0
-664 -292 0
-664 -293 0
-664 -294 0
-664 -449 0
-664 -450 0
-664 -451 0
-664 -452 0
-664 -453 0
-664 -454 0
-664 -458 0
-664 -459 0
-664 -460 0
-664 -461 0
-664 -462 0
-665 -29 0
-665 -30 0
-665 -31 0
-665 -32 0
-665 -33 0
-665 -34 0
-665 -35 0
-665 -39 0
-665 -40 0
-665 -41 0
-665 -42 0
-665 -281 0
-665 -282 0
-665 -283 0
-665 -284 0
-665 -285 0
-665 -286 0
-665 -287 0
-665 -291 0
-665 -292 0
-665 -293 0
-665 -294 0
-665 -449 0
-665 -450 0
-665 -451 0
-665 -452 0
-665 -453 0
-665 -454 0
-665 -455 0
-665 -459 0
-665 -460 0
-665 -461 0
-665 -462 0
-666 -29 0
-666 -30 0
-666 -31 0
-666 -32 0
-666 -33 0
-666 -34 0
-666 -35 0
-666 -36 0
-666 -40 0
-666 -41 0
-666 -42 0
-666 -281 0
-666 -282 0
-666 -283 0
-666 -284 0
-666 -285 0
-666 -286 0
-666 -287 0
-666 -288 0
-666 -292 0
-666 -293 0
-666 -294 0
-666 -449 0
-666 -450 0
-666 -451 0
-666 -452 0
-666 -453 0
-666 -454 0
-666 -455 0
-666 -456 0
-666 -460 0
-666 -461 0
-666 -462 0
-667 -29 0
-667 -30 0
-667 -31 0
-667 -32 0
-667 -33 0
-667 -34 0
-667 -35 0
-667 -36 0
-667 -37 0
-667 -41 0
-667 -42 0
-667 -281 0
-667 -282 0
-667 -283 0
-667 -284 0
-667 -285 0
-667 -286 0
-667 -287 0
-667 -288 0
-667 -289 0
-667 -293 0
-667 -294 0
-667 -449 0
-667 -450 0
-667 -451 0
-667 -452 0
-667 -453 0
-667 -454 0
-667 -455 0
-667 -456 0
-667 -457 0
-667 -461 0
-667 -462 0
-668 -29 0
-668 -30 0
-668 -31 0
-668 -32 0
-668 -33 0
-668 -34 0
-668 -35 0
-668 -36 0
-668 -37 0
-668 -38 0
-668 -42 0
-668 -281 0
-668 -282 0
-668 -283 0
-668 -284 0
-668 -285 0
-668 -286 0
-668 -287 0
-668 -288 0
-668 -289 0
-668 -290 0
-668 -294 0
-668 -449 0
-668 -450 0
-668 -451 0
-668 -452 0
-668 -453 0
-668 -454 0
-668 -455 0
-668 -456 0
-668 -457 0
-668 -458 0
-668 -462 0
-669 -29 0
-669 -30 0
-669 -31 0
-669 -32 0
-669 -33 0
-669 -34 0
-669 -35 0
-669 -36 0
-669 -37 0
-669 -38 0
-669 -39 0
-669 -281 0
-669 -282 0
-669 -283 0
-669 -284 0
-669 -285 0
-669 -286 0
-669 -287 0
-669 -288 0
-669 -289 0
-669 -290 0
-669 -291 0
-669 -449 0
-669 -450 0
-669 -451 0
-669 -452 0
-669 -453 0
-669 -454 0
-669 -455 0
-669 -456 0
-669 -457 0
-669 -458 0
-669 -459 0
-71 -155 0
-71 -323 0
-155 -323 0
-72 -156 0
-72 -324 0
-156 -324 0
-73 -157 0
-73 -325 0
-157 -325 0
-74 -158 0
-74 -326 0
-158 -326 0
-75 -159 0
-75 -327 0
-159 -327 0
-76 -160 0
-76 -328 0
-160 -328 0
-77 -161 0
-77 -329 0
-161 -329 0
-78 -162 0
-78 -330 0
-162 -330 0
-79 -163 0
-79 -331 0
-163 -331 0
-80 -164 0
-80 -332 0
-164 -332 0
-81 -165 0
-81 -333 0
-165 -333 0
-82 -166 0
-82 -334 0
-166 -334 0
-83 -167 0
-83 -335 0
-167 -335 0
-84 -168 0
-84 -336 0
-168 -336 0
670 671 672 673 674 675 676 677 678 679 680 681 0
-670 -671 0
-670 -672 0
-670 -673 0
-670 -674 0
-670 -675 0
-670 -676 0
-670 -677 0
-670 -678 0
-670 -679 0
-670 -680 0
-670 -681 0
-671 -672 0
-671 -673 0
-671 -674 0
-671 -675 0
-671 -676 0
-671 -677 0
-671 -678 0
-671 -679 0
-671 -680 0
-671 -681 0
-672 -673 0
-672 -674 0
-672 -675 0
-672 -676 0
-672 -677 0
-672 -678 0
-672 -679 0
-672 -680 0
-672 -681 0
-673 -674 0
-673 -675 0
-673 -676 0
-673 -677 0
-673 -678 0
-673 -679 0
-673 -680 0
-673 -681 0
-674 -675 0
-674 -676 0
-674 -677 0
-674 -678 0
-674 -679 0
-674 -680 0
-674 -681 0
-675 -676 0
-675 -677 0
-675 -678 0
-675 -679 0
-675 -680 0
-675 -681 0
-676 -677 0
-676 -678 0
-676 -679 0
-676 -680 0
-676 -681 0
-677 -678 0
-677 -679 0
-677 -680 0
-677 -681 0
-678 -679 0
-678 -680 0
-678 -681 0
-679 -680 0
-679 -681 0
-680 -681 0
-71 670 0
-72 670 671 0
-73 670 671 672 0
-74 671 672 673 0
-75 672 673 674 0
-76 673 674 675 0
-77 674 675 676 0
-78 675 676 677 0
-79 676 677 678 0
-80 677 678 679 0
-81 678 679 680 0
-82 679 680 681 0
-83 680 681 0
-84 681 0
-155 670 0
-156 670 671 0
-157 670 671 672 0
-158 671 672 673 0
-159 672 673 674 0
-160 673 674 675 0
-161 674 675 676 0
-162 675 676 677 0
-163 676 677 678 0
-164 677 678 679 0
-165 678 679 680 0
-166 679 680 681 0
-167 680 681 0
-168 681 0
-323 670 0
-324 670 671 0
-325 670 671 672 0
-326 671 672 673 0
-327 672 673 674 0
-328 673 674 675 0
-329 674 675 676 0
-330 675 676 677 0
-331 676 677 678 0
-332 677 678 679 0
-333 678 679 680 0
-334 679 680 681 0
-335 680 681 0
-336 681 0
-670 -74 0
-670 -75 0
-670 -76 0
-670 -77 0
-670 -78 0
-670 -79 0
-670 -80 0
-670 -81 0
-670 -82 0
-670 -83 0
-670 -84 0
-670 -158 0
-670 -159 0
-670 -160 0
-670 -161 0
-670 -162 0
-670 -163 0
-670 -164 0
-670 -165 0
-670 -166 0
-670 -167 0
-670 -168 0
-670 -326 0
-670 -327 0
-670 -328 0
-670 -329 0
-670 -330 0
-670 -331 0
-670 -332 0
-670 -333 0
-670 -334 0
-670 -335 0
-670 -336 0
-671 -71 0
-671 -75 0
-671 -76 0
-671 -77 0
-671 -78 0
-671 -79 0
-671 -80 0
-671 -81 0
-671 -82 0
-671 -83 0
-671 -84 0
-671 -155 0
-671 -159 0
-671 -160 0
-671 -161 0
-671 -162 0
-671 -163 0
-671 -164 0
-671 -165 0
-671 -166 0
-671 -167 0
-671 -168 0
-671 -323 0
-671 -327 0
-671 -328 0
-671 -329 0
-671 -330 0
-671 -331 0
-671 -332 0
-671 -333 0
-671 -334 0
-671 -335 0
-671 -336 0
-672 -71 0
-672 -72 0
-672 -76 0
-672 -77 0
-672 -78 0
-672 -79 0
-672 -80 0
-672 -81 0
-672 -82 0
-672 -83 0
-672 -84 0
-672 -155 0
-672 -156 0
-672 -160 0
-672 -161 0
-672 -162 0
-672 -163 0
-672 -164 0
-672 -165 0
-672 -166 0
-672 -167 0
-672 -168 0
-672 -323 0
-672 -324 0
-672 -328 0
-672 -329 0
-672 -330 0
-672 -331 0
-672 -332 0
-672 -333 0
-672 -334 0
-672 -335 0
-672 -336 0
-673 -71 0
-673 -72 0
-673 -73 0
-673 -77 0
-673 -78 0
-673 -79 0
-673 -80 0
-673 -81 0
-673 -82 0
-673 -83 0
-673 -84 0
-673 -155 0
-673 -156 0
-673 -157 0
-673 -161 0
-673 -162 0
-673 -163 0
-673 -164 0
-673 -165 0
-673 -166 0
-673 -167 0
-673 -168 0
-673 -323 0
-673 -324 0
-673 -325 0
-673 -329 0
-673 -330 0
-673 -331 0
-673 -332 0
-673 -333 0
-673 -334 0
-673 -335 0
-673 -336 0
-674 -71 0
-674 -72 0
-674 -73 0
-674 -74 0
-674 -78 0
-674 -79 0
-674 -80 0
-674 -81 0
-674 -82 0
-674 -83 0
-674 -84 0
-674 -155 0
-674 -156 0
-674 -157 0
-674 -158 0
-674 -162 0
-674 -163 0
-674 -164 0
-674 -165 0
-674 -166 0
-674 -167 0
-674 -168 0
-674 -323 0
-674 -324 0
-674 -325 0
-674 -326 0
-674 -330 0
-674 -331 0
-674 -332 0
-674 -333 0
-674 -334 0
-674 -335 0
-674 -336 0
-675 -71 0
-675 -72 0
-675 -73 0
-675 -74 0
-675 -75 0
-675 -79 0
-675 -80 0
-675 -81 0
-675 -82 0
-675 -83 0
-675 -84 0
-675 -155 0
-675 -156 0
-675 -157 0
-675 -158 0
-675 -159 0
-675 -163 0
-675 -164 0
-675 -165 0
-675 -166 0
-675 -167 0
-675 -168 0
-675 -323 0
-675 -324 0
-675 -325 0
-675 -326 0
-675 -327 0
-675 -331 0
-675 -332 0
-675 -333 0
-675 -334 0
-675 -335 0
-675 -336 0
-676 -71 0
-676 -72 0
-676 -73 0
-676 -74 0
-676 -75 0
-676 -76 0
-676 -80 0
-676 -81 0
-676 -82 0
-676 -83 0
-676 -84 0
-676 -155 0
-676 -156 0
-676 -157 0
-676 -158 0
-676 -159 0
-676 -160 0
-676 -164 0
-676 -165 0
-676 -166 0
-676 -167 0
-676 -168 0
-676 -323 0
-676 -324 0
-676 -325 0
-676 -326 0
-676 -327 0
-676 -328 0
-676 -332 0
-676 -333 0
-676 -334 0
-676 -335 0
-676 -336 0
-677 -71 0
-677 -72 0
-677 -73 0
-677 -74 0
-677 -75 0
-677 -76 0
-677 -77 0
-677 -81 0
-677 -82 0
-677 -83 0
-677 -84 0
-677 -155 0
-677 -156 0
-677 -157 0
-677 -158 0
-677 -159 0
-677 -160 0
-677 -161 0
-677 -165 0
-677 -166 0
-677 -167 0
-677 -168 0
-677 -323 0
-677 -324 0
-677 -325 0
-677 -326 0
-677 -327 0
-677 -328 0
-677 -329 0
-677 -333 0
-677 -334 0
-677 -335 0
-677 -336 0
-678 -71 0
-678 -72 0
-678 -73 0
-678 -74 0
-678 -75 0
-678 -76 0
-678 -77 0
-678 -78 0
-678 -82 0
-678 -83 0
-678 -84 0
-678 -155 0
-678 -156 0
-678 -157 0
-678 -158 0
-678 -159 0
-678 -160 0
-678 -161 0
-678 -162 0
-678 -166 0
-678 -167 0
-678 -168 0
-678 -323 0
-678 -324 0
-678 -325 0
-678 -326 0
-678 -327 0
-678 -328 0
-678 -329 0
-678 -330 0
-678 -334 0
-678 -335 0
-678 -336 0
-679 -71 0
-679 -72 0
-679 -73 0
-679 -74 0
-679 -75 0
-679 -76 0
-679 -77 0
-679 -78 0
-679 -79 0
-679 -83 0
-679 -84 0
-679 -155 0
-679 -156 0
-679 -157 0
-679 -158 0
-679 -159 0
-679 -160 0
-679 -161 0
-679 -162 0
-679 -163 0
-679 -167 0
-679 -168 0
-679 -323 0
-679 -324 0
-679 -325 0
-679 -326 0
-679 -327 0
-679 -328 0
-679 -329 0
-679 -330 0
-679 -331 0
-679 -335 0
-679 -336 0
-680 -71 0
-680 -72 0
-680 -73 0
-680 -74 0
-680 -75 0
-680 -76 0
-680 -77 0
-680 -78 0
-680 -79 0
-680 -80 0
-680 -84 0
-680 -155 0
-680 -156 0
-680 -157 0
-680 -158 0
-680 -159 0
-680 -160 0
-680 -161 0
-680 -162 0
-680 -163 0
-680 -164 0
-680 -168 0
-680 -323 0
-680 -324 0
-680 -325 0
-680 -326 0
-680 -327 0
-680 -328 0
-680 -329 0
-680 -330 0
-680 -331 0
-680 -332 0
-680 -336 0
-681 -71 0
-681 -72 0
-681 -73 0
-681 -74 0
-681 -75 0
-681 -76 0
-681 -77 0
-681 -78 0
-681 -79 0
-681 -80 0
-681 -81 0
-681 -155 0
-681 -156 0
-681 -157 0
-681 -158 0
-681 -159 0
-681 -160 0
-681 -161 0
-681 -162 0
-681 -163 0
-681 -164 0
-681 -165 0
-681 -323 0
-681 -324 0
-681 -325 0
-681 -326 0
-681 -327 0
-681 -328 0
-681 -329 0
-681 -330 0
-681 -331 0
-681 -332 0
-681 -333 0
-113 -197 0
-113 -365 0
-197 -365 0
-114 -198 0
-114 -366 0
-198 -366 0
-115 -199 0
-115 -367 0
-199 -367 0
-116 -200 0
-116 -368 0
-200 -368 0
-117 -201 0
-117 -369 0
-201 -369 0
-118 -202 0
-118 -370 0
-202 -370 0
-119 -203 0
-119 -371 0
-203 -371 0
-120 -204 0
-120 -372 0
-204 -372 0
-121 -205 0
-121 -373 0
-205 -373 0
-122 -206 0
-122 -374 0
-206 -374 0
-123 -207 0
-123 -375 0
-207 -375 0
-124 -208 0
-124 -376 0
-208 -376 0
-125 -209 0
-125 -377 0
-209 -377 0
-126 -210 0
-126 -378 0
-210 -378 0
682 683 684 685 686 687 688 689 690 691 692 693 0
-682 -683 0
-682 -684 0
-682 -685 0
-682 -686 0
-682 -687 0
-682 -688 0
-682 -689 0
-682 -690 0
-682 -691 0
-682 -692 0
-682 -693 0
-683 -684 0
-683 -685 0
-683 -686 0
-683 -687 0
-683 -688 0
-683 -689 0
-683 -690 0
-683 -691 0
-683 -692 0
-683 -693 0
-684 -685 0
-684 -686 0
-684 -687 0
-684 -688 0
-684 -689 0
-684 -690 0
-684 -691 0
-684 -692 0
-684 -693 0
-685 -686 0
-685 -687 0
-685 -688 0
-685 -689 0
-685 -690 0
-685 -691 0
-685 -692 0
-685 -693 0
-686 -687 0
-686 -688 0
-686 -689 0
-686 -690 0
-686 -691 0
-686 -692 0
-686 -693 0
-687 -688 0
-687 -689 0
-687 -690 0
-687 -691 0
-687 -692 0
-687 -693 0
-688 -689 0
-688 -690 0
-688 -691 0
-688 -692 0
-688 -693 0
-689 -690 0
-689 -691 0
-689 -692 0
-689 -693 0
-690 -691 0
-690 -692 0
-690 -693 0
-691 -692 0
-691 -693 0
-692 -693 0
-113 682 0
-114 682 683 0
-115 682 683 684 0
-116 683 684 685 0
-117 684 685 686 0
-118 685 686 687 0
-119 686 687 688 0
-120 687 688 689 0
-121 688 689 690 0
-122 689 690 691 0
-123 690 691 692 0
-124 691 692 693 0
-125 692 693 0
-126 693 0
-197 682 0
-198 682 683 0
-199 682 683 684 0
-200 683 684 685 0
-201 684 685 686 0
-202 685 686 687 0
-203 686 687 688 0
-204 687 688 689 0
-205 688 689 690 0
-206 689 690 691 0
-207 690 691 692 0
-208 691 692 693 0
-209 692 693 0
-210 693 0
-365 682 0
-366 682 683 0
-367 682 683 684 0
-368 683 684 685 0
-369 684 685 686 0
-370 685 686 687 0
-371 686 687 688 0
-372 687 688 689 0
-373 688 689 690 0
-374 689 690 691 0
-375 690 691 692 0
-376 691 692 693 0
-377 692 693 0
-378 693 0
-682 -116 0
-682 -117 0
-682 -118 0
-682 -119 0
-682 -120 0
-682 -121 0
-682 -122 0
-682 -123 0
-682 -124 0
-682 -125 0
-682 -126 0
-682 -200 0
-682 -201 0
-682 -202 0
-682 -203 0
-682 -204 0
-682 -205 0
-682 -206 0
-682 -207 0
-682 -208 0
-682 -209 0
-682 -210 0
-682 -368 0
-682 -369 0
-682 -370 0
-682 -371 0
-682 -372 0
-682 -373 0
-682 -374 0
-682 -375 0
-682 -376 0
-682 -377 0
-682 -378 0
-683 -113 0
-683 -117 0
-683 -118 0
-683 -119 0
-683 -120 0
-683 -121 0
-683 -122 0
-683 -123 0
-683 -124 0
-683 -125 0
-683 -126 0
-683 -197 0
-683 -201 0
-683 -202 0
-683 -203 0
-683 -204 0
-683 -205 0
-683 -206 0
-683 -207 0
-683 -208 0
-683 -209 0
-683 -210 0
-683 -365 0
-683 -369 0
-683 -370 0
-683 -371 0
-683 -372 0
-683 -373 0
-683 -374 0
-683 -375 0
-683 -376 0
-683 -377 0
-683 -378 0
-684 -113 0
-684 -114 0
-684 -118 0
-684 -119 0
-684 -120 0
-684 -121 0
-684 -122 0
-684 -123 0
-684 -124 0
-684 -125 0
-684 -126 0
-684 -197 0
-684 -198 0
-684 -202 0
-684 -203 0
-684 -204 0
-684 -205 0
-684 -206 0
-684 -207 0
-684 -208 0
-684 -209 0
-684 -210 0
-684 -365 0
-684 -366 0
-684 -370 0
-684 -371 0
-684 -372 0
-684 -373 0
-684 -374 0
-684 -375 0
-684 -376 0
-684 -377 0
-684 -378 0
-685 -113 0
-685 -114 0
-685 -115 0
-685 -119 0
-685 -120 0
-685 -121 0
-685 -122 0
-685 -123 0
-685 -124 0
-685 -125 0
-685 -126 0
-685 -197 0
-685 -198 0
-685 -199 0
-685 -203 0
-685 -204 0
-685 -205 0
-685 -206 0
-685 -207 0
-685 -208 0
-685 -209 0
-685 -210 0
-685 -365 0
-685 -366 0
-685 -367 0
-685 -371 0
-685 -372 0
-685 -373 0
-685 -374 0
-685 -375 0
-685 -376 0
-685 -377 0
-685 -378 0
-686 -113 0
-686 -114 0
-686 -115 0
-686 -116 0
-686 -120 0
-686 -121 0
-686 -122 0
-686 -123 0
-686 -124 0
-686 -125 0
-686 -126 0
-686 -197 0
-686 -198 0
-686 -199 0
-686 -200 0
-686 -204 0
-686 -205 0
-686 -206 0
-686 -207 0
-686 -208 0
-686 -209 0
-686 -210 0
-686 -365 0
-686 -366 0
-686 -367 0
-686 -368 0
-686 -372 0
-686 -373 0
-686 -374 0
-686 -375 0
-686 -376 0
-686 -377 0
-686 -378 0
-687 -113 0
-687 -114 0
-687 -115 0
-687 -116 0
-687 -117 0
-687 -121 0
-687 -122 0
-687 -123 0
-687 -124 0
-687 -125 0
-687 -126 0
-687 -197 0
-687 -198 0
-687 -199 0
-687 -200 0
-687 -201 0
-687 -205 0
-687 -206 0
-687 -207 0
-687 -208 0
-687 -209 0
-687 -210 0
-687 -365 0
-687 -366 0
-687 -367 0
-687 -368 0
-687 -369 0
-687 -373 0
-687 -374 0
-687 -375 0
-687 -376 0
-687 -377 0
-687 -378 0
-688 -113 0
-688 -114 0
-688 -115 0
-688 -116 0
-688 -117 0
-688 -118 0
-688 -122 0
-688 -123 0
-688 -124 0
-688 -125 0
-688 -126 0
-688 -197 0
-688 -198 0
-688 -199 0
-688 -200 0
-688 -201 0
-688 -202 0
-688 -206 0
-688 -207 0
-688 -208 0
-688 -209 0
-688 -210 0
-688 -365 0
-688 -366 0
-688 -367 0
-688 -368 0
-688 -369 0
-688 -370 0
-688 -374 0
-688 -375 0
-688 -376 0
-688 -377 0
-688 -378 0
-689 -113 0
-689 -114 0
-689 -115 0
-689 -116 0
-689 -117 0
-689 -118 0
-689 -119 0
-689 -123 0
-689 -124 0
-689 -125 0
-689 -126 0
-689 -197 0
-689 -198 0
-689 -199 0
-689 -200 0
-689 -201 0
-689 -202 0
-689 -203 0
-689 -207 0
-689 -208 0
-689 -209 0
-689 -210 0
-689 -365 0
-689 -366 0
-689 -367 0
-689 -368 0
-689 -369 0
-689 -370 0
-689 -371 0
-689 -375 0
-689 -376 0
-689 -377 0
-689 -378 0
-690 -113 0
-690 -114 0
-690 -115 0
-690 -116 0
-690 -117 0
-690 -118 0
-690 -119 0
-690 -120 0
-690 -124 0
-690 -125 0
-690 -126 0
-690 -197 0
-690 -198 0
-690 -199 0
-690 -200 0
-690 -201 0
-690 -202 0
-690 -203 0
-690 -204 0
-690 -208 0
-690 -209 0
-690 -210 0
-690 -365 0
-690 -366 0
-690 -367 0
-690 -368 0
-690 -369 0
-690 -370 0
-690 -371 0
-690 -372 0
-690 -376 0
-690 -377 0
-690 -378 0
-691 -113 0
-691 -114 0
-691 -115 0
-691 -116 0
-691 -117 0
-691 -118 0
-691 -119 0
-691 -120 0
-691 -121 0
-691 -125 0
-691 -126 0
-691 -197 0
-691 -198 0
-691 -199 0
-691 -200 0
-691 -201 0
-691 -202 0
-691 -203 0
-691 -204 0
-691 -205 0
-691 -209 0
-691 -210 0
-691 -365 0
-691 -366 0
-691 -367 0
-691 -368 0
-691 -369 0
-691 -370 0
-691 -371 0
-691 -372 0
-691 -373 0
-691 -377 0
-691 -378 0
-692 -113 0
-692 -114 0
-692 -115 0
-692 -116 0
-692 -117 0
-692 -118 0
-692 -119 0
-692 -120 0
-692 -121 0
-692 -122 0
-692 -126 0
-692 -197 0
-692 -198 0
-692 -199 0
-692 -200 0
-692 -201 0
-692 -202 0
-692 -203 0
-692 -204 0
-692 -205 0
-692 -206 0
-692 -210 0
-692 -365 0
-692 -366 0
-692 -367 0
-692 -368 0
-692 -369 0
-692 -370 0
-692 -371 0
-692 -372 0
-692 -373 0
-692 -374 0
-692 -378 0
-693 -113 0
-693 -114 0
-693 -115 0
-693 -116 0
-693 -117 0
-693 -118 0
-693 -119 0
-693 -120 0
-693 -121 0
-693 -122 0
-693 -123 0
-693 -197 0
-693 -198 0
-693 -199 0
-693 -200 0
-693 -201 0
-693 -202 0
-693 -203 0
-693 -204 0
-693 -205 0
-693 -206 0
-693 -207 0
-693 -365 0
-693 -366 0
-693 -367 0
-693 -368 0
-693 -369 0
-693 -370 0
-693 -371 0
-693 -372 0
-693 -373 0
-693 -374 0
-693 -375 0
1 15 29 43 57 71 85 99 113 127 141 155 169 183 197 211 225 239 253 267 281 295 309 323 337 351 365 379 393 407 421 435 449 463 0
2 16 30 44 58 72 86 100 114 128 142 156 170 184 198 212 226 240 254 268 282 296 310 324 338 352 366 380 394 408 422 436 450 464 0
3 17 31 45 59 73 87 101 115 129 143 157 171 185 199 213 227 241 255 269 283 297 311 325 339 353 367 381 395 409 423 437 451 465 0
4 18 32 46 60 74 88 102 116 130 144 158 172 186 200 214 228 242 256 270 284 298 312 326 340 354 368 382 396 410 424 438 452 466 0
5 19 33 47 61 75 89 103 117 131 145 159 173 187 201 215 229 243 257 271 285 299 313 327 341 355 369 383 397 411 425 439 453 467 0
6 20 34 48 62 76 90 104 118 132 146 160 174 188 202 216 230 244 258 272 286 300 314 328 342 356 370 384 398 412 426 440 454 468 0
7 21 35 49 63 77 91 105 119 133 147 161 175 189 203 217 231 245 259 273 287 301 315 329 343 357 371 385 399 413 427 441 455 469 0
8 22 36 50 64 78 92 106 120 134 148 162 176 190 204 218 232 246 260 274 288 302 316 330 344 358 372 386 400 414 428 442 456 470 0
9 23 37 51 65 79 93 107 121 135 149 163 177 191 205 219 233 247 261 275 289 303 317 331 345 359 373 387 401 415 429 443 457 471 0
10 24 38 52 66 80 94 108 122 136 150 164 178 192 206 220 234 248 262 276 290 304 318 332 346 360 374 388 402 416 430 444 458 472 0
11 25 39 53 67 81 95 109 123 137 151 165 179 193 207 221 235 249 263 277 291 305 319 333 347 361 375 389 403 417 431 445 459 473 0
12 26 40 54 68 82 96 110 124 138 152 166 180 194 208 222 236 250 264 278 292 306 320 334 348 362 376 390 404 418 432 446 460 474 0
13 27 41 55 69 83 97 111 125 139 153 167 181 195 209 223 237 251 265 279 293 307 321 335 349 363 377 391 405 419 433 447 461 475 0
14 28 42 56 70 84 98 112 126 140 154 168 182 196 210 224 238 252 266 280 294 308 322 336 350 364 378 392 406 420 434 448 462 476 0
