p cnf 640 12195
1 2 3 4 5 6 7 8 9 10 11 12 13 0
-1 -2 0
-1 -3 0
-1 -4 0
-1 -5 0
-1 -6 0
-1 -7 0
-1 -8 0
-1 -9 0
-1 -10 0
-1 -11 0
-1 -12 0
-1 -13 0
-2 -3 0
-2 -4 0
-2 -5 0
-2 -6 0
-2 -7 0
-2 -8 0
-2 -9 0
-2 -10 0
-2 -11 0
-2 -12 0
-2 -13 0
-3 -4 0
-3 -5 0
-3 -6 0
-3 -7 0
-3 -8 0
-3 -9 0
-3 -10 0
-3 -11 0
-3 -12 0
-3 -13 0
-4 -5 0
-4 -6 0
-4 -7 0
-4 -8 0
-4 -9 0
-4 -10 0
-4 -11 0
-4 -12 0
-4 -13 0
-5 -6 0
-5 -7 0
-5 -8 0
-5 -9 0
-5 -10 0
-5 -11 0
-5 -12 0
-5 -13 0
-6 -7 0
-6 -8 0
-6 -9 0
-6 -10 0
-6 -11 0
-6 -12 0
-6 -13 0
-7 -8 0
-7 -9 0
-7 -10 0
-7 -11 0
-7 -12 0
-7 -13 0
-8 -9 0
-8 -10 0
-8 -11 0
-8 -12 0
-8 -13 0
-9 -10 0
-9 -11 0
-9 -12 0
-9 -13 0
-10 -11 0
-10 -12 0
-10 -13 0
-11 -12 0
-11 -13 0
-12 -13 0
14 15 16 17 18 19 20 21 22 23 24 25 26 0
-14 -15 0
-14 -16 0
-14 -17 0
-14 -18 0
-14 -19 0
-14 -20 0
-14 -21 0
-14 -22 0
-14 -23 0
-14 -24 0
-14 -25 0
-14 -26 0
-15 -16 0
-15 -17 0
-15 -18 0
-15 -19 0
-15 -20 0
-15 -21 0
-15 -22 0
-15 -23 0
-15 -24 0
-15 -25 0
-15 -26 0
-16 -17 0
-16 -18 0
-16 -19 0
-16 -20 0
-16 -21 0
-16 -22 0
-16 -23 0
-16 -24 0
-16 -25 0
-16 -26 0
-17 -18 0
-17 -19 0
-17 -20 0
-17 -21 0
-17 -22 0
-17 -23 0
-17 -24 0
-17 -25 0
-17 -26 0
-18 -19 0
-18 -20 0
-18 -21 0
-18 -22 0
-18 -23 0
-18 -24 0
-18 -25 0
-18 -26 0
-19 -20 0
-19 -21 0
-19 -22 0
-19 -23 0
-19 -24 0
-19 -25 0
-19 -26 0
-20 -21 0
-20 -22 0
-20 -23 0
-20 -24 0
-20 -25 0
-20 -26 0
-21 -22 0
-21 -23 0
-21 -24 0
-21 -25 0
-21 -26 0
-22 -23 0
-22 -24 0
-22 -25 0
-22 -26 0
-23 -24 0
-23 -25 0
-23 -26 0
-24 -25 0
-24 -26 0
-25 -26 0
27 28 29 30 31 32 33 34 35 36 37 38 39 0
-27 -28 0
-27 -29 0
-27 -30 0
-27 -31 0
-27 -32 0
-27 -33 0
-27 -34 0
-27 -35 0
-27 -36 0
-27 -37 0
-27 -38 0
-27 -39 0
-28 -29 0
-28 -30 0
-28 -31 0
-28 -32 0
-28 -33 0
-28 -34 0
-28 -35 0
-28 -36 0
-28 -37 0
-28 -38 0
-28 -39 0
-29 -30 0
-29 -31 0
-29 -32 0
-29 -33 0
-29 -34 0
-29 -35 0
-29 -36 0
-29 -37 0
-29 -38 0
-29 -39 0
-30 -31 0
-30 -32 0
-30 -33 0
-30 -34 0
-30 -35 0
-30 -36 0
-30 -37 0
-30 -38 0
-30 -39 0
-31 -32 0
-31 -33 0
-31 -34 0
-31 -35 0
-31 -36 0
-31 -37 0
-31 -38 0
-31 -39 0
-32 -33 0
-32 -34 0
-32 -35 0
-32 -36 0
-32 -37 0
-32 -38 0
-32 -39 0
-33 -34 0
-33 -35 0
-33 -36 0
-33 -37 0
-33 -38 0
-33 -39 0
-34 -35 0
-34 -36 0
-34 -37 0
-34 -38 0
-34 -39 0
-35 -36 0
-35 -37 0
-35 -38 0
-35 -39 0
-36 -37 0
-36 -38 0
-36 -39 0
-37 -38 0
-37 -39 0
-38 -39 0
40 41 42 43 44 45 46 47 48 49 50 51 52 0
-40 -41 0
-40 -42 0
-40 -43 0
-40 -44 0
-40 -45 0
-40 -46 0
-40 -47 0
-40 -48 0
-40 -49 0
-40 -50 0
-40 -51 0
-40 -52 0
-41 -42 0
-41 -43 0
-41 -44 0
-41 -45 0
-41 -46 0
-41 -47 0
-41 -48 0
-41 -49 0
-41 -50 0
-41 -51 0
-41 -52 0
-42 -43 0
-42 -44 0
-42 -45 0
-42 -46 0
-42 -47 0
-42 -48 0
-42 -49 0
-42 -50 0
-42 -51 0
-42 -52 0
-43 -44 0
-43 -45 0
-43 -46 0
-43 -47 0
-43 -48 0
-43 -49 0
-43 -50 0
-43 -51 0
-43 -52 0
-44 -45 0
-44 -46 0
-44 -47 0
-44 -48 0
-44 -49 0
-44 -50 0
-44 -51 0
-44 -52 0
-45 -46 0
-45 -47 0
-45 -48 0
-45 -49 0
-45 -50 0
-45 -51 0
-45 -52 0
-46 -47 0
-46 -48 0
-46 -49 0
-46 -50 0
-46 -51 0
-46 -52 0
-47 -48 0
-47 -49 0
-47 -50 0
-47 -51 0
-47 -52 0
-48 -49 0
-48 -50 0
-48 -51 0
-48 -52 0
-49 -50 0
-49 -51 0
-49 -52 0
-50 -51 0
-50 -52 0
-51 -52 0
53 54 55 56 57 58 59 60 61 62 63 64 65 0
-53 -54 0
-53 -55 0
-53 -56 0
-53 -57 0
-53 -58 0
-53 -59 0
-53 -60 0
-53 -61 0
-53 -62 0
-53 -63 0
-53 -64 0
-53 -65 0
-54 -55 0
-54 -56 0
-54 -57 0
-54 -58 0
-54 -59 0
-54 -60 0
-54 -61 0
-54 -62 0
-54 -63 0
-54 -64 0
-54 -65 0
-55 -56 0
-55 -57 0
-55 -58 0
-55 -59 0
-55 -60 0
-55 -61 0
-55 -62 0
-55 -63 0
-55 -64 0
-55 -65 0
-56 -57 0
-56 -58 0
-56 -59 0
-56 -60 0
-56 -61 0
-56 -62 0
-56 -63 0
-56 -64 0
-56 -65 0
-57 -58 0
-57 -59 0
-57 -60 0
-57 -61 0
-57 -62 0
-57 -63 0
-57 -64 0
-57 -65 0
-58 -59 0
-58 -60 0
-58 -61 0
-58 -62 0
-58 -63 0
-58 -64 0
-58 -65 0
-59 -60 0
-59 -61 0
-59 -62 0
-59 -63 0
-59 -64 0
-59 -65 0
-60 -61 0
-60 -62 0
-60 -63 0
-60 -64 0
-60 -65 0
-61 -62 0
-61 -63 0
-61 -64 0
-61 -65 0
-62 -63 0
-62 -64 0
-62 -65 0
-63 -64 0
-63 -65 0
-64 -65 0
66 67 68 69 70 71 72 73 74 75 76 77 78 0
-66 -67 0
-66 -68 0
-66 -69 0
-66 -70 0
-66 -71 0
-66 -72 0
-66 -73 0
-66 -74 0
-66 -75 0
-66 -76 0
-66 -77 0
-66 -78 0
-67 -68 0
-67 -69 0
-67 -70 0
-67 -71 0
-67 -72 0
-67 -73 0
-67 -74 0
-67 -75 0
-67 -76 0
-67 -77 0
-67 -78 0
-68 -69 0
-68 -70 0
-68 -71 0
-68 -72 0
-68 -73 0
-68 -74 0
-68 -75 0
-68 -76 0
-68 -77 0
-68 -78 0
-69 -70 0
-69 -71 0
-69 -72 0
-69 -73 0
-69 -74 0
-69 -75 0
-69 -76 0
-69 -77 0
-69 -78 0
-70 -71 0
-70 -72 0
-70 -73 0
-70 -74 0
-70 -75 0
-70 -76 0
-70 -77 0
-70 -78 0
-71 -72 0
-71 -73 0
-71 -74 0
-71 -75 0
-71 -76 0
-71 -77 0
-71 -78 0
-72 -73 0
-72 -74 0
-72 -75 0
-72 -76 0
-72 -77 0
-72 -78 0
-73 -74 0
-73 -75 0
-73 -76 0
-73 -77 0
-73 -78 0
-74 -75 0
-74 -76 0
-74 -77 0
-74 -78 0
-75 -76 0
-75 -77 0
-75 -78 0
-76 -77 0
-76 -78 0
-77 -78 0
79 80 81 82 83 84 85 86 87 88 89 90 91 0
-79 -80 0
-79 -81 0
-79 -82 0
-79 -83 0
-79 -84 0
-79 -85 0
-79 -86 0
-79 -87 0
-79 -88 0
-79 -89 0
-79 -90 0
-79 -91 0
-80 -81 0
-80 -82 0
-80 -83 0
-80 -84 0
-80 -85 0
-80 -86 0
-80 -87 0
-80 -88 0
-80 -89 0
-80 -90 0
-80 -91 0
-81 -82 0
-81 -83 0
-81 -84 0
-81 -85 0
-81 -86 0
-81 -87 0
-81 -88 0
-81 -89 0
-81 -90 0
-81 -91 0
-82 -83 0
-82 -84 0
-82 -85 0
-82 -86 0
-82 -87 0
-82 -88 0
-82 -89 0
-82 -90 0
-82 -91 0
-83 -84 0
-83 -85 0
-83 -86 0
-83 -87 0
-83 -88 0
-83 -89 0
-83 -90 0
-83 -91 0
-84 -85 0
-84 -86 0
-84 -87 0
-84 -88 0
-84 -89 0
-84 -90 0
-84 -91 0
-85 -86 0
-85 -87 0
-85 -88 0
-85 -89 0
-85 -90 0
-85 -91 0
-86 -87 0
-86 -88 0
-86 -89 0
-86 -90 0
-86 -91 0
-87 -88 0
-87 -89 0
-87 -90 0
-87 -91 0
-88 -89 0
-88 -90 0
-88 -91 0
-89 -90 0
-89 -91 0
-90 -91 0
92 93 94 95 96 97 98 99 100 101 102 103 104 0
-92 -93 0
-92 -94 0
-92 -95 0
-92 -96 0
-92 -97 0
-92 -98 0
-92 -99 0
-92 -100 0
-92 -101 0
-92 -102 0
-92 -103 0
-92 -104 0
-93 -94 0
-93 -95 0
-93 -96 0
-93 -97 0
-93 -98 0
-93 -99 0
-93 -100 0
-93 -101 0
-93 -102 0
-93 -103 0
-93 -104 0
-94 -95 0
-94 -96 0
-94 -97 0
-94 -98 0
-94 -99 0
-94 -100 0
-94 -101 0
-94 -102 0
-94 -103 0
-94 -104 0
-95 -96 0
-95 -97 0
-95 -98 0
-95 -99 0
-95 -100 0
-95 -101 0
-95 -102 0
-95 -103 0
-95 -104 0
-96 -97 0
-96 -98 0
-96 -99 0
-96 -100 0
-96 -101 0
-96 -102 0
-96 -103 0
-96 -104 0
-97 -98 0
-97 -99 0
-97 -100 0
-97 -101 0
-97 -102 0
-97 -103 0
-97 -104 0
-98 -99 0
-98 -100 0
-98 -101 0
-98 -102 0
-98 -103 0
-98 -104 0
-99 -100 0
-99 -101 0
-99 -102 0
-99 -103 0
-99 -104 0
-100 -101 0
-100 -102 0
-100 -103 0
-100 -104 0
-101 -102 0
-101 -103 0
-101 -104 0
-102 -103 0
-102 -104 0
-103 -104 0
105 106 107 108 109 110 111 112 113 114 115 116 117 0
-105 -106 0
-105 -107 0
-105 -108 0
-105 -109 0
-105 -110 0
-105 -111 0
-105 -112 0
-105 -113 0
-105 -114 0
-105 -115 0
-105 -116 0
-105 -117 0
-106 -107 0
-106 -108 0
-106 -109 0
-106 -110 0
-106 -111 0
-106 -112 0
-106 -113 0
-106 -114 0
-106 -115 0
-106 -116 0
-106 -117 0
-107 -108 0
-107 -109 0
-107 -110 0
-107 -111 0
-107 -112 0
-107 -113 0
-107 -114 0
-107 -115 0
-107 -116 0
-107 -117 0
-108 -109 0
-108 -110 0
-108 -111 0
-108 -112 0
-108 -113 0
-108 -114 0
-108 -115 0
-108 -116 0
-108 -117 0
-109 -110 0
-109 -111 0
-109 -112 0
-109 -113 0
-109 -114 0
-109 -115 0
-109 -116 0
-109 -117 0
-110 -111 0
-110 -112 0
-110 -113 0
-110 -114 0
-110 -115 0
-110 -116 0
-110 -117 0
-111 -112 0
-111 -113 0
-111 -114 0
-111 -115 0
-111 -116 0
-111 -117 0
-112 -113 0
-112 -114 0
-112 -115 0
-112 -116 0
-112 -117 0
-113 -114 0
-113 -115 0
-113 -116 0
-113 -117 0
-114 -115 0
-114 -116 0
-114 -117 0
-115 -116 0
-115 -117 0
-116 -117 0
118 119 120 121 122 123 124 125 126 127 128 129 130 0
-118 -119 0
-118 -120 0
-118 -121 0
-118 -122 0
-118 -123 0
-118 -124 0
-118 -125 0
-118 -126 0
-118 -127 0
-118 -128 0
-118 -129 0
-118 -130 0
-119 -120 0
-119 -121 0
-119 -122 0
-119 -123 0
-119 -124 0
-119 -125 0
-119 -126 0
-119 -127 0
-119 -128 0
-119 -129 0
-119 -130 0
-120 -121 0
-120 -122 0
-120 -123 0
-120 -124 0
-120 -125 0
-120 -126 0
-120 -127 0
-120 -128 0
-120 -129 0
-120 -130 0
-121 -122 0
-121 -123 0
-121 -124 0
-121 -125 0
-121 -126 0
-121 -127 0
-121 -128 0
-121 -129 0
-121 -130 0
-122 -123 0
-122 -124 0
-122 -125 0
-122 -126 0
-122 -127 0
-122 -128 0
-122 -129 0
-122 -130 0
-123 -124 0
-123 -125 0
-123 -126 0
-123 -127 0
-123 -128 0
-123 -129 0
-123 -130 0
-124 -125 0
-124 -126 0
-124 -127 0
-124 -128 0
-124 -129 0
-124 -130 0
-125 -126 0
-125 -127 0
-125 -128 0
-125 -129 0
-125 -130 0
-126 -127 0
-126 -128 0
-126 -129 0
-126 -130 0
-127 -128 0
-127 -129 0
-127 -130 0
-128 -129 0
-128 -130 0
-129 -130 0
131 132 133 134 135 136 137 138 139 140 141 142 143 0
-131 -132 0
-131 -133 0
-131 -134 0
-131 -135 0
-131 -136 0
-131 -137 0
-131 -138 0
-131 -139 0
-131 -140 0
-131 -141 0
-131 -142 0
-131 -143 0
-132 -133 0
-132 -134 0
-132 -135 0
-132 -136 0
-132 -137 0
-132 -138 0
-132 -139 0
-132 -140 0
-132 -141 0
-132 -142 0
-132 -143 0
-133 -134 0
-133 -135 0
-133 -136 0
-133 -137 0
-133 -138 0
-133 -139 0
-133 -140 0
-133 -141 0
-133 -142 0
-133 -143 0
-134 -135 0
-134 -136 0
-134 -137 0
-134 -138 0
-134 -139 0
-134 -140 0
-134 -141 0
-134 -142 0
-134 -143 0
-135 -136 0
-135 -137 0
-135 -138 0
-135 -139 0
-135 -140 0
-135 -141 0
-135 -142 0
-135 -143 0
-136 -137 0
-136 -138 0
-136 -139 0
-136 -140 0
-136 -141 0
-136 -142 0
-136 -143 0
-137 -138 0
-137 -139 0
-137 -140 0
-137 -141 0
-137 -142 0
-137 -143 0
-138 -139 0
-138 -140 0
-138 -141 0
-138 -142 0
-138 -143 0
-139 -140 0
-139 -141 0
-139 -142 0
-139 -143 0
-140 -141 0
-140 -142 0
-140 -143 0
-141 -142 0
-141 -143 0
-142 -143 0
144 145 146 147 148 149 150 151 152 153 154 155 156 0
-144 -145 0
-144 -146 0
-144 -147 0
-144 -148 0
-144 -149 0
-144 -150 0
-144 -151 0
-144 -152 0
-144 -153 0
-144 -154 0
-144 -155 0
-144 -156 0
-145 -146 0
-145 -147 0
-145 -148 0
-145 -149 0
-145 -150 0
-145 -151 0
-145 -152 0
-145 -153 0
-145 -154 0
-145 -155 0
-145 -156 0
-146 -147 0
-146 -148 0
-146 -149 0
-146 -150 0
-146 -151 0
-146 -152 0
-146 -153 0
-146 -154 0
-146 -155 0
-146 -156 0
-147 -148 0
-147 -149 0
-147 -150 0
-147 -151 0
-147 -152 0
-147 -153 0
-147 -154 0
-147 -155 0
-147 -156 0
-148 -149 0
-148 -150 0
-148 -151 0
-148 -152 0
-148 -153 0
-148 -154 0
-148 -155 0
-148 -156 0
-149 -150 0
-149 -151 0
-149 -152 0
-149 -153 0
-149 -154 0
-149 -155 0
-149 -156 0
-150 -151 0
-150 -152 0
-150 -153 0
-150 -154 0
-150 -155 0
-150 -156 0
-151 -152 0
-151 -153 0
-151 -154 0
-151 -155 0
-151 -156 0
-152 -153 0
-152 -154 0
-152 -155 0
-152 -156 0
-153 -154 0
-153 -155 0
-153 -156 0
-154 -155 0
-154 -156 0
-155 -156 0
157 158 159 160 161 162 163 164 165 166 167 168 169 0
-157 -158 0
-157 -159 0
-157 -160 0
-157 -161 0
-157 -162 0
-157 -163 0
-157 -164 0
-157 -165 0
-157 -166 0
-157 -167 0
-157 -168 0
-157 -169 0
-158 -159 0
-158 -160 0
-158 -161 0
-158 -162 0
-158 -163 0
-158 -164 0
-158 -165 0
-158 -166 0
-158 -167 0
-158 -168 0
-158 -169 0
-159 -160 0
-159 -161 0
-159 -162 0
-159 -163 0
-159 -164 0
-159 -165 0
-159 -166 0
-159 -167 0
-159 -168 0
-159 -169 0
-160 -161 0
-160 -162 0
-160 -163 0
-160 -164 0
-160 -165 0
-160 -166 0
-160 -167 0
-160 -168 0
-160 -169 0
-161 -162 0
-161 -163 0
-161 -164 0
-161 -165 0
-161 -166 0
-161 -167 0
-161 -168 0
-161 -169 0
-162 -163 0
-162 -164 0
-162 -165 0
-162 -166 0
-162 -167 0
-162 -168 0
-162 -169 0
-163 -164 0
-163 -165 0
-163 -166 0
-163 -167 0
-163 -168 0
-163 -169 0
-164 -165 0
-164 -166 0
-164 -167 0
-164 -168 0
-164 -169 0
-165 -166 0
-165 -167 0
-165 -168 0
-165 -169 0
-166 -167 0
-166 -168 0
-166 -169 0
-167 -168 0
-167 -169 0
-168 -169 0
170 171 172 173 174 175 176 177 178 179 180 181 182 0
-170 -171 0
-170 -172 0
-170 -173 0
-170 -174 0
-170 -175 0
-170 -176 0
-170 -177 0
-170 -178 0
-170 -179 0
-170 -180 0
-170 -181 0
-170 -182 0
-171 -172 0
-171 -173 0
-171 -174 0
-171 -175 0
-171 -176 0
-171 -177 0
-171 -178 0
-171 -179 0
-171 -180 0
-171 -181 0
-171 -182 0
-172 -173 0
-172 -174 0
-172 -175 0
-172 -176 0
-172 -177 0
-172 -178 0
-172 -179 0
-172 -180 0
-172 -181 0
-172 -182 0
-173 -174 0
-173 -175 0
-173 -176 0
-173 -177 0
-173 -178 0
-173 -179 0
-173 -180 0
-173 -181 0
-173 -182 0
-174 -175 0
-174 -176 0
-174 -177 0
-174 -178 0
-174 -179 0
-174 -180 0
-174 -181 0
-174 -182 0
-175 -176 0
-175 -177 0
-175 -178 0
-175 -179 0
-175 -180 0
-175 -181 0
-175 -182 0
-176 -177 0
-176 -178 0
-176 -179 0
-176 -180 0
-176 -181 0
-176 -182 0
-177 -178 0
-177 -179 0
-177 -180 0
-177 -181 0
-177 -182 0
-178 -179 0
-178 -180 0
-178 -181 0
-178 -182 0
-179 -180 0
-179 -181 0
-179 -182 0
-180 -181 0
-180 -182 0
-181 -182 0
183 184 185 186 187 188 189 190 191 192 193 194 195 0
-183 -184 0
-183 -185 0
-183 -186 0
-183 -187 0
-183 -188 0
-183 -189 0
-183 -190 0
-183 -191 0
-183 -192 0
-183 -193 0
-183 -194 0
-183 -195 0
-184 -185 0
-184 -186 0
-184 -187 0
-184 -188 0
-184 -189 0
-184 -190 0
-184 -191 0
-184 -192 0
-184 -193 0
-184 -194 0
-184 -195 0
-185 -186 0
-185 -187 0
-185 -188 0
-185 -189 0
-185 -190 0
-185 -191 0
-185 -192 0
-185 -193 0
-185 -194 0
-185 -195 0
-186 -187 0
-186 -188 0
-186 -189 0
-186 -190 0
-186 -191 0
-186 -192 0
-186 -193 0
-186 -194 0
-186 -195 0
-187 -188 0
-187 -189 0
-187 -190 0
-187 -191 0
-187 -192 0
-187 -193 0
-187 -194 0
-187 -195 0
-188 -189 0
-188 -190 0
-188 -191 0
-188 -192 0
-188 -193 0
-188 -194 0
-188 -195 0
-189 -190 0
-189 -191 0
-189 -192 0
-189 -193 0
-189 -194 0
-189 -195 0
-190 -191 0
-190 -192 0
-190 -193 0
-190 -194 0
-190 -195 0
-191 -192 0
-191 -193 0
-191 -194 0
-191 -195 0
-192 -193 0
-192 -194 0
-192 -195 0
-193 -194 0
-193 -195 0
-194 -195 0
196 197 198 199 200 201 202 203 204 205 206 207 208 0
-196 -197 0
-196 -198 0
-196 -199 0
-196 -200 0
-196 -201 0
-196 -202 0
-196 -203 0
-196 -204 0
-196 -205 0
-196 -206 0
-196 -207 0
-196 -208 0
-197 -198 0
-197 -199 0
-197 -200 0
-197 -201 0
-197 -202 0
-197 -203 0
-197 -204 0
-197 -205 0
-197 -206 0
-197 -207 0
-197 -208 0
-198 -199 0
-198 -200 0
-198 -201 0
-198 -202 0
-198 -203 0
-198 -204 0
-198 -205 0
-198 -206 0
-198 -207 0
-198 -208 0
-199 -200 0
-199 -201 0
-199 -202 0
-199 -203 0
-199 -204 0
-199 -205 0
-199 -206 0
-199 -207 0
-199 -208 0
-200 -201 0
-200 -202 0
-200 -203 0
-200 -204 0
-200 -205 0
-200 -206 0
-200 -207 0
-200 -208 0
-201 -202 0
-201 -203 0
-201 -204 0
-201 -205 0
-201 -206 0
-201 -207 0
-201 -208 0
-202 -203 0
-202 -204 0
-202 -205 0
-202 -206 0
-202 -207 0
-202 -208 0
-203 -204 0
-203 -205 0
-203 -206 0
-203 -207 0
-203 -208 0
-204 -205 0
-204 -206 0
-204 -207 0
-204 -208 0
-205 -206 0
-205 -207 0
-205 -208 0
-206 -207 0
-206 -208 0
-207 -208 0
209 210 211 212 213 214 215 216 217 218 219 220 221 0
-209 -210 0
-209 -211 0
-209 -212 0
-209 -213 0
-209 -214 0
-209 -215 0
-209 -216 0
-209 -217 0
-209 -218 0
-209 -219 0
-209 -220 0
-209 -221 0
-210 -211 0
-210 -212 0
-210 -213 0
-210 -214 0
-210 -215 0
-210 -216 0
-210 -217 0
-210 -218 0
-210 -219 0
-210 -220 0
-210 -221 0
-211 -212 0
-211 -213 0
-211 -214 0
-211 -215 0
-211 -216 0
-211 -217 0
-211 -218 0
-211 -219 0
-211 -220 0
-211 -221 0
-212 -213 0
-212 -214 0
-212 -215 0
-212 -216 0
-212 -217 0
-212 -218 0
-212 -219 0
-212 -220 0
-212 -221 0
-213 -214 0
-213 -215 0
-213 -216 0
-213 -217 0
-213 -218 0
-213 -219 0
-213 -220 0
-213 -221 0
-214 -215 0
-214 -216 0
-214 -217 0
-214 -218 0
-214 -219 0
-214 -220 0
-214 -221 0
-215 -216 0
-215 -217 0
-215 -218 0
-215 -219 0
-215 -220 0
-215 -221 0
-216 -217 0
-216 -218 0
-216 -219 0
-216 -220 0
-216 -221 0
-217 -218 0
-217 -219 0
-217 -220 0
-217 -221 0
-218 -219 0
-218 -220 0
-218 -221 0
-219 -220 0
-219 -221 0
-220 -221 0
222 223 224 225 226 227 228 229 230 231 232 233 234 0
-222 -223 0
-222 -224 0
-222 -225 0
-222 -226 0
-222 -227 0
-222 -228 0
-222 -229 0
-222 -230 0
-222 -231 0
-222 -232 0
-222 -233 0
-222 -234 0
-223 -224 0
-223 -225 0
-223 -226 0
-223 -227 0
-223 -228 0
-223 -229 0
-223 -230 0
-223 -231 0
-223 -232 0
-223 -233 0
-223 -234 0
-224 -225 0
-224 -226 0
-224 -227 0
-224 -228 0
-224 -229 0
-224 -230 0
-224 -231 0
-224 -232 0
-224 -233 0
-224 -234 0
-225 -226 0
-225 -227 0
-225 -228 0
-225 -229 0
-225 -230 0
-225 -231 0
-225 -232 0
-225 -233 0
-225 -234 0
-226 -227 0
-226 -228 0
-226 -229 0
-226 -230 0
-226 -231 0
-226 -232 0
-226 -233 0
-226 -234 0
-227 -228 0
-227 -229 0
-227 -230 0
-227 -231 0
-227 -232 0
-227 -233 0
-227 -234 0
-228 -229 0
-228 -230 0
-228 -231 0
-228 -232 0
-228 -233 0
-228 -234 0
-229 -230 0
-229 -231 0
-229 -232 0
-229 -233 0
-229 -234 0
-230 -231 0
-230 -232 0
-230 -233 0
-230 -234 0
-231 -232 0
-231 -233 0
-231 -234 0
-232 -233 0
-232 -234 0
-233 -234 0
235 236 237 238 239 240 241 242 243 244 245 246 247 0
-235 -236 0
-235 -237 0
-235 -238 0
-235 -239 0
-235 -240 0
-235 -241 0
-235 -242 0
-235 -243 0
-235 -244 0
-235 -245 0
-235 -246 0
-235 -247 0
-236 -237 0
-236 -238 0
-236 -239 0
-236 -240 0
-236 -241 0
-236 -242 0
-236 -243 0
-236 -244 0
-236 -245 0
-236 -246 0
-236 -247 0
-237 -238 0
-237 -239 0
-237 -240 0
-237 -241 0
-237 -242 0
-237 -243 0
-237 -244 0
-237 -245 0
-237 -246 0
-237 -247 0
-238 -239 0
-238 -240 0
-238 -241 0
-238 -242 0
-238 -243 0
-238 -244 0
-238 -245 0
-238 -246 0
-238 -247 0
-239 -240 0
-239 -241 0
-239 -242 0
-239 -243 0
-239 -244 0
-239 -245 0
-239 -246 0
-239 -247 0
-240 -241 0
-240 -242 0
-240 -243 0
-240 -244 0
-240 -245 0
-240 -246 0
-240 -247 0
-241 -242 0
-241 -243 0
-241 -244 0
-241 -245 0
-241 -246 0
-241 -247 0
-242 -243 0
-242 -244 0
-242 -245 0
-242 -246 0
-242 -247 0
-243 -244 0
-243 -245 0
-243 -246 0
-243 -247 0
-244 -245 0
-244 -246 0
-244 -247 0
-245 -246 0
-245 -247 0
-246 -247 0
248 249 250 251 252 253 254 255 256 257 258 259 260 0
-248 -249 0
-248 -250 0
-248 -251 0
-248 -252 0
-248 -253 0
-248 -254 0
-248 -255 0
-248 -256 0
-248 -257 0
-248 -258 0
-248 -259 0
-248 -260 0
-249 -250 0
-249 -251 0
-249 -252 0
-249 -253 0
-249 -254 0
-249 -255 0
-249 -256 0
-249 -257 0
-249 -258 0
-249 -259 0
-249 -260 0
-250 -251 0
-250 -252 0
-250 -253 0
-250 -254 0
-250 -255 0
-250 -256 0
-250 -257 0
-250 -258 0
-250 -259 0
-250 -260 0
-251 -252 0
-251 -253 0
-251 -254 0
-251 -255 0
-251 -256 0
-251 -257 0
-251 -258 0
-251 -259 0
-251 -260 0
-252 -253 0
-252 -254 0
-252 -255 0
-252 -256 0
-252 -257 0
-252 -258 0
-252 -259 0
-252 -260 0
-253 -254 0
-253 -255 0
-253 -256 0
-253 -257 0
-253 -258 0
-253 -259 0
-253 -260 0
-254 -255 0
-254 -256 0
-254 -257 0
-254 -258 0
-254 -259 0
-254 -260 0
-255 -256 0
-255 -257 0
-255 -258 0
-255 -259 0
-255 -260 0
-256 -257 0
-256 -258 0
-256 -259 0
-256 -260 0
-257 -258 0
-257 -259 0
-257 -260 0
-258 -259 0
-258 -260 0
-259 -260 0
261 262 263 264 265 266 267 268 269 270 271 272 273 0
-261 -262 0
-261 -263 0
-261 -264 0
-261 -265 0
-261 -266 0
-261 -267 0
-261 -268 0
-261 -269 0
-261 -270 0
-261 -271 0
-261 -272 0
-261 -273 0
-262 -263 0
-262 -264 0
-262 -265 0
-262 -266 0
-262 -267 0
-262 -268 0
-262 -269 0
-262 -270 0
-262 -271 0
-262 -272 0
-262 -273 0
-263 -264 0
-263 -265 0
-263 -266 0
-263 -267 0
-263 -268 0
-263 -269 0
-263 -270 0
-263 -271 0
-263 -272 0
-263 -273 0
-264 -265 0
-264 -266 0
-264 -267 0
-264 -268 0
-264 -269 0
-264 -270 0
-264 -271 0
-264 -272 0
-264 -273 0
-265 -266 0
-265 -267 0
-265 -268 0
-265 -269 0
-265 -270 0
-265 -271 0
-265 -272 0
-265 -273 0
-266 -267 0
-266 -268 0
-266 -269 0
-266 -270 0
-266 -271 0
-266 -272 0
-266 -273 0
-267 -268 0
-267 -269 0
-267 -270 0
-267 -271 0
-267 -272 0
-267 -273 0
-268 -269 0
-268 -270 0
-268 -271 0
-268 -272 0
-268 -273 0
-269 -270 0
-269 -271 0
-269 -272 0
-269 -273 0
-270 -271 0
-270 -272 0
-270 -273 0
-271 -272 0
-271 -273 0
-272 -273 0
274 275 276 277 278 279 280 281 282 283 284 285 286 0
-274 -275 0
-274 -276 0
-274 -277 0
-274 -278 0
-274 -279 0
-274 -280 0
-274 -281 0
-274 -282 0
-274 -283 0
-274 -284 0
-274 -285 0
-274 -286 0
-275 -276 0
-275 -277 0
-275 -278 0
-275 -279 0
-275 -280 0
-275 -281 0
-275 -282 0
-275 -283 0
-275 -284 0
-275 -285 0
-275 -286 0
-276 -277 0
-276 -278 0
-276 -279 0
-276 -280 0
-276 -281 0
-276 -282 0
-276 -283 0
-276 -284 0
-276 -285 0
-276 -286 0
-277 -278 0
-277 -279 0
-277 -280 0
-277 -281 0
-277 -282 0
-277 -283 0
-277 -284 0
-277 -285 0
-277 -286 0
-278 -279 0
-278 -280 0
-278 -281 0
-278 -282 0
-278 -283 0
-278 -284 0
-278 -285 0
-278 -286 0
-279 -280 0
-279 -281 0
-279 -282 0
-279 -283 0
-279 -284 0
-279 -285 0
-279 -286 0
-280 -281 0
-280 -282 0
-280 -283 0
-280 -284 0
-280 -285 0
-280 -286 0
-281 -282 0
-281 -283 0
-281 -284 0
-281 -285 0
-281 -286 0
-282 -283 0
-282 -284 0
-282 -285 0
-282 -286 0
-283 -284 0
-283 -285 0
-283 -286 0
-284 -285 0
-284 -286 0
-285 -286 0
287 288 289 290 291 292 293 294 295 296 297 298 299 0
-287 -288 0
-287 -289 0
-287 -290 0
-287 -291 0
-287 -292 0
-287 -293 0
-287 -294 0
-287 -295 0
-287 -296 0
-287 -297 0
-287 -298 0
-287 -299 0
-288 -289 0
-288 -290 0
-288 -291 0
-288 -292 0
-288 -293 0
-288 -294 0
-288 -295 0
-288 -296 0
-288 -297 0
-288 -298 0
-288 -299 0
-289 -290 0
-289 -291 0
-289 -292 0
-289 -293 0
-289 -294 0
-289 -295 0
-289 -296 0
-289 -297 0
-289 -298 0
-289 -299 0
-290 -291 0
-290 -292 0
-290 -293 0
-290 -294 0
-290 -295 0
-290 -296 0
-290 -297 0
-290 -298 0
-290 -299 0
-291 -292 0
-291 -293 0
-291 -294 0
-291 -295 0
-291 -296 0
-291 -297 0
-291 -298 0
-291 -299 0
-292 -293 0
-292 -294 0
-292 -295 0
-292 -296 0
-292 -297 0
-292 -298 0
-292 -299 0
-293 -294 0
-293 -295 0
-293 -296 0
-293 -297 0
-293 -298 0
-293 -299 0
-294 -295 0
-294 -296 0
-294 -297 0
-294 -298 0
-294 -299 0
-295 -296 0
-295 -297 0
-295 -298 0
-295 -299 0
-296 -297 0
-296 -298 0
-296 -299 0
-297 -298 0
-297 -299 0
-298 -299 0
300 301 302 303 304 305 306 307 308 309 310 311 312 0
-300 -301 0
-300 -302 0
-300 -303 0
-300 -304 0
-300 -305 0
-300 -306 0
-300 -307 0
-300 -308 0
-300 -309 0
-300 -310 0
-300 -311 0
-300 -312 0
-301 -302 0
-301 -303 0
-301 -304 0
-301 -305 0
-301 -306 0
-301 -307 0
-301 -308 0
-301 -309 0
-301 -310 0
-301 -311 0
-301 -312 0
-302 -303 0
-302 -304 0
-302 -305 0
-302 -306 0
-302 -307 0
-302 -308 0
-302 -309 0
-302 -310 0
-302 -311 0
-302 -312 0
-303 -304 0
-303 -305 0
-303 -306 0
-303 -307 0
-303 -308 0
-303 -309 0
-303 -310 0
-303 -311 0
-303 -312 0
-304 -305 0
-304 -306 0
-304 -307 0
-304 -308 0
-304 -309 0
-304 -310 0
-304 -311 0
-304 -312 0
-305 -306 0
-305 -307 0
-305 -308 0
-305 -309 0
-305 -310 0
-305 -311 0
-305 -312 0
-306 -307 0
-306 -308 0
-306 -309 0
-306 -310 0
-306 -311 0
-306 -312 0
-307 -308 0
-307 -309 0
-307 -310 0
-307 -311 0
-307 -312 0
-308 -309 0
-308 -310 0
-308 -311 0
-308 -312 0
-309 -310 0
-309 -311 0
-309 -312 0
-310 -311 0
-310 -312 0
-311 -312 0
313 314 315 316 317 318 319 320 321 322 323 324 325 0
-313 -314 0
-313 -315 0
-313 -316 0
-313 -317 0
-313 -318 0
-313 -319 0
-313 -320 0
-313 -321 0
-313 -322 0
-313 -323 0
-313 -324 0
-313 -325 0
-314 -315 0
-314 -316 0
-314 -317 0
-314 -318 0
-314 -319 0
-314 -320 0
-314 -321 0
-314 -322 0
-314 -323 0
-314 -324 0
-314 -325 0
-315 -316 0
-315 -317 0
-315 -318 0
-315 -319 0
-315 -320 0
-315 -321 0
-315 -322 0
-315 -323 0
-315 -324 0
-315 -325 0
-316 -317 0
-316 -318 0
-316 -319 0
-316 -320 0
-316 -321 0
-316 -322 0
-316 -323 0
-316 -324 0
-316 -325 0
-317 -318 0
-317 -319 0
-317 -320 0
-317 -321 0
-317 -322 0
-317 -323 0
-317 -324 0
-317 -325 0
-318 -319 0
-318 -320 0
-318 -321 0
-318 -322 0
-318 -323 0
-318 -324 0
-318 -325 0
-319 -320 0
-319 -321 0
-319 -322 0
-319 -323 0
-319 -324 0
-319 -325 0
-320 -321 0
-320 -322 0
-320 -323 0
-320 -324 0
-320 -325 0
-321 -322 0
-321 -323 0
-321 -324 0
-321 -325 0
-322 -323 0
-322 -324 0
-322 -325 0
-323 -324 0
-323 -325 0
-324 -325 0
326 327 328 329 330 331 332 333 334 335 336 337 338 0
-326 -327 0
-326 -328 0
-326 -329 0
-326 -330 0
-326 -331 0
-326 -332 0
-326 -333 0
-326 -334 0
-326 -335 0
-326 -336 0
-326 -337 0
-326 -338 0
-327 -328 0
-327 -329 0
-327 -330 0
-327 -331 0
-327 -332 0
-327 -333 0
-327 -334 0
-327 -335 0
-327 -336 0
-327 -337 0
-327 -338 0
-328 -329 0
-328 -330 0
-328 -331 0
-328 -332 0
-328 -333 0
-328 -334 0
-328 -335 0
-328 -336 0
-328 -337 0
-328 -338 0
-329 -330 0
-329 -331 0
-329 -332 0
-329 -333 0
-329 -334 0
-329 -335 0
-329 -336 0
-329 -337 0
-329 -338 0
-330 -331 0
-330 -332 0
-330 -333 0
-330 -334 0
-330 -335 0
-330 -336 0
-330 -337 0
-330 -338 0
-331 -332 0
-331 -333 0
-331 -334 0
-331 -335 0
-331 -336 0
-331 -337 0
-331 -338 0
-332 -333 0
-332 -334 0
-332 -335 0
-332 -336 0
-332 -337 0
-332 -338 0
-333 -334 0
-333 -335 0
-333 -336 0
-333 -337 0
-333 -338 0
-334 -335 0
-334 -336 0
-334 -337 0
-334 -338 0
-335 -336 0
-335 -337 0
-335 -338 0
-336 -337 0
-336 -338 0
-337 -338 0
339 340 341 342 343 344 345 346 347 348 349 350 351 0
-339 -340 0
-339 -341 0
-339 -342 0
-339 -343 0
-339 -344 0
-339 -345 0
-339 -346 0
-339 -347 0
-339 -348 0
-339 -349 0
-339 -350 0
-339 -351 0
-340 -341 0
-340 -342 0
-340 -343 0
-340 -344 0
-340 -345 0
-340 -346 0
-340 -347 0
-340 -348 0
-340 -349 0
-340 -350 0
-340 -351 0
-341 -342 0
-341 -343 0
-341 -344 0
-341 -345 0
-341 -346 0
-341 -347 0
-341 -348 0
-341 -349 0
-341 -350 0
-341 -351 0
-342 -343 0
-342 -344 0
-342 -345 0
-342 -346 0
-342 -347 0
-342 -348 0
-342 -349 0
-342 -350 0
-342 -351 0
-343 -344 0
-343 -345 0
-343 -346 0
-343 -347 0
-343 -348 0
-343 -349 0
-343 -350 0
-343 -351 0
-344 -345 0
-344 -346 0
-344 -347 0
-344 -348 0
-344 -349 0
-344 -350 0
-344 -351 0
-345 -346 0
-345 -347 0
-345 -348 0
-345 -349 0
-345 -350 0
-345 -351 0
-346 -347 0
-346 -348 0
-346 -349 0
-346 -350 0
-346 -351 0
-347 -348 0
-347 -349 0
-347 -350 0
-347 -351 0
-348 -349 0
-348 -350 0
-348 -351 0
-349 -350 0
-349 -351 0
-350 -351 0
352 353 354 355 356 357 358 359 360 361 362 363 364 0
-352 -353 0
-352 -354 0
-352 -355 0
-352 -356 0
-352 -357 0
-352 -358 0
-352 -359 0
-352 -360 0
-352 -361 0
-352 -362 0
-352 -363 0
-352 -364 0
-353 -354 0
-353 -355 0
-353 -356 0
-353 -357 0
-353 -358 0
-353 -359 0
-353 -360 0
-353 -361 0
-353 -362 0
-353 -363 0
-353 -364 0
-354 -355 0
-354 -356 0
-354 -357 0
-354 -358 0
-354 -359 0
-354 -360 0
-354 -361 0
-354 -362 0
-354 -363 0
-354 -364 0
-355 -356 0
-355 -357 0
-355 -358 0
-355 -359 0
-355 -360 0
-355 -361 0
-355 -362 0
-355 -363 0
-355 -364 0
-356 -357 0
-356 -358 0
-356 -359 0
-356 -360 0
-356 -361 0
-356 -362 0
-356 -363 0
-356 -364 0
-357 -358 0
-357 -359 0
-357 -360 0
-357 -361 0
-357 -362 0
-357 -363 0
-357 -364 0
-358 -359 0
-358 -360 0
-358 -361 0
-358 -362 0
-358 -363 0
-358 -364 0
-359 -360 0
-359 -361 0
-359 -362 0
-359 -363 0
-359 -364 0
-360 -361 0
-360 -362 0
-360 -363 0
-360 -364 0
-361 -362 0
-361 -363 0
-361 -364 0
-362 -363 0
-362 -364 0
-363 -364 0
365 366 367 368 369 370 371 372 373 374 375 376 377 0
-365 -366 0
-365 -367 0
-365 -368 0
-365 -369 0
-365 -370 0
-365 -371 0
-365 -372 0
-365 -373 0
-365 -374 0
-365 -375 0
-365 -376 0
-365 -377 0
-366 -367 0
-366 -368 0
-366 -369 0
-366 -370 0
-366 -371 0
-366 -372 0
-366 -373 0
-366 -374 0
-366 -375 0
-366 -376 0
-366 -377 0
-367 -368 0
-367 -369 0
-367 -370 0
-367 -371 0
-367 -372 0
-367 -373 0
-367 -374 0
-367 -375 0
-367 -376 0
-367 -377 0
-368 -369 0
-368 -370 0
-368 -371 0
-368 -372 0
-368 -373 0
-368 -374 0
-368 -375 0
-368 -376 0
-368 -377 0
-369 -370 0
-369 -371 0
-369 -372 0
-369 -373 0
-369 -374 0
-369 -375 0
-369 -376 0
-369 -377 0
-370 -371 0
-370 -372 0
-370 -373 0
-370 -374 0
-370 -375 0
-370 -376 0
-370 -377 0
-371 -372 0
-371 -373 0
-371 -374 0
-371 -375 0
-371 -376 0
-371 -377 0
-372 -373 0
-372 -374 0
-372 -375 0
-372 -376 0
-372 -377 0
-373 -374 0
-373 -375 0
-373 -376 0
-373 -377 0
-374 -375 0
-374 -376 0
-374 -377 0
-375 -376 0
-375 -377 0
-376 -377 0
378 379 380 381 382 383 384 385 386 387 388 389 390 0
-378 -379 0
-378 -380 0
-378 -381 0
-378 -382 0
-378 -383 0
-378 -384 0
-378 -385 0
-378 -386 0
-378 -387 0
-378 -388 0
-378 -389 0
-378 -390 0
-379 -380 0
-379 -381 0
-379 -382 0
-379 -383 0
-379 -384 0
-379 -385 0
-379 -386 0
-379 -387 0
-379 -388 0
-379 -389 0
-379 -390 0
-380 -381 0
-380 -382 0
-380 -383 0
-380 -384 0
-380 -385 0
-380 -386 0
-380 -387 0
-380 -388 0
-380 -389 0
-380 -390 0
-381 -382 0
-381 -383 0
-381 -384 0
-381 -385 0
-381 -386 0
-381 -387 0
-381 -388 0
-381 -389 0
-381 -390 0
-382 -383 0
-382 -384 0
-382 -385 0
-382 -386 0
-382 -387 0
-382 -388 0
-382 -389 0
-382 -390 0
-383 -384 0
-383 -385 0
-383 -386 0
-383 -387 0
-383 -388 0
-383 -389 0
-383 -390 0
-384 -385 0
-384 -386 0
-384 -387 0
-384 -388 0
-384 -389 0
-384 -390 0
-385 -386 0
-385 -387 0
-385 -388 0
-385 -389 0
-385 -390 0
-386 -387 0
-386 -388 0
-386 -389 0
-386 -390 0
-387 -388 0
-387 -389 0
-387 -390 0
-388 -389 0
-388 -390 0
-389 -390 0
391 392 393 394 395 396 397 398 399 400 401 402 403 0
-391 -392 0
-391 -393 0
-391 -394 0
-391 -395 0
-391 -396 0
-391 -397 0
-391 -398 0
-391 -399 0
-391 -400 0
-391 -401 0
-391 -402 0
-391 -403 0
-392 -393 0
-392 -394 0
-392 -395 0
-392 -396 0
-392 -397 0
-392 -398 0
-392 -399 0
-392 -400 0
-392 -401 0
-392 -402 0
-392 -403 0
-393 -394 0
-393 -395 0
-393 -396 0
-393 -397 0
-393 -398 0
-393 -399 0
-393 -400 0
-393 -401 0
-393 -402 0
-393 -403 0
-394 -395 0
-394 -396 0
-394 -397 0
-394 -398 0
-394 -399 0
-394 -400 0
-394 -401 0
-394 -402 0
-394 -403 0
-395 -396 0
-395 -397 0
-395 -398 0
-395 -399 0
-395 -400 0
-395 -401 0
-395 -402 0
-395 -403 0
-396 -397 0
-396 -398 0
-396 -399 0
-396 -400 0
-396 -401 0
-396 -402 0
-396 -403 0
-397 -398 0
-397 -399 0
-397 -400 0
-397 -401 0
-397 -402 0
-397 -403 0
-398 -399 0
-398 -400 0
-398 -401 0
-398 -402 0
-398 -403 0
-399 -400 0
-399 -401 0
-399 -402 0
-399 -403 0
-400 -401 0
-400 -402 0
-400 -403 0
-401 -402 0
-401 -403 0
-402 -403 0
404 405 406 407 408 409 410 411 412 413 414 415 416 0
-404 -405 0
-404 -406 0
-404 -407 0
-404 -408 0
-404 -409 0
-404 -410 0
-404 -411 0
-404 -412 0
-404 -413 0
-404 -414 0
-404 -415 0
-404 -416 0
-405 -406 0
-405 -407 0
-405 -408 0
-405 -409 0
-405 -410 0
-405 -411 0
-405 -412 0
-405 -413 0
-405 -414 0
-405 -415 0
-405 -416 0
-406 -407 0
-406 -408 0
-406 -409 0
-406 -410 0
-406 -411 0
-406 -412 0
-406 -413 0
-406 -414 0
-406 -415 0
-406 -416 0
-407 -408 0
-407 -409 0
-407 -410 0
-407 -411 0
-407 -412 0
-407 -413 0
-407 -414 0
-407 -415 0
-407 -416 0
-408 -409 0
-408 -410 0
-408 -411 0
-408 -412 0
-408 -413 0
-408 -414 0
-408 -415 0
-408 -416 0
-409 -410 0
-409 -411 0
-409 -412 0
-409 -413 0
-409 -414 0
-409 -415 0
-409 -416 0
-410 -411 0
-410 -412 0
-410 -413 0
-410 -414 0
-410 -415 0
-410 -416 0
-411 -412 0
-411 -413 0
-411 -414 0
-411 -415 0
-411 -416 0
-412 -413 0
-412 -414 0
-412 -415 0
-412 -416 0
-413 -414 0
-413 -415 0
-413 -416 0
-414 -415 0
-414 -416 0
-415 -416 0
417 418 419 420 421 422 423 424 425 426 427 428 429 0
-417 -418 0
-417 -419 0
-417 -420 0
-417 -421 0
-417 -422 0
-417 -423 0
-417 -424 0
-417 -425 0
-417 -426 0
-417 -427 0
-417 -428 0
-417 -429 0
-418 -419 0
-418 -420 0
-418 -421 0
-418 -422 0
-418 -423 0
-418 -424 0
-418 -425 0
-418 -426 0
-418 -427 0
-418 -428 0
-418 -429 0
-419 -420 0
-419 -421 0
-419 -422 0
-419 -423 0
-419 -424 0
-419 -425 0
-419 -426 0
-419 -427 0
-419 -428 0
-419 -429 0
-420 -421 0
-420 -422 0
-420 -423 0
-420 -424 0
-420 -425 0
-420 -426 0
-420 -427 0
-420 -428 0
-420 -429 0
-421 -422 0
-421 -423 0
-421 -424 0
-421 -425 0
-421 -426 0
-421 -427 0
-421 -428 0
-421 -429 0
-422 -423 0
-422 -424 0
-422 -425 0
-422 -426 0
-422 -427 0
-422 -428 0
-422 -429 0
-423 -424 0
-423 -425 0
-423 -426 0
-423 -427 0
-423 -428 0
-423 -429 0
-424 -425 0
-424 -426 0
-424 -427 0
-424 -428 0
-424 -429 0
-425 -426 0
-425 -427 0
-425 -428 0
-425 -429 0
-426 -427 0
-426 -428 0
-426 -429 0
-427 -428 0
-427 -429 0
-428 -429 0
430 431 432 433 434 435 436 437 438 439 440 441 442 0
-430 -431 0
-430 -432 0
-430 -433 0
-430 -434 0
-430 -435 0
-430 -436 0
-430 -437 0
-430 -438 0
-430 -439 0
-430 -440 0
-430 -441 0
-430 -442 0
-431 -432 0
-431 -433 0
-431 -434 0
-431 -435 0
-431 -436 0
-431 -437 0
-431 -438 0
-431 -439 0
-431 -440 0
-431 -441 0
-431 -442 0
-432 -433 0
-432 -434 0
-432 -435 0
-432 -436 0
-432 -437 0
-432 -438 0
-432 -439 0
-432 -440 0
-432 -441 0
-432 -442 0
-433 -434 0
-433 -435 0
-433 -436 0
-433 -437 0
-433 -438 0
-433 -439 0
-433 -440 0
-433 -441 0
-433 -442 0
-434 -435 0
-434 -436 0
-434 -437 0
-434 -438 0
-434 -439 0
-434 -440 0
-434 -441 0
-434 -442 0
-435 -436 0
-435 -437 0
-435 -438 0
-435 -439 0
-435 -440 0
-435 -441 0
-435 -442 0
-436 -437 0
-436 -438 0
-436 -439 0
-436 -440 0
-436 -441 0
-436 -442 0
-437 -438 0
-437 -439 0
-437 -440 0
-437 -441 0
-437 -442 0
-438 -439 0
-438 -440 0
-438 -441 0
-438 -442 0
-439 -440 0
-439 -441 0
-439 -442 0
-440 -441 0
-440 -442 0
-441 -442 0
-1 -14 0
-1 -27 0
-1 -40 0
-14 -27 0
-14 -40 0
-27 -40 0
-2 -15 0
-2 -28 0
-2 -41 0
-15 -28 0
-15 -41 0
-28 -41 0
-3 -16 0
-3 -29 0
-3 -42 0
-16 -29 0
-16 -42 0
-29 -42 0
-4 -17 0
-4 -30 0
-4 -43 0
-17 -30 0
-17 -43 0
-30 -43 0
-5 -18 0
-5 -31 0
-5 -44 0
-18 -31 0
-18 -44 0
-31 -44 0
-6 -19 0
-6 -32 0
-6 -45 0
-19 -32 0
-19 -45 0
-32 -45 0
-7 -20 0
-7 -33 0
-7 -46 0
-20 -33 0
-20 -46 0
-33 -46 0
-8 -21 0
-8 -34 0
-8 -47 0
-21 -34 0
-21 -47 0
-34 -47 0
-9 -22 0
-9 -35 0
-9 -48 0
-22 -35 0
-22 -48 0
-35 -48 0
-10 -23 0
-10 -36 0
-10 -49 0
-23 -36 0
-23 -49 0
-36 -49 0
-11 -24 0
-11 -37 0
-11 -50 0
-24 -37 0
-24 -50 0
-37 -50 0
-12 -25 0
-12 -38 0
-12 -51 0
-25 -38 0
-25 -51 0
-38 -51 0
-13 -26 0
-13 -39 0
-13 -52 0
-26 -39 0
-26 -52 0
-39 -52 0
443 444 445 446 447 448 449 450 451 452 0
-443 -444 0
-443 -445 0
-443 -446 0
-443 -447 0
-443 -448 0
-443 -449 0
-443 -450 0
-443 -451 0
-443 -452 0
-444 -445 0
-444 -446 0
-444 -447 0
-444 -448 0
-444 -449 0
-444 -450 0
-444 -451 0
-444 -452 0
-445 -446 0
-445 -447 0
-445 -448 0
-445 -449 0
-445 -450 0
-445 -451 0
-445 -452 0
-446 -447 0
-446 -448 0
-446 -449 0
-446 -450 0
-446 -451 0
-446 -452 0
-447 -448 0
-447 -449 0
-447 -450 0
-447 -451 0
-447 -452 0
-448 -449 0
-448 -450 0
-448 -451 0
-448 -452 0
-449 -450 0
-449 -451 0
-449 -452 0
-450 -451 0
-450 -452 0
-451 -452 0
-1 443 0
-2 443 444 0
-3 443 444 445 0
-4 443 444 445 446 0
-5 444 445 446 447 0
-6 445 446 447 448 0
-7 446 447 448 449 0
-8 447 448 449 450 0
-9 448 449 450 451 0
-10 449 450 451 452 0
-11 450 451 452 0
-12 451 452 0
-13 452 0
-14 443 0
-15 443 444 0
-16 443 444 445 0
-17 443 444 445 446 0
-18 444 445 446 447 0
-19 445 446 447 448 0
-20 446 447 448 449 0
-21 447 448 449 450 0
-22 448 449 450 451 0
-23 449 450 451 452 0
-24 450 451 452 0
-25 451 452 0
-26 452 0
-27 443 0
-28 443 444 0
-29 443 444 445 0
-30 443 444 445 446 0
-31 444 445 446 447 0
-32 445 446 447 448 0
-33 446 447 448 449 0
-34 447 448 449 450 0
-35 448 449 450 451 0
-36 449 450 451 452 0
-37 450 451 452 0
-38 451 452 0
-39 452 0
-40 443 0
-41 443 444 0
-42 443 444 445 0
-43 443 444 445 446 0
-44 444 445 446 447 0
-45 445 446 447 448 0
-46 446 447 448 449 0
-47 447 448 449 450 0
-48 448 449 450 451 0
-49 449 450 451 452 0
-50 450 451 452 0
-51 451 452 0
-52 452 0
-443 -5 0
-443 -6 0
-443 -7 0
-443 -8 0
-443 -9 0
-443 -10 0
-443 -11 0
-443 -12 0
-443 -13 0
-443 -18 0
-443 -19 0
-443 -20 0
-443 -21 0
-443 -22 0
-443 -23 0
-443 -24 0
-443 -25 0
-443 -26 0
-443 -31 0
-443 -32 0
-443 -33 0
-443 -34 0
-443 -35 0
-443 -36 0
-443 -37 0
-443 -38 0
-443 -39 0
-443 -44 0
-443 -45 0
-443 -46 0
-443 -47 0
-443 -48 0
-443 -49 0
-443 -50 0
-443 -51 0
-443 -52 0
-444 -1 0
-444 -6 0
-444 -7 0
-444 -8 0
-444 -9 0
-444 -10 0
-444 -11 0
-444 -12 0
-444 -13 0
-444 -14 0
-444 -19 0
-444 -20 0
-444 -21 0
-444 -22 0
-444 -23 0
-444 -24 0
-444 -25 0
-444 -26 0
-444 -27 0
-444 -32 0
-444 -33 0
-444 -34 0
-444 -35 0
-444 -36 0
-444 -37 0
-444 -38 0
-444 -39 0
-444 -40 0
-444 -45 0
-444 -46 0
-444 -47 0
-444 -48 0
-444 -49 0
-444 -50 0
-444 -51 0
-444 -52 0
-445 -1 0
-445 -2 0
-445 -7 0
-445 -8 0
-445 -9 0
-445 -10 0
-445 -11 0
-445 -12 0
-445 -13 0
-445 -14 0
-445 -15 0
-445 -20 0
-445 -21 0
-445 -22 0
-445 -23 0
-445 -24 0
-445 -25 0
-445 -26 0
-445 -27 0
-445 -28 0
-445 -33 0
-445 -34 0
-445 -35 0
-445 -36 0
-445 -37 0
-445 -38 0
-445 -39 0
-445 -40 0
-445 -41 0
-445 -46 0
-445 -47 0
-445 -48 0
-445 -49 0
-445 -50 0
-445 -51 0
-445 -52 0
-446 -1 0
-446 -2 0
-446 -3 0
-446 -8 0
-446 -9 0
-446 -10 0
-446 -11 0
-446 -12 0
-446 -13 0
-446 -14 0
-446 -15 0
-446 -16 0
-446 -21 0
-446 -22 0
-446 -23 0
-446 -24 0
-446 -25 0
-446 -26 0
-446 -27 0
-446 -28 0
-446 -29 0
-446 -34 0
-446 -35 0
-446 -36 0
-446 -37 0
-446 -38 0
-446 -39 0
-446 -40 0
-446 -41 0
-446 -42 0
-446 -47 0
-446 -48 0
-446 -49 0
-446 -50 0
-446 -51 0
-446 -52 0
-447 -1 0
-447 -2 0
-447 -3 0
-447 -4 0
-447 -9 0
-447 -10 0
-447 -11 0
-447 -12 0
-447 -13 0
-447 -14 0
-447 -15 0
-447 -16 0
-447 -17 0
-447 -22 0
-447 -23 0
-447 -24 0
-447 -25 0
-447 -26 0
-447 -27 0
-447 -28 0
-447 -29 0
-447 -30 0
-447 -35 0
-447 -36 0
-447 -37 0
-447 -38 0
-447 -39 0
-447 -40 0
-447 -41 0
-447 -42 0
-447 -43 0
-447 -48 0
-447 -49 0
-447 -50 0
-447 -51 0
-447 -52 0
-448 -1 0
-448 -2 0
-448 -3 0
-448 -4 0
-448 -5 0
-448 -10 0
-448 -11 0
-448 -12 0
-448 -13 0
-448 -14 0
-448 -15 0
-448 -16 0
-448 -17 0
-448 -18 0
-448 -23 0
-448 -24 0
-448 -25 0
-448 -26 0
-448 -27 0
-448 -28 0
-448 -29 0
-448 -30 0
-448 -31 0
-448 -36 0
-448 -37 0
-448 -38 0
-448 -39 0
-448 -40 0
-448 -41 0
-448 -42 0
-448 -43 0
-448 -44 0
-448 -49 0
-448 -50 0
-448 -51 0
-448 -52 0
-449 -1 0
-449 -2 0
-449 -3 0
-449 -4 0
-449 -5 0
-449 -6 0
-449 -11 0
-449 -12 0
-449 -13 0
-449 -14 0
-449 -15 0
-449 -16 0
-449 -17 0
-449 -18 0
-449 -19 0
-449 -24 0
-449 -25 0
-449 -26 0
-449 -27 0
-449 -28 0
-449 -29 0
-449 -30 0
-449 -31 0
-449 -32 0
-449 -37 0
-449 -38 0
-449 -39 0
-449 -40 0
-449 -41 0
-449 -42 0
-449 -43 0
-449 -44 0
-449 -45 0
-449 -50 0
-449 -51 0
-449 -52 0
-450 -1 0
-450 -2 0
-450 -3 0
-450 -4 0
-450 -5 0
-450 -6 0
-450 -7 0
-450 -12 0
-450 -13 0
-450 -14 0
-450 -15 0
-450 -16 0
-450 -17 0
-450 -18 0
-450 -19 0
-450 -20 0
-450 -25 0
-450 -26 0
-450 -27 0
-450 -28 0
-450 -29 0
-450 -30 0
-450 -31 0
-450 -32 0
-450 -33 0
-450 -38 0
-450 -39 0
-450 -40 0
-450 -41 0
-450 -42 0
-450 -43 0
-450 -44 0
-450 -45 0
-450 -46 0
-450 -51 0
-450 -52 0
-451 -1 0
-451 -2 0
-451 -3 0
-451 -4 0
-451 -5 0
-451 -6 0
-451 -7 0
-451 -8 0
-451 -13 0
-451 -14 0
-451 -15 0
-451 -16 0
-451 -17 0
-451 -18 0
-451 -19 0
-451 -20 0
-451 -21 0
-451 -26 0
-451 -27 0
-451 -28 0
-451 -29 0
-451 -30 0
-451 -31 0
-451 -32 0
-451 -33 0
-451 -34 0
-451 -39 0
-451 -40 0
-451 -41 0
-451 -42 0
-451 -43 0
-451 -44 0
-451 -45 0
-451 -46 0
-451 -47 0
-451 -52 0
-452 -1 0
-452 -2 0
-452 -3 0
-452 -4 0
-452 -5 0
-452 -6 0
-452 -7 0
-452 -8 0
-452 -9 0
-452 -14 0
-452 -15 0
-452 -16 0
-452 -17 0
-452 -18 0
-452 -19 0
-452 -20 0
-452 -21 0
-452 -22 0
-452 -27 0
-452 -28 0
-452 -29 0
-452 -30 0
-452 -31 0
-452 -32 0
-452 -33 0
-452 -34 0
-452 -35 0
-452 -40 0
-452 -41 0
-452 -42 0
-452 -43 0
-452 -44 0
-452 -45 0
-452 -46 0
-452 -47 0
-452 -48 0
-53 -66 0
-53 -79 0
-66 -79 0
-54 -67 0
-54 -80 0
-67 -80 0
-55 -68 0
-55 -81 0
-68 -81 0
-56 -69 0
-56 -82 0
-69 -82 0
-57 -70 0
-57 -83 0
-70 -83 0
-58 -71 0
-58 -84 0
-71 -84 0
-59 -72 0
-59 -85 0
-72 -85 0
-60 -73 0
-60 -86 0
-73 -86 0
-61 -74 0
-61 -87 0
-74 -87 0
-62 -75 0
-62 -88 0
-75 -88 0
-63 -76 0
-63 -89 0
-76 -89 0
-64 -77 0
-64 -90 0
-77 -90 0
-65 -78 0
-65 -91 0
-78 -91 0
453 454 455 456 457 458 459 460 461 462 463 0
-453 -454 0
-453 -455 0
-453 -456 0
-453 -457 0
-453 -458 0
-453 -459 0
-453 -460 0
-453 -461 0
-453 -462 0
-453 -463 0
-454 -455 0
-454 -456 0
-454 -457 0
-454 -458 0
-454 -459 0
-454 -460 0
-454 -461 0
-454 -462 0
-454 -463 0
-455 -456 0
-455 -457 0
-455 -458 0
-455 -459 0
-455 -460 0
-455 -461 0
-455 -462 0
-455 -463 0
-456 -457 0
-456 -458 0
-456 -459 0
-456 -460 0
-456 -461 0
-456 -462 0
-456 -463 0
-457 -458 0
-457 -459 0
-457 -460 0
-457 -461 0
-457 -462 0
-457 -463 0
-458 -459 0
-458 -460 0
-458 -461 0
-458 -462 0
-458 -463 0
-459 -460 0
-459 -461 0
-459 -462 0
-459 -463 0
-460 -461 0
-460 -462 0
-460 -463 0
-461 -462 0
-461 -463 0
-462 -463 0
-53 453 0
-54 453 454 0
-55 453 454 455 0
-56 454 455 456 0
-57 455 456 457 0
-58 456 457 458 0
-59 457 458 459 0
-60 458 459 460 0
-61 459 460 461 0
-62 460 461 462 0
-63 461 462 463 0
-64 462 463 0
-65 463 0
-66 453 0
-67 453 454 0
-68 453 454 455 0
-69 454 455 456 0
-70 455 456 457 0
-71 456 457 458 0
-72 457 458 459 0
-73 458 459 460 0
-74 459 460 461 0
-75 460 461 462 0
-76 461 462 463 0
-77 462 463 0
-78 463 0
-79 453 0
-80 453 454 0
-81 453 454 455 0
-82 454 455 456 0
-83 455 456 457 0
-84 456 457 458 0
-85 457 458 459 0
-86 458 459 460 0
-87 459 460 461 0
-88 460 461 462 0
-89 461 462 463 0
-90 462 463 0
-91 463 0
-453 -56 0
-453 -57 0
-453 -58 0
-453 -59 0
-453 -60 0
-453 -61 0
-453 -62 0
-453 -63 0
-453 -64 0
-453 -65 0
-453 -69 0
-453 -70 0
-453 -71 0
-453 -72 0
-453 -73 0
-453 -74 0
-453 -75 0
-453 -76 0
-453 -77 0
-453 -78 0
-453 -82 0
-453 -83 0
-453 -84 0
-453 -85 0
-453 -86 0
-453 -87 0
-453 -88 0
-453 -89 0
-453 -90 0
-453 -91 0
-454 -53 0
-454 -57 0
-454 -58 0
-454 -59 0
-454 -60 0
-454 -61 0
-454 -62 0
-454 -63 0
-454 -64 0
-454 -65 0
-454 -66 0
-454 -70 0
-454 -71 0
-454 -72 0
-454 -73 0
-454 -74 0
-454 -75 0
-454 -76 0
-454 -77 0
-454 -78 0
-454 -79 0
-454 -83 0
-454 -84 0
-454 -85 0
-454 -86 0
-454 -87 0
-454 -88 0
-454 -89 0
-454 -90 0
-454 -91 0
-455 -53 0
-455 -54 0
-455 -58 0
-455 -59 0
-455 -60 0
-455 -61 0
-455 -62 0
-455 -63 0
-455 -64 0
-455 -65 0
-455 -66 0
-455 -67 0
-455 -71 0
-455 -72 0
-455 -73 0
-455 -74 0
-455 -75 0
-455 -76 0
-455 -77 0
-455 -78 0
-455 -79 0
-455 -80 0
-455 -84 0
-455 -85 0
-455 -86 0
-455 -87 0
-455 -88 0
-455 -89 0
-455 -90 0
-455 -91 0
-456 -53 0
-456 -54 0
-456 -55 0
-456 -59 0
-456 -60 0
-456 -61 0
-456 -62 0
-456 -63 0
-456 -64 0
-456 -65 0
-456 -66 0
-456 -67 0
-456 -68 0
-456 -72 0
-456 -73 0
-456 -74 0
-456 -75 0
-456 -76 0
-456 -77 0
-456 -78 0
-456 -79 0
-456 -80 0
-456 -81 0
-456 -85 0
-456 -86 0
-456 -87 0
-456 -88 0
-456 -89 0
-456 -90 0
-456 -91 0
-457 -53 0
-457 -54 0
-457 -55 0
-457 -56 0
-457 -60 0
-457 -61 0
-457 -62 0
-457 -63 0
-457 -64 0
-457 -65 0
-457 -66 0
-457 -67 0
-457 -68 0
-457 -69 0
-457 -73 0
-457 -74 0
-457 -75 0
-457 -76 0
-457 -77 0
-457 -78 0
-457 -79 0
-457 -80 0
-457 -81 0
-457 -82 0
-457 -86 0
-457 -87 0
-457 -88 0
-457 -89 0
-457 -90 0
-457 -91 0
-458 -53 0
-458 -54 0
-458 -55 0
-458 -56 0
-458 -57 0
-458 -61 0
-458 -62 0
-458 -63 0
-458 -64 0
-458 -65 0
-458 -66 0
-458 -67 0
-458 -68 0
-458 -69 0
-458 -70 0
-458 -74 0
-458 -75 0
-458 -76 0
-458 -77 0
-458 -78 0
-458 -79 0
-458 -80 0
-458 -81 0
-458 -82 0
-458 -83 0
-458 -87 0
-458 -88 0
-458 -89 0
-458 -90 0
-458 -91 0
-459 -53 0
-459 -54 0
-459 -55 0
-459 -56 0
-459 -57 0
-459 -58 0
-459 -62 0
-459 -63 0
-459 -64 0
-459 -65 0
-459 -66 0
-459 -67 0
-459 -68 0
-459 -69 0
-459 -70 0
-459 -71 0
-459 -75 0
-459 -76 0
-459 -77 0
-459 -78 0
-459 -79 0
-459 -80 0
-459 -81 0
-459 -82 0
-459 -83 0
-459 -84 0
-459 -88 0
-459 -89 0
-459 -90 0
-459 -91 0
-460 -53 0
-460 -54 0
-460 -55 0
-460 -56 0
-460 -57 0
-460 -58 0
-460 -59 0
-460 -63 0
-460 -64 0
-460 -65 0
-460 -66 0
-460 -67 0
-460 -68 0
-460 -69 0
-460 -70 0
-460 -71 0
-460 -72 0
-460 -76 0
-460 -77 0
-460 -78 0
-460 -79 0
-460 -80 0
-460 -81 0
-460 -82 0
-460 -83 0
-460 -84 0
-460 -85 0
-460 -89 0
-460 -90 0
-460 -91 0
-461 -53 0
-461 -54 0
-461 -55 0
-461 -56 0
-461 -57 0
-461 -58 0
-461 -59 0
-461 -60 0
-461 -64 0
-461 -65 0
-461 -66 0
-461 -67 0
-461 -68 0
-461 -69 0
-461 -70 0
-461 -71 0
-461 -72 0
-461 -73 0
-461 -77 0
-461 -78 0
-461 -79 0
-461 -80 0
-461 -81 0
-461 -82 0
-461 -83 0
-461 -84 0
-461 -85 0
-461 -86 0
-461 -90 0
-461 -91 0
-462 -53 0
-462 -54 0
-462 -55 0
-462 -56 0
-462 -57 0
-462 -58 0
-462 -59 0
-462 -60 0
-462 -61 0
-462 -65 0
-462 -66 0
-462 -67 0
-462 -68 0
-462 -69 0
-462 -70 0
-462 -71 0
-462 -72 0
-462 -73 0
-462 -74 0
-462 -78 0
-462 -79 0
-462 -80 0
-462 -81 0
-462 -82 0
-462 -83 0
-462 -84 0
-462 -85 0
-462 -86 0
-462 -87 0
-462 -91 0
-463 -53 0
-463 -54 0
-463 -55 0
-463 -56 0
-463 -57 0
-463 -58 0
-463 -59 0
-463 -60 0
-463 -61 0
-463 -62 0
-463 -66 0
-463 -67 0
-463 -68 0
-463 -69 0
-463 -70 0
-463 -71 0
-463 -72 0
-463 -73 0
-463 -74 0
-463 -75 0
-463 -79 0
-463 -80 0
-463 -81 0
-463 -82 0
-463 -83 0
-463 -84 0
-463 -85 0
-463 -86 0
-463 -87 0
-463 -88 0
-92 -105 0
-92 -118 0
-105 -118 0
-93 -106 0
-93 -119 0
-106 -119 0
-94 -107 0
-94 -120 0
-107 -120 0
-95 -108 0
-95 -121 0
-108 -121 0
-96 -109 0
-96 -122 0
-109 -122 0
-97 -110 0
-97 -123 0
-110 -123 0
-98 -111 0
-98 -124 0
-111 -124 0
-99 -112 0
-99 -125 0
-112 -125 0
-100 -113 0
-100 -126 0
-113 -126 0
-101 -114 0
-101 -127 0
-114 -127 0
-102 -115 0
-102 -128 0
-115 -128 0
-103 -116 0
-103 -129 0
-116 -129 0
-104 -117 0
-104 -130 0
-117 -130 0
464 465 466 467 468 469 470 471 472 473 474 0
-464 -465 0
-464 -466 0
-464 -467 0
-464 -468 0
-464 -469 0
-464 -470 0
-464 -471 0
-464 -472 0
-464 -473 0
-464 -474 0
-465 -466 0
-465 -467 0
-465 -468 0
-465 -469 0
-465 -470 0
-465 -471 0
-465 -472 0
-465 -473 0
-465 -474 0
-466 -467 0
-466 -468 0
-466 -469 0
-466 -470 0
-466 -471 0
-466 -472 0
-466 -473 0
-466 -474 0
-467 -468 0
-467 -469 0
-467 -470 0
-467 -471 0
-467 -472 0
-467 -473 0
-467 -474 0
-468 -469 0
-468 -470 0
-468 -471 0
-468 -472 0
-468 -473 0
-468 -474 0
-469 -470 0
-469 -471 0
-469 -472 0
-469 -473 0
-469 -474 0
-470 -471 0
-470 -472 0
-470 -473 0
-470 -474 0
-471 -472 0
-471 -473 0
-471 -474 0
-472 -473 0
-472 -474 0
-473 -474 0
-92 464 0
-93 464 465 0
-94 464 465 466 0
-95 465 466 467 0
-96 466 467 468 0
-97 467 468 469 0
-98 468 469 470 0
-99 469 470 471 0
-100 470 471 472 0
-101 471 472 473 0
-102 472 473 474 0
-103 473 474 0
-104 474 0
-105 464 0
-106 464 465 0
-107 464 465 466 0
-108 465 466 467 0
-109 466 467 468 0
-110 467 468 469 0
-111 468 469 470 0
-112 469 470 471 0
-113 470 471 472 0
-114 471 472 473 0
-115 472 473 474 0
-116 473 474 0
-117 474 0
-118 464 0
-119 464 465 0
-120 464 465 466 0
-121 465 466 467 0
-122 466 467 468 0
-123 467 468 469 0
-124 468 469 470 0
-125 469 470 471 0
-126 470 471 472 0
-127 471 472 473 0
-128 472 473 474 0
-129 473 474 0
-130 474 0
-464 -95 0
-464 -96 0
-464 -97 0
-464 -98 0
-464 -99 0
-464 -100 0
-464 -101 0
-464 -102 0
-464 -103 0
-464 -104 0
-464 -108 0
-464 -109 0
-464 -110 0
-464 -111 0
-464 -112 0
-464 -113 0
-464 -114 0
-464 -115 0
-464 -116 0
-464 -117 0
-464 -121 0
-464 -122 0
-464 -123 0
-464 -124 0
-464 -125 0
-464 -126 0
-464 -127 0
-464 -128 0
-464 -129 0
-464 -130 0
-465 -92 0
-465 -96 0
-465 -97 0
-465 -98 0
-465 -99 0
-465 -100 0
-465 -101 0
-465 -102 0
-465 -103 0
-465 -104 0
-465 -105 0
-465 -109 0
-465 -110 0
-465 -111 0
-465 -112 0
-465 -113 0
-465 -114 0
-465 -115 0
-465 -116 0
-465 -117 0
-465 -118 0
-465 -122 0
-465 -123 0
-465 -124 0
-465 -125 0
-465 -126 0
-465 -127 0
-465 -128 0
-465 -129 0
-465 -130 0
-466 -92 0
-466 -93 0
-466 -97 0
-466 -98 0
-466 -99 0
-466 -100 0
-466 -101 0
-466 -102 0
-466 -103 0
-466 -104 0
-466 -105 0
-466 -106 0
-466 -110 0
-466 -111 0
-466 -112 0
-466 -113 0
-466 -114 0
-466 -115 0
-466 -116 0
-466 -117 0
-466 -118 0
-466 -119 0
-466 -123 0
-466 -124 0
-466 -125 0
-466 -126 0
-466 -127 0
-466 -128 0
-466 -129 0
-466 -130 0
-467 -92 0
-467 -93 0
-467 -94 0
-467 -98 0
-467 -99 0
-467 -100 0
-467 -101 0
-467 -102 0
-467 -103 0
-467 -104 0
-467 -105 0
-467 -106 0
-467 -107 0
-467 -111 0
-467 -112 0
-467 -113 0
-467 -114 0
-467 -115 0
-467 -116 0
-467 -117 0
-467 -118 0
-467 -119 0
-467 -120 0
-467 -124 0
-467 -125 0
-467 -126 0
-467 -127 0
-467 -128 0
-467 -129 0
-467 -130 0
-468 -92 0
-468 -93 0
-468 -94 0
-468 -95 0
-468 -99 0
-468 -100 0
-468 -101 0
-468 -102 0
-468 -103 0
-468 -104 0
-468 -105 0
-468 -106 0
-468 -107 0
-468 -108 0
-468 -112 0
-468 -113 0
-468 -114 0
-468 -115 0
-468 -116 0
-468 -117 0
-468 -118 0
-468 -119 0
-468 -120 0
-468 -121 0
-468 -125 0
-468 -126 0
-468 -127 0
-468 -128 0
-468 -129 0
-468 -130 0
-469 -92 0
-469 -93 0
-469 -94 0
-469 -95 0
-469 -96 0
-469 -100 0
-469 -101 0
-469 -102 0
-469 -103 0
-469 -104 0
-469 -105 0
-469 -106 0
-469 -107 0
-469 -108 0
-469 -109 0
-469 -113 0
-469 -114 0
-469 -115 0
-469 -116 0
-469 -117 0
-469 -118 0
-469 -119 0
-469 -120 0
-469 -121 0
-469 -122 0
-469 -126 0
-469 -127 0
-469 -128 0
-469 -129 0
-469 -130 0
-470 -92 0
-470 -93 0
-470 -94 0
-470 -95 0
-470 -96 0
-470 -97 0
-470 -101 0
-470 -102 0
-470 -103 0
-470 -104 0
-470 -105 0
-470 -106 0
-470 -107 0
-470 -108 0
-470 -109 0
-470 -110 0
-470 -114 0
-470 -115 0
-470 -116 0
-470 -117 0
-470 -118 0
-470 -119 0
-470 -120 0
-470 -121 0
-470 -122 0
-470 -123 0
-470 -127 0
-470 -128 0
-470 -129 0
-470 -130 0
-471 -92 0
-471 -93 0
-471 -94 0
-471 -95 0
-471 -96 0
-471 -97 0
-471 -98 0
-471 -102 0
-471 -103 0
-471 -104 0
-471 -105 0
-471 -106 0
-471 -107 0
-471 -108 0
-471 -109 0
-471 -110 0
-471 -111 0
-471 -115 0
-471 -116 0
-471 -117 0
-471 -118 0
-471 -119 0
-471 -120 0
-471 -121 0
-471 -122 0
-471 -123 0
-471 -124 0
-471 -128 0
-471 -129 0
-471 -130 0
-472 -92 0
-472 -93 0
-472 -94 0
-472 -95 0
-472 -96 0
-472 -97 0
-472 -98 0
-472 -99 0
-472 -103 0
-472 -104 0
-472 -105 0
-472 -106 0
-472 -107 0
-472 -108 0
-472 -109 0
-472 -110 0
-472 -111 0
-472 -112 0
-472 -116 0
-472 -117 0
-472 -118 0
-472 -119 0
-472 -120 0
-472 -121 0
-472 -122 0
-472 -123 0
-472 -124 0
-472 -125 0
-472 -129 0
-472 -130 0
-473 -92 0
-473 -93 0
-473 -94 0
-473 -95 0
-473 -96 0
-473 -97 0
-473 -98 0
-473 -99 0
-473 -100 0
-473 -104 0
-473 -105 0
-473 -106 0
-473 -107 0
-473 -108 0
-473 -109 0
-473 -110 0
-473 -111 0
-473 -112 0
-473 -113 0
-473 -117 0
-473 -118 0
-473 -119 0
-473 -120 0
-473 -121 0
-473 -122 0
-473 -123 0
-473 -124 0
-473 -125 0
-473 -126 0
-473 -130 0
-474 -92 0
-474 -93 0
-474 -94 0
-474 -95 0
-474 -96 0
-474 -97 0
-474 -98 0
-474 -99 0
-474 -100 0
-474 -101 0
-474 -105 0
-474 -106 0
-474 -107 0
-474 -108 0
-474 -109 0
-474 -110 0
-474 -111 0
-474 -112 0
-474 -113 0
-474 -114 0
-474 -118 0
-474 -119 0
-474 -120 0
-474 -121 0
-474 -122 0
-474 -123 0
-474 -124 0
-474 -125 0
-474 -126 0
-474 -127 0
-131 -144 0
-131 -157 0
-144 -157 0
-132 -145 0
-132 -158 0
-145 -158 0
-133 -146 0
-133 -159 0
-146 -159 0
-134 -147 0
-134 -160 0
-147 -160 0
-135 -148 0
-135 -161 0
-148 -161 0
-136 -149 0
-136 -162 0
-149 -162 0
-137 -150 0
-137 -163 0
-150 -163 0
-138 -151 0
-138 -164 0
-151 -164 0
-139 -152 0
-139 -165 0
-152 -165 0
-140 -153 0
-140 -166 0
-153 -166 0
-141 -154 0
-141 -167 0
-154 -167 0
-142 -155 0
-142 -168 0
-155 -168 0
-143 -156 0
-143 -169 0
-156 -169 0
475 476 477 478 479 480 481 482 483 484 485 0
-475 -476 0
-475 -477 0
-475 -478 0
-475 -479 0
-475 -480 0
-475 -481 0
-475 -482 0
-475 -483 0
-475 -484 0
-475 -485 0
-476 -477 0
-476 -478 0
-476 -479 0
-476 -480 0
-476 -481 0
-476 -482 0
-476 -483 0
-476 -484 0
-476 -485 0
-477 -478 0
-477 -479 0
-477 -480 0
-477 -481 0
-477 -482 0
-477 -483 0
-477 -484 0
-477 -485 0
-478 -479 0
-478 -480 0
-478 -481 0
-478 -482 0
-478 -483 0
-478 -484 0
-478 -485 0
-479 -480 0
-479 -481 0
-479 -482 0
-479 -483 0
-479 -484 0
-479 -485 0
-480 -481 0
-480 -482 0
-480 -483 0
-480 -484 0
-480 -485 0
-481 -482 0
-481 -483 0
-481 -484 0
-481 -485 0
-482 -483 0
-482 -484 0
-482 -485 0
-483 -484 0
-483 -485 0
-484 -485 0
-131 475 0
-132 475 476 0
-133 475 476 477 0
-134 476 477 478 0
-135 477 478 479 0
-136 478 479 480 0
-137 479 480 481 0
-138 480 481 482 0
-139 481 482 483 0
-140 482 483 484 0
-141 483 484 485 0
-142 484 485 0
-143 485 0
-144 475 0
-145 475 476 0
-146 475 476 477 0
-147 476 477 478 0
-148 477 478 479 0
-149 478 479 480 0
-150 479 480 481 0
-151 480 481 482 0
-152 481 482 483 0
-153 482 483 484 0
-154 483 484 485 0
-155 484 485 0
-156 485 0
-157 475 0
-158 475 476 0
-159 475 476 477 0
-160 476 477 478 0
-161 477 478 479 0
-162 478 479 480 0
-163 479 480 481 0
-164 480 481 482 0
-165 481 482 483 0
-166 482 483 484 0
-167 483 484 485 0
-168 484 485 0
-169 485 0
-475 -134 0
-475 -135 0
-475 -136 0
-475 -137 0
-475 -138 0
-475 -139 0
-475 -140 0
-475 -141 0
-475 -142 0
-475 -143 0
-475 -147 0
-475 -148 0
-475 -149 0
-475 -150 0
-475 -151 0
-475 -152 0
-475 -153 0
-475 -154 0
-475 -155 0
-475 -156 0
-475 -160 0
-475 -161 0
-475 -162 0
-475 -163 0
-475 -164 0
-475 -165 0
-475 -166 0
-475 -167 0
-475 -168 0
-475 -169 0
-476 -131 0
-476 -135 0
-476 -136 0
-476 -137 0
-476 -138 0
-476 -139 0
-476 -140 0
-476 -141 0
-476 -142 0
-476 -143 0
-476 -144 0
-476 -148 0
-476 -149 0
-476 -150 0
-476 -151 0
-476 -152 0
-476 -153 0
-476 -154 0
-476 -155 0
-476 -156 0
-476 -157 0
-476 -161 0
-476 -162 0
-476 -163 0
-476 -164 0
-476 -165 0
-476 -166 0
-476 -167 0
-476 -168 0
-476 -169 0
-477 -131 0
-477 -132 0
-477 -136 0
-477 -137 0
-477 -138 0
-477 -139 0
-477 -140 0
-477 -141 0
-477 -142 0
-477 -143 0
-477 -144 0
-477 -145 0
-477 -149 0
-477 -150 0
-477 -151 0
-477 -152 0
-477 -153 0
-477 -154 0
-477 -155 0
-477 -156 0
-477 -157 0
-477 -158 0
-477 -162 0
-477 -163 0
-477 -164 0
-477 -165 0
-477 -166 0
-477 -167 0
-477 -168 0
-477 -169 0
-478 -131 0
-478 -132 0
-478 -133 0
-478 -137 0
-478 -138 0
-478 -139 0
-478 -140 0
-478 -141 0
-478 -142 0
-478 -143 0
-478 -144 0
-478 -145 0
-478 -146 0
-478 -150 0
-478 -151 0
-478 -152 0
-478 -153 0
-478 -154 0
-478 -155 0
-478 -156 0
-478 -157 0
-478 -158 0
-478 -159 0
-478 -163 0
-478 -164 0
-478 -165 0
-478 -166 0
-478 -167 0
-478 -168 0
-478 -169 0
-479 -131 0
-479 -132 0
-479 -133 0
-479 -134 0
-479 -138 0
-479 -139 0
-479 -140 0
-479 -141 0
-479 -142 0
-479 -143 0
-479 -144 0
-479 -145 0
-479 -146 0
-479 -147 0
-479 -151 0
-479 -152 0
-479 -153 0
-479 -154 0
-479 -155 0
-479 -156 0
-479 -157 0
-479 -158 0
-479 -159 0
-479 -160 0
-479 -164 0
-479 -165 0
-479 -166 0
-479 -167 0
-479 -168 0
-479 -169 0
-480 -131 0
-480 -132 0
-480 -133 0
-480 -134 0
-480 -135 0
-480 -139 0
-480 -140 0
-480 -141 0
-480 -142 0
-480 -143 0
-480 -144 0
-480 -145 0
-480 -146 0
-480 -147 0
-480 -148 0
-480 -152 0
-480 -153 0
-480 -154 0
-480 -155 0
-480 -156 0
-480 -157 0
-480 -158 0
-480 -159 0
-480 -160 0
-480 -161 0
-480 -165 0
-480 -166 0
-480 -167 0
-480 -168 0
-480 -169 0
-481 -131 0
-481 -132 0
-481 -133 0
-481 -134 0
-481 -135 0
-481 -136 0
-481 -140 0
-481 -141 0
-481 -142 0
-481 -143 0
-481 -144 0
-481 -145 0
-481 -146 0
-481 -147 0
-481 -148 0
-481 -149 0
-481 -153 0
-481 -154 0
-481 -155 0
-481 -156 0
-481 -157 0
-481 -158 0
-481 -159 0
-481 -160 0
-481 -161 0
-481 -162 0
-481 -166 0
-481 -167 0
-481 -168 0
-481 -169 0
-482 -131 0
-482 -132 0
-482 -133 0
-482 -134 0
-482 -135 0
-482 -136 0
-482 -137 0
-482 -141 0
-482 -142 0
-482 -143 0
-482 -144 0
-482 -145 0
-482 -146 0
-482 -147 0
-482 -148 0
-482 -149 0
-482 -150 0
-482 -154 0
-482 -155 0
-482 -156 0
-482 -157 0
-482 -158 0
-482 -159 0
-482 -160 0
-482 -161 0
-482 -162 0
-482 -163 0
-482 -167 0
-482 -168 0
-482 -169 0
-483 -131 0
-483 -132 0
-483 -133 0
-483 -134 0
-483 -135 0
-483 -136 0
-483 -137 0
-483 -138 0
-483 -142 0
-483 -143 0
-483 -144 0
-483 -145 0
-483 -146 0
-483 -147 0
-483 -148 0
-483 -149 0
-483 -150 0
-483 -151 0
-483 -155 0
-483 -156 0
-483 -157 0
-483 -158 0
-483 -159 0
-483 -160 0
-483 -161 0
-483 -162 0
-483 -163 0
-483 -164 0
-483 -168 0
-483 -169 0
-484 -131 0
-484 -132 0
-484 -133 0
-484 -134 0
-484 -135 0
-484 -136 0
-484 -137 0
-484 -138 0
-484 -139 0
-484 -143 0
-484 -144 0
-484 -145 0
-484 -146 0
-484 -147 0
-484 -148 0
-484 -149 0
-484 -150 0
-484 -151 0
-484 -152 0
-484 -156 0
-484 -157 0
-484 -158 0
-484 -159 0
-484 -160 0
-484 -161 0
-484 -162 0
-484 -163 0
-484 -164 0
-484 -165 0
-484 -169 0
-485 -131 0
-485 -132 0
-485 -133 0
-485 -134 0
-485 -135 0
-485 -136 0
-485 -137 0
-485 -138 0
-485 -139 0
-485 -140 0
-485 -144 0
-485 -145 0
-485 -146 0
-485 -147 0
-485 -148 0
-485 -149 0
-485 -150 0
-485 -151 0
-485 -152 0
-485 -153 0
-485 -157 0
-485 -158 0
-485 -159 0
-485 -160 0
-485 -161 0
-485 -162 0
-485 -163 0
-485 -164 0
-485 -165 0
-485 -166 0
-170 -183 0
-170 -196 0
-183 -196 0
-171 -184 0
-171 -197 0
-184 -197 0
-172 -185 0
-172 -198 0
-185 -198 0
-173 -186 0
-173 -199 0
-186 -199 0
-174 -187 0
-174 -200 0
-187 -200 0
-175 -188 0
-175 -201 0
-188 -201 0
-176 -189 0
-176 -202 0
-189 -202 0
-177 -190 0
-177 -203 0
-190 -203 0
-178 -191 0
-178 -204 0
-191 -204 0
-179 -192 0
-179 -205 0
-192 -205 0
-180 -193 0
-180 -206 0
-193 -206 0
-181 -194 0
-181 -207 0
-194 -207 0
-182 -195 0
-182 -208 0
-195 -208 0
486 487 488 489 490 491 492 493 494 495 496 0
-486 -487 0
-486 -488 0
-486 -489 0
-486 -490 0
-486 -491 0
-486 -492 0
-486 -493 0
-486 -494 0
-486 -495 0
-486 -496 0
-487 -488 0
-487 -489 0
-487 -490 0
-487 -491 0
-487 -492 0
-487 -493 0
-487 -494 0
-487 -495 0
-487 -496 0
-488 -489 0
-488 -490 0
-488 -491 0
-488 -492 0
-488 -493 0
-488 -494 0
-488 -495 0
-488 -496 0
-489 -490 0
-489 -491 0
-489 -492 0
-489 -493 0
-489 -494 0
-489 -495 0
-489 -496 0
-490 -491 0
-490 -492 0
-490 -493 0
-490 -494 0
-490 -495 0
-490 -496 0
-491 -492 0
-491 -493 0
-491 -494 0
-491 -495 0
-491 -496 0
-492 -493 0
-492 -494 0
-492 -495 0
-492 -496 0
-493 -494 0
-493 -495 0
-493 -496 0
-494 -495 0
-494 -496 0
-495 -496 0
-170 486 0
-171 486 487 0
-172 486 487 488 0
-173 487 488 489 0
-174 488 489 490 0
-175 489 490 491 0
-176 490 491 492 0
-177 491 492 493 0
-178 492 493 494 0
-179 493 494 495 0
-180 494 495 496 0
-181 495 496 0
-182 496 0
-183 486 0
-184 486 487 0
-185 486 487 488 0
-186 487 488 489 0
-187 488 489 490 0
-188 489 490 491 0
-189 490 491 492 0
-190 491 492 493 0
-191 492 493 494 0
-192 493 494 495 0
-193 494 495 496 0
-194 495 496 0
-195 496 0
-196 486 0
-197 486 487 0
-198 486 487 488 0
-199 487 488 489 0
-200 488 489 490 0
-201 489 490 491 0
-202 490 491 492 0
-203 491 492 493 0
-204 492 493 494 0
-205 493 494 495 0
-206 494 495 496 0
-207 495 496 0
-208 496 0
-486 -173 0
-486 -174 0
-486 -175 0
-486 -176 0
-486 -177 0
-486 -178 0
-486 -179 0
-486 -180 0
-486 -181 0
-486 -182 0
-486 -186 0
-486 -187 0
-486 -188 0
-486 -189 0
-486 -190 0
-486 -191 0
-486 -192 0
-486 -193 0
-486 -194 0
-486 -195 0
-486 -199 0
-486 -200 0
-486 -201 0
-486 -202 0
-486 -203 0
-486 -204 0
-486 -205 0
-486 -206 0
-486 -207 0
-486 -208 0
-487 -170 0
-487 -174 0
-487 -175 0
-487 -176 0
-487 -177 0
-487 -178 0
-487 -179 0
-487 -180 0
-487 -181 0
-487 -182 0
-487 -183 0
-487 -187 0
-487 -188 0
-487 -189 0
-487 -190 0
-487 -191 0
-487 -192 0
-487 -193 0
-487 -194 0
-487 -195 0
-487 -196 0
-487 -200 0
-487 -201 0
-487 -202 0
-487 -203 0
-487 -204 0
-487 -205 0
-487 -206 0
-487 -207 0
-487 -208 0
-488 -170 0
-488 -171 0
-488 -175 0
-488 -176 0
-488 -177 0
-488 -178 0
-488 -179 0
-488 -180 0
-488 -181 0
-488 -182 0
-488 -183 0
-488 -184 0
-488 -188 0
-488 -189 0
-488 -190 0
-488 -191 0
-488 -192 0
-488 -193 0
-488 -194 0
-488 -195 0
-488 -196 0
-488 -197 0
-488 -201 0
-488 -202 0
-488 -203 0
-488 -204 0
-488 -205 0
-488 -206 0
-488 -207 0
-488 -208 0
-489 -170 0
-489 -171 0
-489 -172 0
-489 -176 0
-489 -177 0
-489 -178 0
-489 -179 0
-489 -180 0
-489 -181 0
-489 -182 0
-489 -183 0
-489 -184 0
-489 -185 0
-489 -189 0
-489 -190 0
-489 -191 0
-489 -192 0
-489 -193 0
-489 -194 0
-489 -195 0
-489 -196 0
-489 -197 0
-489 -198 0
-489 -202 0
-489 -203 0
-489 -204 0
-489 -205 0
-489 -206 0
-489 -207 0
-489 -208 0
-490 -170 0
-490 -171 0
-490 -172 0
-490 -173 0
-490 -177 0
-490 -178 0
-490 -179 0
-490 -180 0
-490 -181 0
-490 -182 0
-490 -183 0
-490 -184 0
-490 -185 0
-490 -186 0
-490 -190 0
-490 -191 0
-490 -192 0
-490 -193 0
-490 -194 0
-490 -195 0
-490 -196 0
-490 -197 0
-490 -198 0
-490 -199 0
-490 -203 0
-490 -204 0
-490 -205 0
-490 -206 0
-490 -207 0
-490 -208 0
-491 -170 0
-491 -171 0
-491 -172 0
-491 -173 0
-491 -174 0
-491 -178 0
-491 -179 0
-491 -180 0
-491 -181 0
-491 -182 0
-491 -183 0
-491 -184 0
-491 -185 0
-491 -186 0
-491 -187 0
-491 -191 0
-491 -192 0
-491 -193 0
-491 -194 0
-491 -195 0
-491 -196 0
-491 -197 0
-491 -198 0
-491 -199 0
-491 -200 0
-491 -204 0
-491 -205 0
-491 -206 0
-491 -207 0
-491 -208 0
-492 -170 0
-492 -171 0
-492 -172 0
-492 -173 0
-492 -174 0
-492 -175 0
-492 -179 0
-492 -180 0
-492 -181 0
-492 -182 0
-492 -183 0
-492 -184 0
-492 -185 0
-492 -186 0
-492 -187 0
-492 -188 0
-492 -192 0
-492 -193 0
-492 -194 0
-492 -195 0
-492 -196 0
-492 -197 0
-492 -198 0
-492 -199 0
-492 -200 0
-492 -201 0
-492 -205 0
-492 -206 0
-492 -207 0
-492 -208 0
-493 -170 0
-493 -171 0
-493 -172 0
-493 -173 0
-493 -174 0
-493 -175 0
-493 -176 0
-493 -180 0
-493 -181 0
-493 -182 0
-493 -183 0
-493 -184 0
-493 -185 0
-493 -186 0
-493 -187 0
-493 -188 0
-493 -189 0
-493 -193 0
-493 -194 0
-493 -195 0
-493 -196 0
-493 -197 0
-493 -198 0
-493 -199 0
-493 -200 0
-493 -201 0
-493 -202 0
-493 -206 0
-493 -207 0
-493 -208 0
-494 -170 0
-494 -171 0
-494 -172 0
-494 -173 0
-494 -174 0
-494 -175 0
-494 -176 0
-494 -177 0
-494 -181 0
-494 -182 0
-494 -183 0
-494 -184 0
-494 -185 0
-494 -186 0
-494 -187 0
-494 -188 0
-494 -189 0
-494 -190 0
-494 -194 0
-494 -195 0
-494 -196 0
-494 -197 0
-494 -198 0
-494 -199 0
-494 -200 0
-494 -201 0
-494 -202 0
-494 -203 0
-494 -207 0
-494 -208 0
-495 -170 0
-495 -171 0
-495 -172 0
-495 -173 0
-495 -174 0
-495 -175 0
-495 -176 0
-495 -177 0
-495 -178 0
-495 -182 0
-495 -183 0
-495 -184 0
-495 -185 0
-495 -186 0
-495 -187 0
-495 -188 0
-495 -189 0
-495 -190 0
-495 -191 0
-495 -195 0
-495 -196 0
-495 -197 0
-495 -198 0
-495 -199 0
-495 -200 0
-495 -201 0
-495 -202 0
-495 -203 0
-495 -204 0
-495 -208 0
-496 -170 0
-496 -171 0
-496 -172 0
-496 -173 0
-496 -174 0
-496 -175 0
-496 -176 0
-496 -177 0
-496 -178 0
-496 -179 0
-496 -183 0
-496 -184 0
-496 -185 0
-496 -186 0
-496 -187 0
-496 -188 0
-496 -189 0
-496 -190 0
-496 -191 0
-496 -192 0
-496 -196 0
-496 -197 0
-496 -198 0
-496 -199 0
-496 -200 0
-496 -201 0
-496 -202 0
-496 -203 0
-496 -204 0
-496 -205 0
-209 -222 0
-209 -235 0
-222 -235 0
-210 -223 0
-210 -236 0
-223 -236 0
-211 -224 0
-211 -237 0
-224 -237 0
-212 -225 0
-212 -238 0
-225 -238 0
-213 -226 0
-213 -239 0
-226 -239 0
-214 -227 0
-214 -240 0
-227 -240 0
-215 -228 0
-215 -241 0
-228 -241 0
-216 -229 0
-216 -242 0
-229 -242 0
-217 -230 0
-217 -243 0
-230 -243 0
-218 -231 0
-218 -244 0
-231 -244 0
-219 -232 0
-219 -245 0
-232 -245 0
-220 -233 0
-220 -246 0
-233 -246 0
-221 -234 0
-221 -247 0
-234 -247 0
497 498 499 500 501 502 503 504 505 506 507 0
-497 -498 0
-497 -499 0
-497 -500 0
-497 -501 0
-497 -502 0
-497 -503 0
-497 -504 0
-497 -505 0
-497 -506 0
-497 -507 0
-498 -499 0
-498 -500 0
-498 -501 0
-498 -502 0
-498 -503 0
-498 -504 0
-498 -505 0
-498 -506 0
-498 -507 0
-499 -500 0
-499 -501 0
-499 -502 0
-499 -503 0
-499 -504 0
-499 -505 0
-499 -506 0
-499 -507 0
-500 -501 0
-500 -502 0
-500 -503 0
-500 -504 0
-500 -505 0
-500 -506 0
-500 -507 0
-501 -502 0
-501 -503 0
-501 -504 0
-501 -505 0
-501 -506 0
-501 -507 0
-502 -503 0
-502 -504 0
-502 -505 0
-502 -506 0
-502 -507 0
-503 -504 0
-503 -505 0
-503 -506 0
-503 -507 0
-504 -505 0
-504 -506 0
-504 -507 0
-505 -506 0
-505 -507 0
-506 -507 0
-209 497 0
-210 497 498 0
-211 497 498 499 0
-212 498 499 500 0
-213 499 500 501 0
-214 500 501 502 0
-215 501 502 503 0
-216 502 503 504 0
-217 503 504 505 0
-218 504 505 506 0
-219 505 506 507 0
-220 506 507 0
-221 507 0
-222 497 0
-223 497 498 0
-224 497 498 499 0
-225 498 499 500 0
-226 499 500 501 0
-227 500 501 502 0
-228 501 502 503 0
-229 502 503 504 0
-230 503 504 505 0
-231 504 505 506 0
-232 505 506 507 0
-233 506 507 0
-234 507 0
-235 497 0
-236 497 498 0
-237 497 498 499 0
-238 498 499 500 0
-239 499 500 501 0
-240 500 501 502 0
-241 501 502 503 0
-242 502 503 504 0
-243 503 504 505 0
-244 504 505 506 0
-245 505 506 507 0
-246 506 507 0
-247 507 0
-497 -212 0
-497 -213 0
-497 -214 0
-497 -215 0
-497 -216 0
-497 -217 0
-497 -218 0
-497 -219 0
-497 -220 0
-497 -221 0
-497 -225 0
-497 -226 0
-497 -227 0
-497 -228 0
-497 -229 0
-497 -230 0
-497 -231 0
-497 -232 0
-497 -233 0
-497 -234 0
-497 -238 0
-497 -239 0
-497 -240 0
-497 -241 0
-497 -242 0
-497 -243 0
-497 -244 0
-497 -245 0
-497 -246 0
-497 -247 0
-498 -209 0
-498 -213 0
-498 -214 0
-498 -215 0
-498 -216 0
-498 -217 0
-498 -218 0
-498 -219 0
-498 -220 0
-498 -221 0
-498 -222 0
-498 -226 0
-498 -227 0
-498 -228 0
-498 -229 0
-498 -230 0
-498 -231 0
-498 -232 0
-498 -233 0
-498 -234 0
-498 -235 0
-498 -239 0
-498 -240 0
-498 -241 0
-498 -242 0
-498 -243 0
-498 -244 0
-498 -245 0
-498 -246 0
-498 -247 0
-499 -209 0
-499 -210 0
-499 -214 0
-499 -215 0
-499 -216 0
-499 -217 0
-499 -218 0
-499 -219 0
-499 -220 0
-499 -221 0
-499 -222 0
-499 -223 0
-499 -227 0
-499 -228 0
-499 -229 0
-499 -230 0
-499 -231 0
-499 -232 0
-499 -233 0
-499 -234 0
-499 -235 0
-499 -236 0
-499 -240 0
-499 -241 0
-499 -242 0
-499 -243 0
-499 -244 0
-499 -245 0
-499 -246 0
-499 -247 0
-500 -209 0
-500 -210 0
-500 -211 0
-500 -215 0
-500 -216 0
-500 -217 0
-500 -218 0
-500 -219 0
-500 -220 0
-500 -221 0
-500 -222 0
-500 -223 0
-500 -224 0
-500 -228 0
-500 -229 0
-500 -230 0
-500 -231 0
-500 -232 0
-500 -233 0
-500 -234 0
-500 -235 0
-500 -236 0
-500 -237 0
-500 -241 0
-500 -242 0
-500 -243 0
-500 -244 0
-500 -245 0
-500 -246 0
-500 -247 0
-501 -209 0
-501 -210 0
-501 -211 0
-501 -212 0
-501 -216 0
-501 -217 0
-501 -218 0
-501 -219 0
-501 -220 0
-501 -221 0
-501 -222 0
-501 -223 0
-501 -224 0
-501 -225 0
-501 -229 0
-501 -230 0
-501 -231 0
-501 -232 0
-501 -233 0
-501 -234 0
-501 -235 0
-501 -236 0
-501 -237 0
-501 -238 0
-501 -242 0
-501 -243 0
-501 -244 0
-501 -245 0
-501 -246 0
-501 -247 0
-502 -209 0
-502 -210 0
-502 -211 0
-502 -212 0
-502 -213 0
-502 -217 0
-502 -218 0
-502 -219 0
-502 -220 0
-502 -221 0
-502 -222 0
-502 -223 0
-502 -224 0
-502 -225 0
-502 -226 0
-502 -230 0
-502 -231 0
-502 -232 0
-502 -233 0
-502 -234 0
-502 -235 0
-502 -236 0
-502 -237 0
-502 -238 0
-502 -239 0
-502 -243 0
-502 -244 0
-502 -245 0
-502 -246 0
-502 -247 0
-503 -209 0
-503 -210 0
-503 -211 0
-503 -212 0
-503 -213 0
-503 -214 0
-503 -218 0
-503 -219 0
-503 -220 0
-503 -221 0
-503 -222 0
-503 -223 0
-503 -224 0
-503 -225 0
-503 -226 0
-503 -227 0
-503 -231 0
-503 -232 0
-503 -233 0
-503 -234 0
-503 -235 0
-503 -236 0
-503 -237 0
-503 -238 0
-503 -239 0
-503 -240 0
-503 -244 0
-503 -245 0
-503 -246 0
-503 -247 0
-504 -209 0
-504 -210 0
-504 -211 0
-504 -212 0
-504 -213 0
-504 -214 0
-504 -215 0
-504 -219 0
-504 -220 0
-504 -221 0
-504 -222 0
-504 -223 0
-504 -224 0
-504 -225 0
-504 -226 0
-504 -227 0
-504 -228 0
-504 -232 0
-504 -233 0
-504 -234 0
-504 -235 0
-504 -236 0
-504 -237 0
-504 -238 0
-504 -239 0
-504 -240 0
-504 -241 0
-504 -245 0
-504 -246 0
-504 -247 0
-505 -209 0
-505 -210 0
-505 -211 0
-505 -212 0
-505 -213 0
-505 -214 0
-505 -215 0
-505 -216 0
-505 -220 0
-505 -221 0
-505 -222 0
-505 -223 0
-505 -224 0
-505 -225 0
-505 -226 0
-505 -227 0
-505 -228 0
-505 -229 0
-505 -233 0
-505 -234 0
-505 -235 0
-505 -236 0
-505 -237 0
-505 -238 0
-505 -239 0
-505 -240 0
-505 -241 0
-505 -242 0
-505 -246 0
-505 -247 0
-506 -209 0
-506 -210 0
-506 -211 0
-506 -212 0
-506 -213 0
-506 -214 0
-506 -215 0
-506 -216 0
-506 -217 0
-506 -221 0
-506 -222 0
-506 -223 0
-506 -224 0
-506 -225 0
-506 -226 0
-506 -227 0
-506 -228 0
-506 -229 0
-506 -230 0
-506 -234 0
-506 -235 0
-506 -236 0
-506 -237 0
-506 -238 0
-506 -239 0
-506 -240 0
-506 -241 0
-506 -242 0
-506 -243 0
-506 -247 0
-507 -209 0
-507 -210 0
-507 -211 0
-507 -212 0
-507 -213 0
-507 -214 0
-507 -215 0
-507 -216 0
-507 -217 0
-507 -218 0
-507 -222 0
-507 -223 0
-507 -224 0
-507 -225 0
-507 -226 0
-507 -227 0
-507 -228 0
-507 -229 0
-507 -230 0
-507 -231 0
-507 -235 0
-507 -236 0
-507 -237 0
-507 -238 0
-507 -239 0
-507 -240 0
-507 -241 0
-507 -242 0
-507 -243 0
-507 -244 0
-248 -261 0
-248 -274 0
-261 -274 0
-249 -262 0
-249 -275 0
-262 -275 0
-250 -263 0
-250 -276 0
-263 -276 0
-251 -264 0
-251 -277 0
-264 -277 0
-252 -265 0
-252 -278 0
-265 -278 0
-253 -266 0
-253 -279 0
-266 -279 0
-254 -267 0
-254 -280 0
-267 -280 0
-255 -268 0
-255 -281 0
-268 -281 0
-256 -269 0
-256 -282 0
-269 -282 0
-257 -270 0
-257 -283 0
-270 -283 0
-258 -271 0
-258 -284 0
-271 -284 0
-259 -272 0
-259 -285 0
-272 -285 0
-260 -273 0
-260 -286 0
-273 -286 0
508 509 510 511 512 513 514 515 516 517 518 0
-508 -509 0
-508 -510 0
-508 -511 0
-508 -512 0
-508 -513 0
-508 -514 0
-508 -515 0
-508 -516 0
-508 -517 0
-508 -518 0
-509 -510 0
-509 -511 0
-509 -512 0
-509 -513 0
-509 -514 0
-509 -515 0
-509 -516 0
-509 -517 0
-509 -518 0
-510 -511 0
-510 -512 0
-510 -513 0
-510 -514 0
-510 -515 0
-510 -516 0
-510 -517 0
-510 -518 0
-511 -512 0
-511 -513 0
-511 -514 0
-511 -515 0
-511 -516 0
-511 -517 0
-511 -518 0
-512 -513 0
-512 -514 0
-512 -515 0
-512 -516 0
-512 -517 0
-512 -518 0
-513 -514 0
-513 -515 0
-513 -516 0
-513 -517 0
-513 -518 0
-514 -515 0
-514 -516 0
-514 -517 0
-514 -518 0
-515 -516 0
-515 -517 0
-515 -518 0
-516 -517 0
-516 -518 0
-517 -518 0
-248 508 0
-249 508 509 0
-250 508 509 510 0
-251 509 510 511 0
-252 510 511 512 0
-253 511 512 513 0
-254 512 513 514 0
-255 513 514 515 0
-256 514 515 516 0
-257 515 516 517 0
-258 516 517 518 0
-259 517 518 0
-260 518 0
-261 508 0
-262 508 509 0
-263 508 509 510 0
-264 509 510 511 0
-265 510 511 512 0
-266 511 512 513 0
-267 512 513 514 0
-268 513 514 515 0
-269 514 515 516 0
-270 515 516 517 0
-271 516 517 518 0
-272 517 518 0
-273 518 0
-274 508 0
-275 508 509 0
-276 508 509 510 0
-277 509 510 511 0
-278 510 511 512 0
-279 511 512 513 0
-280 512 513 514 0
-281 513 514 515 0
-282 514 515 516 0
-283 515 516 517 0
-284 516 517 518 0
-285 517 518 0
-286 518 0
-508 -251 0
-508 -252 0
-508 -253 0
-508 -254 0
-508 -255 0
-508 -256 0
-508 -257 0
-508 -258 0
-508 -259 0
-508 -260 0
-508 -264 0
-508 -265 0
-508 -266 0
-508 -267 0
-508 -268 0
-508 -269 0
-508 -270 0
-508 -271 0
-508 -272 0
-508 -273 0
-508 -277 0
-508 -278 0
-508 -279 0
-508 -280 0
-508 -281 0
-508 -282 0
-508 -283 0
-508 -284 0
-508 -285 0
-508 -286 0
-509 -248 0
-509 -252 0
-509 -253 0
-509 -254 0
-509 -255 0
-509 -256 0
-509 -257 0
-509 -258 0
-509 -259 0
-509 -260 0
-509 -261 0
-509 -265 0
-509 -266 0
-509 -267 0
-509 -268 0
-509 -269 0
-509 -270 0
-509 -271 0
-509 -272 0
-509 -273 0
-509 -274 0
-509 -278 0
-509 -279 0
-509 -280 0
-509 -281 0
-509 -282 0
-509 -283 0
-509 -284 0
-509 -285 0
-509 -286 0
-510 -248 0
-510 -249 0
-510 -253 0
-510 -254 0
-510 -255 0
-510 -256 0
-510 -257 0
-510 -258 0
-510 -259 0
-510 -260 0
-510 -261 0
-510 -262 0
-510 -266 0
-510 -267 0
-510 -268 0
-510 -269 0
-510 -270 0
-510 -271 0
-510 -272 0
-510 -273 0
-510 -274 0
-510 -275 0
-510 -279 0
-510 -280 0
-510 -281 0
-510 -282 0
-510 -283 0
-510 -284 0
-510 -285 0
-510 -286 0
-511 -248 0
-511 -249 0
-511 -250 0
-511 -254 0
-511 -255 0
-511 -256 0
-511 -257 0
-511 -258 0
-511 -259 0
-511 -260 0
-511 -261 0
-511 -262 0
-511 -263 0
-511 -267 0
-511 -268 0
-511 -269 0
-511 -270 0
-511 -271 0
-511 -272 0
-511 -273 0
-511 -274 0
-511 -275 0
-511 -276 0
-511 -280 0
-511 -281 0
-511 -282 0
-511 -283 0
-511 -284 0
-511 -285 0
-511 -286 0
-512 -248 0
-512 -249 0
-512 -250 0
-512 -251 0
-512 -255 0
-512 -256 0
-512 -257 0
-512 -258 0
-512 -259 0
-512 -260 0
-512 -261 0
-512 -262 0
-512 -263 0
-512 -264 0
-512 -268 0
-512 -269 0
-512 -270 0
-512 -271 0
-512 -272 0
-512 -273 0
-512 -274 0
-512 -275 0
-512 -276 0
-512 -277 0
-512 -281 0
-512 -282 0
-512 -283 0
-512 -284 0
-512 -285 0
-512 -286 0
-513 -248 0
-513 -249 0
-513 -250 0
-513 -251 0
-513 -252 0
-513 -256 0
-513 -257 0
-513 -258 0
-513 -259 0
-513 -260 0
-513 -261 0
-513 -262 0
-513 -263 0
-513 -264 0
-513 -265 0
-513 -269 0
-513 -270 0
-513 -271 0
-513 -272 0
-513 -273 0
-513 -274 0
-513 -275 0
-513 -276 0
-513 -277 0
-513 -278 0
-513 -282 0
-513 -283 0
-513 -284 0
-513 -285 0
-513 -286 0
-514 -248 0
-514 -249 0
-514 -250 0
-514 -251 0
-514 -252 0
-514 -253 0
-514 -257 0
-514 -258 0
-514 -259 0
-514 -260 0
-514 -261 0
-514 -262 0
-514 -263 0
-514 -264 0
-514 -265 0
-514 -266 0
-514 -270 0
-514 -271 0
-514 -272 0
-514 -273 0
-514 -274 0
-514 -275 0
-514 -276 0
-514 -277 0
-514 -278 0
-514 -279 0
-514 -283 0
-514 -284 0
-514 -285 0
-514 -286 0
-515 -248 0
-515 -249 0
-515 -250 0
-515 -251 0
-515 -252 0
-515 -253 0
-515 -254 0
-515 -258 0
-515 -259 0
-515 -260 0
-515 -261 0
-515 -262 0
-515 -263 0
-515 -264 0
-515 -265 0
-515 -266 0
-515 -267 0
-515 -271 0
-515 -272 0
-515 -273 0
-515 -274 0
-515 -275 0
-515 -276 0
-515 -277 0
-515 -278 0
-515 -279 0
-515 -280 0
-515 -284 0
-515 -285 0
-515 -286 0
-516 -248 0
-516 -249 0
-516 -250 0
-516 -251 0
-516 -252 0
-516 -253 0
-516 -254 0
-516 -255 0
-516 -259 0
-516 -260 0
-516 -261 0
-516 -262 0
-516 -263 0
-516 -264 0
-516 -265 0
-516 -266 0
-516 -267 0
-516 -268 0
-516 -272 0
-516 -273 0
-516 -274 0
-516 -275 0
-516 -276 0
-516 -277 0
-516 -278 0
-516 -279 0
-516 -280 0
-516 -281 0
-516 -285 0
-516 -286 0
-517 -248 0
-517 -249 0
-517 -250 0
-517 -251 0
-517 -252 0
-517 -253 0
-517 -254 0
-517 -255 0
-517 -256 0
-517 -260 0
-517 -261 0
-517 -262 0
-517 -263 0
-517 -264 0
-517 -265 0
-517 -266 0
-517 -267 0
-517 -268 0
-517 -269 0
-517 -273 0
-517 -274 0
-517 -275 0
-517 -276 0
-517 -277 0
-517 -278 0
-517 -279 0
-517 -280 0
-517 -281 0
-517 -282 0
-517 -286 0
-518 -248 0
-518 -249 0
-518 -250 0
-518 -251 0
-518 -252 0
-518 -253 0
-518 -254 0
-518 -255 0
-518 -256 0
-518 -257 0
-518 -261 0
-518 -262 0
-518 -263 0
-518 -264 0
-518 -265 0
-518 -266 0
-518 -267 0
-518 -268 0
-518 -269 0
-518 -270 0
-518 -274 0
-518 -275 0
-518 -276 0
-518 -277 0
-518 -278 0
-518 -279 0
-518 -280 0
-518 -281 0
-518 -282 0
-518 -283 0
-287 -300 0
-287 -313 0
-300 -313 0
-288 -301 0
-288 -314 0
-301 -314 0
-289 -302 0
-289 -315 0
-302 -315 0
-290 -303 0
-290 -316 0
-303 -316 0
-291 -304 0
-291 -317 0
-304 -317 0
-292 -305 0
-292 -318 0
-305 -318 0
-293 -306 0
-293 -319 0
-306 -319 0
-294 -307 0
-294 -320 0
-307 -320 0
-295 -308 0
-295 -321 0
-308 -321 0
-296 -309 0
-296 -322 0
-309 -322 0
-297 -310 0
-297 -323 0
-310 -323 0
-298 -311 0
-298 -324 0
-311 -324 0
-299 -312 0
-299 -325 0
-312 -325 0
519 520 521 522 523 524 525 526 527 528 529 0
-519 -520 0
-519 -521 0
-519 -522 0
-519 -523 0
-519 -524 0
-519 -525 0
-519 -526 0
-519 -527 0
-519 -528 0
-519 -529 0
-520 -521 0
-520 -522 0
-520 -523 0
-520 -524 0
-520 -525 0
-520 -526 0
-520 -527 0
-520 -528 0
-520 -529 0
-521 -522 0
-521 -523 0
-521 -524 0
-521 -525 0
-521 -526 0
-521 -527 0
-521 -528 0
-521 -529 0
-522 -523 0
-522 -524 0
-522 -525 0
-522 -526 0
-522 -527 0
-522 -528 0
-522 -529 0
-523 -524 0
-523 -525 0
-523 -526 0
-523 -527 0
-523 -528 0
-523 -529 0
-524 -525 0
-524 -526 0
-524 -527 0
-524 -528 0
-524 -529 0
-525 -526 0
-525 -527 0
-525 -528 0
-525 -529 0
-526 -527 0
-526 -528 0
-526 -529 0
-527 -528 0
-527 -529 0
-528 -529 0
-287 519 0
-288 519 520 0
-289 519 520 521 0
-290 520 521 522 0
-291 521 522 523 0
-292 522 523 524 0
-293 523 524 525 0
-294 524 525 526 0
-295 525 526 527 0
-296 526 527 528 0
-297 527 528 529 0
-298 528 529 0
-299 529 0
-300 519 0
-301 519 520 0
-302 519 520 521 0
-303 520 521 522 0
-304 521 522 523 0
-305 522 523 524 0
-306 523 524 525 0
-307 524 525 526 0
-308 525 526 527 0
-309 526 527 528 0
-310 527 528 529 0
-311 528 529 0
-312 529 0
-313 519 0
-314 519 520 0
-315 519 520 521 0
-316 520 521 522 0
-317 521 522 523 0
-318 522 523 524 0
-319 523 524 525 0
-320 524 525 526 0
-321 525 526 527 0
-322 526 527 528 0
-323 527 528 529 0
-324 528 529 0
-325 529 0
-519 -290 0
-519 -291 0
-519 -292 0
-519 -293 0
-519 -294 0
-519 -295 0
-519 -296 0
-519 -297 0
-519 -298 0
-519 -299 0
-519 -303 0
-519 -304 0
-519 -305 0
-519 -306 0
-519 -307 0
-519 -308 0
-519 -309 0
-519 -310 0
-519 -311 0
-519 -312 0
-519 -316 0
-519 -317 0
-519 -318 0
-519 -319 0
-519 -320 0
-519 -321 0
-519 -322 0
-519 -323 0
-519 -324 0
-519 -325 0
-520 -287 0
-520 -291 0
-520 -292 0
-520 -293 0
-520 -294 0
-520 -295 0
-520 -296 0
-520 -297 0
-520 -298 0
-520 -299 0
-520 -300 0
-520 -304 0
-520 -305 0
-520 -306 0
-520 -307 0
-520 -308 0
-520 -309 0
-520 -310 0
-520 -311 0
-520 -312 0
-520 -313 0
-520 -317 0
-520 -318 0
-520 -319 0
-520 -320 0
-520 -321 0
-520 -322 0
-520 -323 0
-520 -324 0
-520 -325 0
-521 -287 0
-521 -288 0
-521 -292 0
-521 -293 0
-521 -294 0
-521 -295 0
-521 -296 0
-521 -297 0
-521 -298 0
-521 -299 0
-521 -300 0
-521 -301 0
-521 -305 0
-521 -306 0
-521 -307 0
-521 -308 0
-521 -309 0
-521 -310 0
-521 -311 0
-521 -312 0
-521 -313 0
-521 -314 0
-521 -318 0
-521 -319 0
-521 -320 0
-521 -321 0
-521 -322 0
-521 -323 0
-521 -324 0
-521 -325 0
-522 -287 0
-522 -288 0
-522 -289 0
-522 -293 0
-522 -294 0
-522 -295 0
-522 -296 0
-522 -297 0
-522 -298 0
-522 -299 0
-522 -300 0
-522 -301 0
-522 -302 0
-522 -306 0
-522 -307 0
-522 -308 0
-522 -309 0
-522 -310 0
-522 -311 0
-522 -312 0
-522 -313 0
-522 -314 0
-522 -315 0
-522 -319 0
-522 -320 0
-522 -321 0
-522 -322 0
-522 -323 0
-522 -324 0
-522 -325 0
-523 -287 0
-523 -288 0
-523 -289 0
-523 -290 0
-523 -294 0
-523 -295 0
-523 -296 0
-523 -297 0
-523 -298 0
-523 -299 0
-523 -300 0
-523 -301 0
-523 -302 0
-523 -303 0
-523 -307 0
-523 -308 0
-523 -309 0
-523 -310 0
-523 -311 0
-523 -312 0
-523 -313 0
-523 -314 0
-523 -315 0
-523 -316 0
-523 -320 0
-523 -321 0
-523 -322 0
-523 -323 0
-523 -324 0
-523 -325 0
-524 -287 0
-524 -288 0
-524 -289 0
-524 -290 0
-524 -291 0
-524 -295 0
-524 -296 0
-524 -297 0
-524 -298 0
-524 -299 0
-524 -300 0
-524 -301 0
-524 -302 0
-524 -303 0
-524 -304 0
-524 -308 0
-524 -309 0
-524 -310 0
-524 -311 0
-524 -312 0
-524 -313 0
-524 -314 0
-524 -315 0
-524 -316 0
-524 -317 0
-524 -321 0
-524 -322 0
-524 -323 0
-524 -324 0
-524 -325 0
-525 -287 0
-525 -288 0
-525 -289 0
-525 -290 0
-525 -291 0
-525 -292 0
-525 -296 0
-525 -297 0
-525 -298 0
-525 -299 0
-525 -300 0
-525 -301 0
-525 -302 0
-525 -303 0
-525 -304 0
-525 -305 0
-525 -309 0
-525 -310 0
-525 -311 0
-525 -312 0
-525 -313 0
-525 -314 0
-525 -315 0
-525 -316 0
-525 -317 0
-525 -318 0
-525 -322 0
-525 -323 0
-525 -324 0
-525 -325 0
-526 -287 0
-526 -288 0
-526 -289 0
-526 -290 0
-526 -291 0
-526 -292 0
-526 -293 0
-526 -297 0
-526 -298 0
-526 -299 0
-526 -300 0
-526 -301 0
-526 -302 0
-526 -303 0
-526 -304 0
-526 -305 0
-526 -306 0
-526 -310 0
-526 -311 0
-526 -312 0
-526 -313 0
-526 -314 0
-526 -315 0
-526 -316 0
-526 -317 0
-526 -318 0
-526 -319 0
-526 -323 0
-526 -324 0
-526 -325 0
-527 -287 0
-527 -288 0
-527 -289 0
-527 -290 0
-527 -291 0
-527 -292 0
-527 -293 0
-527 -294 0
-527 -298 0
-527 -299 0
-527 -300 0
-527 -301 0
-527 -302 0
-527 -303 0
-527 -304 0
-527 -305 0
-527 -306 0
-527 -307 0
-527 -311 0
-527 -312 0
-527 -313 0
-527 -314 0
-527 -315 0
-527 -316 0
-527 -317 0
-527 -318 0
-527 -319 0
-527 -320 0
-527 -324 0
-527 -325 0
-528 -287 0
-528 -288 0
-528 -289 0
-528 -290 0
-528 -291 0
-528 -292 0
-528 -293 0
-528 -294 0
-528 -295 0
-528 -299 0
-528 -300 0
-528 -301 0
-528 -302 0
-528 -303 0
-528 -304 0
-528 -305 0
-528 -306 0
-528 -307 0
-528 -308 0
-528 -312 0
-528 -313 0
-528 -314 0
-528 -315 0
-528 -316 0
-528 -317 0
-528 -318 0
-528 -319 0
-528 -320 0
-528 -321 0
-528 -325 0
-529 -287 0
-529 -288 0
-529 -289 0
-529 -290 0
-529 -291 0
-529 -292 0
-529 -293 0
-529 -294 0
-529 -295 0
-529 -296 0
-529 -300 0
-529 -301 0
-529 -302 0
-529 -303 0
-529 -304 0
-529 -305 0
-529 -306 0
-529 -307 0
-529 -308 0
-529 -309 0
-529 -313 0
-529 -314 0
-529 -315 0
-529 -316 0
-529 -317 0
-529 -318 0
-529 -319 0
-529 -320 0
-529 -321 0
-529 -322 0
-326 -339 0
-326 -352 0
-339 -352 0
-327 -340 0
-327 -353 0
-340 -353 0
-328 -341 0
-328 -354 0
-341 -354 0
-329 -342 0
-329 -355 0
-342 -355 0
-330 -343 0
-330 -356 0
-343 -356 0
-331 -344 0
-331 -357 0
-344 -357 0
-332 -345 0
-332 -358 0
-345 -358 0
-333 -346 0
-333 -359 0
-346 -359 0
-334 -347 0
-334 -360 0
-347 -360 0
-335 -348 0
-335 -361 0
-348 -361 0
-336 -349 0
-336 -362 0
-349 -362 0
-337 -350 0
-337 -363 0
-350 -363 0
-338 -351 0
-338 -364 0
-351 -364 0
530 531 532 533 534 535 536 537 538 539 540 0
-530 -531 0
-530 -532 0
-530 -533 0
-530 -534 0
-530 -535 0
-530 -536 0
-530 -537 0
-530 -538 0
-530 -539 0
-530 -540 0
-531 -532 0
-531 -533 0
-531 -534 0
-531 -535 0
-531 -536 0
-531 -537 0
-531 -538 0
-531 -539 0
-531 -540 0
-532 -533 0
-532 -534 0
-532 -535 0
-532 -536 0
-532 -537 0
-532 -538 0
-532 -539 0
-532 -540 0
-533 -534 0
-533 -535 0
-533 -536 0
-533 -537 0
-533 -538 0
-533 -539 0
-533 -540 0
-534 -535 0
-534 -536 0
-534 -537 0
-534 -538 0
-534 -539 0
-534 -540 0
-535 -536 0
-535 -537 0
-535 -538 0
-535 -539 0
-535 -540 0
-536 -537 0
-536 -538 0
-536 -539 0
-536 -540 0
-537 -538 0
-537 -539 0
-537 -540 0
-538 -539 0
-538 -540 0
-539 -540 0
-326 530 0
-327 530 531 0
-328 530 531 532 0
-329 531 532 533 0
-330 532 533 534 0
-331 533 534 535 0
-332 534 535 536 0
-333 535 536 537 0
-334 536 537 538 0
-335 537 538 539 0
-336 538 539 540 0
-337 539 540 0
-338 540 0
-339 530 0
-340 530 531 0
-341 530 531 532 0
-342 531 532 533 0
-343 532 533 534 0
-344 533 534 535 0
-345 534 535 536 0
-346 535 536 537 0
-347 536 537 538 0
-348 537 538 539 0
-349 538 539 540 0
-350 539 540 0
-351 540 0
-352 530 0
-353 530 531 0
-354 530 531 532 0
-355 531 532 533 0
-356 532 533 534 0
-357 533 534 535 0
-358 534 535 536 0
-359 535 536 537 0
-360 536 537 538 0
-361 537 538 539 0
-362 538 539 540 0
-363 539 540 0
-364 540 0
-530 -329 0
-530 -330 0
-530 -331 0
-530 -332 0
-530 -333 0
-530 -334 0
-530 -335 0
-530 -336 0
-530 -337 0
-530 -338 0
-530 -342 0
-530 -343 0
-530 -344 0
-530 -345 0
-530 -346 0
-530 -347 0
-530 -348 0
-530 -349 0
-530 -350 0
-530 -351 0
-530 -355 0
-530 -356 0
-530 -357 0
-530 -358 0
-530 -359 0
-530 -360 0
-530 -361 0
-530 -362 0
-530 -363 0
-530 -364 0
-531 -326 0
-531 -330 0
-531 -331 0
-531 -332 0
-531 -333 0
-531 -334 0
-531 -335 0
-531 -336 0
-531 -337 0
-531 -338 0
-531 -339 0
-531 -343 0
-531 -344 0
-531 -345 0
-531 -346 0
-531 -347 0
-531 -348 0
-531 -349 0
-531 -350 0
-531 -351 0
-531 -352 0
-531 -356 0
-531 -357 0
-531 -358 0
-531 -359 0
-531 -360 0
-531 -361 0
-531 -362 0
-531 -363 0
-531 -364 0
-532 -326 0
-532 -327 0
-532 -331 0
-532 -332 0
-532 -333 0
-532 -334 0
-532 -335 0
-532 -336 0
-532 -337 0
-532 -338 0
-532 -339 0
-532 -340 0
-532 -344 0
-532 -345 0
-532 -346 0
-532 -347 0
-532 -348 0
-532 -349 0
-532 -350 0
-532 -351 0
-532 -352 0
-532 -353 0
-532 -357 0
-532 -358 0
-532 -359 0
-532 -360 0
-532 -361 0
-532 -362 0
-532 -363 0
-532 -364 0
-533 -326 0
-533 -327 0
-533 -328 0
-533 -332 0
-533 -333 0
-533 -334 0
-533 -335 0
-533 -336 0
-533 -337 0
-533 -338 0
-533 -339 0
-533 -340 0
-533 -341 0
-533 -345 0
-533 -346 0
-533 -347 0
-533 -348 0
-533 -349 0
-533 -350 0
-533 -351 0
-533 -352 0
-533 -353 0
-533 -354 0
-533 -358 0
-533 -359 0
-533 -360 0
-533 -361 0
-533 -362 0
-533 -363 0
-533 -364 0
-534 -326 0
-534 -327 0
-534 -328 0
-534 -329 0
-534 -333 0
-534 -334 0
-534 -335 0
-534 -336 0
-534 -337 0
-534 -338 0
-534 -339 0
-534 -340 0
-534 -341 0
-534 -342 0
-534 -346 0
-534 -347 0
-534 -348 0
-534 -349 0
-534 -350 0
-534 -351 0
-534 -352 0
-534 -353 0
-534 -354 0
-534 -355 0
-534 -359 0
-534 -360 0
-534 -361 0
-534 -362 0
-534 -363 0
-534 -364 0
-535 -326 0
-535 -327 0
-535 -328 0
-535 -329 0
-535 -330 0
-535 -334 0
-535 -335 0
-535 -336 0
-535 -337 0
-535 -338 0
-535 -339 0
-535 -340 0
-535 -341 0
-535 -342 0
-535 -343 0
-535 -347 0
-535 -348 0
-535 -349 0
-535 -350 0
-535 -351 0
-535 -352 0
-535 -353 0
-535 -354 0
-535 -355 0
-535 -356 0
-535 -360 0
-535 -361 0
-535 -362 0
-535 -363 0
-535 -364 0
-536 -326 0
-536 -327 0
-536 -328 0
-536 -329 0
-536 -330 0
-536 -331 0
-536 -335 0
-536 -336 0
-536 -337 0
-536 -338 0
-536 -339 0
-536 -340 0
-536 -341 0
-536 -342 0
-536 -343 0
-536 -344 0
-536 -348 0
-536 -349 0
-536 -350 0
-536 -351 0
-536 -352 0
-536 -353 0
-536 -354 0
-536 -355 0
-536 -356 0
-536 -357 0
-536 -361 0
-536 -362 0
-536 -363 0
-536 -364 0
-537 -326 0
-537 -327 0
-537 -328 0
-537 -329 0
-537 -330 0
-537 -331 0
-537 -332 0
-537 -336 0
-537 -337 0
-537 -338 0
-537 -339 0
-537 -340 0
-537 -341 0
-537 -342 0
-537 -343 0
-537 -344 0
-537 -345 0
-537 -349 0
-537 -350 0
-537 -351 0
-537 -352 0
-537 -353 0
-537 -354 0
-537 -355 0
-537 -356 0
-537 -357 0
-537 -358 0
-537 -362 0
-537 -363 0
-537 -364 0
-538 -326 0
-538 -327 0
-538 -328 0
-538 -329 0
-538 -330 0
-538 -331 0
-538 -332 0
-538 -333 0
-538 -337 0
-538 -338 0
-538 -339 0
-538 -340 0
-538 -341 0
-538 -342 0
-538 -343 0
-538 -344 0
-538 -345 0
-538 -346 0
-538 -350 0
-538 -351 0
-538 -352 0
-538 -353 0
-538 -354 0
-538 -355 0
-538 -356 0
-538 -357 0
-538 -358 0
-538 -359 0
-538 -363 0
-538 -364 0
-539 -326 0
-539 -327 0
-539 -328 0
-539 -329 0
-539 -330 0
-539 -331 0
-539 -332 0
-539 -333 0
-539 -334 0
-539 -338 0
-539 -339 0
-539 -340 0
-539 -341 0
-539 -342 0
-539 -343 0
-539 -344 0
-539 -345 0
-539 -346 0
-539 -347 0
-539 -351 0
-539 -352 0
-539 -353 0
-539 -354 0
-539 -355 0
-539 -356 0
-539 -357 0
-539 -358 0
-539 -359 0
-539 -360 0
-539 -364 0
-540 -326 0
-540 -327 0
-540 -328 0
-540 -329 0
-540 -330 0
-540 -331 0
-540 -332 0
-540 -333 0
-540 -334 0
-540 -335 0
-540 -339 0
-540 -340 0
-540 -341 0
-540 -342 0
-540 -343 0
-540 -344 0
-540 -345 0
-540 -346 0
-540 -347 0
-540 -348 0
-540 -352 0
-540 -353 0
-540 -354 0
-540 -355 0
-540 -356 0
-540 -357 0
-540 -358 0
-540 -359 0
-540 -360 0
-540 -361 0
-365 -378 0
-365 -391 0
-378 -391 0
-366 -379 0
-366 -392 0
-379 -392 0
-367 -380 0
-367 -393 0
-380 -393 0
-368 -381 0
-368 -394 0
-381 -394 0
-369 -382 0
-369 -395 0
-382 -395 0
-370 -383 0
-370 -396 0
-383 -396 0
-371 -384 0
-371 -397 0
-384 -397 0
-372 -385 0
-372 -398 0
-385 -398 0
-373 -386 0
-373 -399 0
-386 -399 0
-374 -387 0
-374 -400 0
-387 -400 0
-375 -388 0
-375 -401 0
-388 -401 0
-376 -389 0
-376 -402 0
-389 -402 0
-377 -390 0
-377 -403 0
-390 -403 0
541 542 543 544 545 546 547 548 549 550 551 0
-541 -542 0
-541 -543 0
-541 -544 0
-541 -545 0
-541 -546 0
-541 -547 0
-541 -548 0
-541 -549 0
-541 -550 0
-541 -551 0
-542 -543 0
-542 -544 0
-542 -545 0
-542 -546 0
-542 -547 0
-542 -548 0
-542 -549 0
-542 -550 0
-542 -551 0
-543 -544 0
-543 -545 0
-543 -546 0
-543 -547 0
-543 -548 0
-543 -549 0
-543 -550 0
-543 -551 0
-544 -545 0
-544 -546 0
-544 -547 0
-544 -548 0
-544 -549 0
-544 -550 0
-544 -551 0
-545 -546 0
-545 -547 0
-545 -548 0
-545 -549 0
-545 -550 0
-545 -551 0
-546 -547 0
-546 -548 0
-546 -549 0
-546 -550 0
-546 -551 0
-547 -548 0
-547 -549 0
-547 -550 0
-547 -551 0
-548 -549 0
-548 -550 0
-548 -551 0
-549 -550 0
-549 -551 0
-550 -551 0
-365 541 0
-366 541 542 0
-367 541 542 543 0
-368 542 543 544 0
-369 543 544 545 0
-370 544 545 546 0
-371 545 546 547 0
-372 546 547 548 0
-373 547 548 549 0
-374 548 549 550 0
-375 549 550 551 0
-376 550 551 0
-377 551 0
-378 541 0
-379 541 542 0
-380 541 542 543 0
-381 542 543 544 0
-382 543 544 545 0
-383 544 545 546 0
-384 545 546 547 0
-385 546 547 548 0
-386 547 548 549 0
-387 548 549 550 0
-388 549 550 551 0
-389 550 551 0
-390 551 0
-391 541 0
-392 541 542 0
-393 541 542 543 0
-394 542 543 544 0
-395 543 544 545 0
-396 544 545 546 0
-397 545 546 547 0
-398 546 547 548 0
-399 547 548 549 0
-400 548 549 550 0
-401 549 550 551 0
-402 550 551 0
-403 551 0
-541 -368 0
-541 -369 0
-541 -370 0
-541 -371 0
-541 -372 0
-541 -373 0
-541 -374 0
-541 -375 0
-541 -376 0
-541 -377 0
-541 -381 0
-541 -382 0
-541 -383 0
-541 -384 0
-541 -385 0
-541 -386 0
-541 -387 0
-541 -388 0
-541 -389 0
-541 -390 0
-541 -394 0
-541 -395 0
-541 -396 0
-541 -397 0
-541 -398 0
-541 -399 0
-541 -400 0
-541 -401 0
-541 -402 0
-541 -403 0
-542 -365 0
-542 -369 0
-542 -370 0
-542 -371 0
-542 -372 0
-542 -373 0
-542 -374 0
-542 -375 0
-542 -376 0
-542 -377 0
-542 -378 0
-542 -382 0
-542 -383 0
-542 -384 0
-542 -385 0
-542 -386 0
-542 -387 0
-542 -388 0
-542 -389 0
-542 -390 0
-542 -391 0
-542 -395 0
-542 -396 0
-542 -397 0
-542 -398 0
-542 -399 0
-542 -400 0
-542 -401 0
-542 -402 0
-542 -403 0
-543 -365 0
-543 -366 0
-543 -370 0
-543 -371 0
-543 -372 0
-543 -373 0
-543 -374 0
-543 -375 0
-543 -376 0
-543 -377 0
-543 -378 0
-543 -379 0
-543 -383 0
-543 -384 0
-543 -385 0
-543 -386 0
-543 -387 0
-543 -388 0
-543 -389 0
-543 -390 0
-543 -391 0
-543 -392 0
-543 -396 0
-543 -397 0
-543 -398 0
-543 -399 0
-543 -400 0
-543 -401 0
-543 -402 0
-543 -403 0
-544 -365 0
-544 -366 0
-544 -367 0
-544 -371 0
-544 -372 0
-544 -373 0
-544 -374 0
-544 -375 0
-544 -376 0
-544 -377 0
-544 -378 0
-544 -379 0
-544 -380 0
-544 -384 0
-544 -385 0
-544 -386 0
-544 -387 0
-544 -388 0
-544 -389 0
-544 -390 0
-544 -391 0
-544 -392 0
-544 -393 0
-544 -397 0
-544 -398 0
-544 -399 0
-544 -400 0
-544 -401 0
-544 -402 0
-544 -403 0
-545 -365 0
-545 -366 0
-545 -367 0
-545 -368 0
-545 -372 0
-545 -373 0
-545 -374 0
-545 -375 0
-545 -376 0
-545 -377 0
-545 -378 0
-545 -379 0
-545 -380 0
-545 -381 0
-545 -385 0
-545 -386 0
-545 -387 0
-545 -388 0
-545 -389 0
-545 -390 0
-545 -391 0
-545 -392 0
-545 -393 0
-545 -394 0
-545 -398 0
-545 -399 0
-545 -400 0
-545 -401 0
-545 -402 0
-545 -403 0
-546 -365 0
-546 -366 0
-546 -367 0
-546 -368 0
-546 -369 0
-546 -373 0
-546 -374 0
-546 -375 0
-546 -376 0
-546 -377 0
-546 -378 0
-546 -379 0
-546 -380 0
-546 -381 0
-546 -382 0
-546 -386 0
-546 -387 0
-546 -388 0
-546 -389 0
-546 -390 0
-546 -391 0
-546 -392 0
-546 -393 0
-546 -394 0
-546 -395 0
-546 -399 0
-546 -400 0
-546 -401 0
-546 -402 0
-546 -403 0
-547 -365 0
-547 -366 0
-547 -367 0
-547 -368 0
-547 -369 0
-547 -370 0
-547 -374 0
-547 -375 0
-547 -376 0
-547 -377 0
-547 -378 0
-547 -379 0
-547 -380 0
-547 -381 0
-547 -382 0
-547 -383 0
-547 -387 0
-547 -388 0
-547 -389 0
-547 -390 0
-547 -391 0
-547 -392 0
-547 -393 0
-547 -394 0
-547 -395 0
-547 -396 0
-547 -400 0
-547 -401 0
-547 -402 0
-547 -403 0
-548 -365 0
-548 -366 0
-548 -367 0
-548 -368 0
-548 -369 0
-548 -370 0
-548 -371 0
-548 -375 0
-548 -376 0
-548 -377 0
-548 -378 0
-548 -379 0
-548 -380 0
-548 -381 0
-548 -382 0
-548 -383 0
-548 -384 0
-548 -388 0
-548 -389 0
-548 -390 0
-548 -391 0
-548 -392 0
-548 -393 0
-548 -394 0
-548 -395 0
-548 -396 0
-548 -397 0
-548 -401 0
-548 -402 0
-548 -403 0
-549 -365 0
-549 -366 0
-549 -367 0
-549 -368 0
-549 -369 0
-549 -370 0
-549 -371 0
-549 -372 0
-549 -376 0
-549 -377 0
-549 -378 0
-549 -379 0
-549 -380 0
-549 -381 0
-549 -382 0
-549 -383 0
-549 -384 0
-549 -385 0
-549 -389 0
-549 -390 0
-549 -391 0
-549 -392 0
-549 -393 0
-549 -394 0
-549 -395 0
-549 -396 0
-549 -397 0
-549 -398 0
-549 -402 0
-549 -403 0
-550 -365 0
-550 -366 0
-550 -367 0
-550 -368 0
-550 -369 0
-550 -370 0
-550 -371 0
-550 -372 0
-550 -373 0
-550 -377 0
-550 -378 0
-550 -379 0
-550 -380 0
-550 -381 0
-550 -382 0
-550 -383 0
-550 -384 0
-550 -385 0
-550 -386 0
-550 -390 0
-550 -391 0
-550 -392 0
-550 -393 0
-550 -394 0
-550 -395 0
-550 -396 0
-550 -397 0
-550 -398 0
-550 -399 0
-550 -403 0
-551 -365 0
-551 -366 0
-551 -367 0
-551 -368 0
-551 -369 0
-551 -370 0
-551 -371 0
-551 -372 0
-551 -373 0
-551 -374 0
-551 -378 0
-551 -379 0
-551 -380 0
-551 -381 0
-551 -382 0
-551 -383 0
-551 -384 0
-551 -385 0
-551 -386 0
-551 -387 0
-551 -391 0
-551 -392 0
-551 -393 0
-551 -394 0
-551 -395 0
-551 -396 0
-551 -397 0
-551 -398 0
-551 -399 0
-551 -400 0
-404 -417 0
-404 -430 0
-417 -430 0
-405 -418 0
-405 -431 0
-418 -431 0
-406 -419 0
-406 -432 0
-419 -432 0
-407 -420 0
-407 -433 0
-420 -433 0
-408 -421 0
-408 -434 0
-421 -434 0
-409 -422 0
-409 -435 0
-422 -435 0
-410 -423 0
-410 -436 0
-423 -436 0
-411 -424 0
-411 -437 0
-424 -437 0
-412 -425 0
-412 -438 0
-425 -438 0
-413 -426 0
-413 -439 0
-426 -439 0
-414 -427 0
-414 -440 0
-427 -440 0
-415 -428 0
-415 -441 0
-428 -441 0
-416 -429 0
-416 -442 0
-429 -442 0
552 553 554 555 556 557 558 559 560 561 562 0
-552 -553 0
-552 -554 0
-552 -555 0
-552 -556 0
-552 -557 0
-552 -558 0
-552 -559 0
-552 -560 0
-552 -561 0
-552 -562 0
-553 -554 0
-553 -555 0
-553 -556 0
-553 -557 0
-553 -558 0
-553 -559 0
-553 -560 0
-553 -561 0
-553 -562 0
-554 -555 0
-554 -556 0
-554 -557 0
-554 -558 0
-554 -559 0
-554 -560 0
-554 -561 0
-554 -562 0
-555 -556 0
-555 -557 0
-555 -558 0
-555 -559 0
-555 -560 0
-555 -561 0
-555 -562 0
-556 -557 0
-556 -558 0
-556 -559 0
-556 -560 0
-556 -561 0
-556 -562 0
-557 -558 0
-557 -559 0
-557 -560 0
-557 -561 0
-557 -562 0
-558 -559 0
-558 -560 0
-558 -561 0
-558 -562 0
-559 -560 0
-559 -561 0
-559 -562 0
-560 -561 0
-560 -562 0
-561 -562 0
-404 552 0
-405 552 553 0
-406 552 553 554 0
-407 553 554 555 0
-408 554 555 556 0
-409 555 556 557 0
-410 556 557 558 0
-411 557 558 559 0
-412 558 559 560 0
-413 559 560 561 0
-414 560 561 562 0
-415 561 562 0
-416 562 0
-417 552 0
-418 552 553 0
-419 552 553 554 0
-420 553 554 555 0
-421 554 555 556 0
-422 555 556 557 0
-423 556 557 558 0
-424 557 558 559 0
-425 558 559 560 0
-426 559 560 561 0
-427 560 561 562 0
-428 561 562 0
-429 562 0
-430 552 0
-431 552 553 0
-432 552 553 554 0
-433 553 554 555 0
-434 554 555 556 0
-435 555 556 557 0
-436 556 557 558 0
-437 557 558 559 0
-438 558 559 560 0
-439 559 560 561 0
-440 560 561 562 0
-441 561 562 0
-442 562 0
-552 -407 0
-552 -408 0
-552 -409 0
-552 -410 0
-552 -411 0
-552 -412 0
-552 -413 0
-552 -414 0
-552 -415 0
-552 -416 0
-552 -420 0
-552 -421 0
-552 -422 0
-552 -423 0
-552 -424 0
-552 -425 0
-552 -426 0
-552 -427 0
-552 -428 0
-552 -429 0
-552 -433 0
-552 -434 0
-552 -435 0
-552 -436 0
-552 -437 0
-552 -438 0
-552 -439 0
-552 -440 0
-552 -441 0
-552 -442 0
-553 -404 0
-553 -408 0
-553 -409 0
-553 -410 0
-553 -411 0
-553 -412 0
-553 -413 0
-553 -414 0
-553 -415 0
-553 -416 0
-553 -417 0
-553 -421 0
-553 -422 0
-553 -423 0
-553 -424 0
-553 -425 0
-553 -426 0
-553 -427 0
-553 -428 0
-553 -429 0
-553 -430 0
-553 -434 0
-553 -435 0
-553 -436 0
-553 -437 0
-553 -438 0
-553 -439 0
-553 -440 0
-553 -441 0
-553 -442 0
-554 -404 0
-554 -405 0
-554 -409 0
-554 -410 0
-554 -411 0
-554 -412 0
-554 -413 0
-554 -414 0
-554 -415 0
-554 -416 0
-554 -417 0
-554 -418 0
-554 -422 0
-554 -423 0
-554 -424 0
-554 -425 0
-554 -426 0
-554 -427 0
-554 -428 0
-554 -429 0
-554 -430 0
-554 -431 0
-554 -435 0
-554 -436 0
-554 -437 0
-554 -438 0
-554 -439 0
-554 -440 0
-554 -441 0
-554 -442 0
-555 -404 0
-555 -405 0
-555 -406 0
-555 -410 0
-555 -411 0
-555 -412 0
-555 -413 0
-555 -414 0
-555 -415 0
-555 -416 0
-555 -417 0
-555 -418 0
-555 -419 0
-555 -423 0
-555 -424 0
-555 -425 0
-555 -426 0
-555 -427 0
-555 -428 0
-555 -429 0
-555 -430 0
-555 -431 0
-555 -432 0
-555 -436 0
-555 -437 0
-555 -438 0
-555 -439 0
-555 -440 0
-555 -441 0
-555 -442 0
-556 -404 0
-556 -405 0
-556 -406 0
-556 -407 0
-556 -411 0
-556 -412 0
-556 -413 0
-556 -414 0
-556 -415 0
-556 -416 0
-556 -417 0
-556 -418 0
-556 -419 0
-556 -420 0
-556 -424 0
-556 -425 0
-556 -426 0
-556 -427 0
-556 -428 0
-556 -429 0
-556 -430 0
-556 -431 0
-556 -432 0
-556 -433 0
-556 -437 0
-556 -438 0
-556 -439 0
-556 -440 0
-556 -441 0
-556 -442 0
-557 -404 0
-557 -405 0
-557 -406 0
-557 -407 0
-557 -408 0
-557 -412 0
-557 -413 0
-557 -414 0
-557 -415 0
-557 -416 0
-557 -417 0
-557 -418 0
-557 -419 0
-557 -420 0
-557 -421 0
-557 -425 0
-557 -426 0
-557 -427 0
-557 -428 0
-557 -429 0
-557 -430 0
-557 -431 0
-557 -432 0
-557 -433 0
-557 -434 0
-557 -438 0
-557 -439 0
-557 -440 0
-557 -441 0
-557 -442 0
-558 -404 0
-558 -405 0
-558 -406 0
-558 -407 0
-558 -408 0
-558 -409 0
-558 -413 0
-558 -414 0
-558 -415 0
-558 -416 0
-558 -417 0
-558 -418 0
-558 -419 0
-558 -420 0
-558 -421 0
-558 -422 0
-558 -426 0
-558 -427 0
-558 -428 0
-558 -429 0
-558 -430 0
-558 -431 0
-558 -432 0
-558 -433 0
-558 -434 0
-558 -435 0
-558 -439 0
-558 -440 0
-558 -441 0
-558 -442 0
-559 -404 0
-559 -405 0
-559 -406 0
-559 -407 0
-559 -408 0
-559 -409 0
-559 -410 0
-559 -414 0
-559 -415 0
-559 -416 0
-559 -417 0
-559 -418 0
-559 -419 0
-559 -420 0
-559 -421 0
-559 -422 0
-559 -423 0
-559 -427 0
-559 -428 0
-559 -429 0
-559 -430 0
-559 -431 0
-559 -432 0
-559 -433 0
-559 -434 0
-559 -435 0
-559 -436 0
-559 -440 0
-559 -441 0
-559 -442 0
-560 -404 0
-560 -405 0
-560 -406 0
-560 -407 0
-560 -408 0
-560 -409 0
-560 -410 0
-560 -411 0
-560 -415 0
-560 -416 0
-560 -417 0
-560 -418 0
-560 -419 0
-560 -420 0
-560 -421 0
-560 -422 0
-560 -423 0
-560 -424 0
-560 -428 0
-560 -429 0
-560 -430 0
-560 -431 0
-560 -432 0
-560 -433 0
-560 -434 0
-560 -435 0
-560 -436 0
-560 -437 0
-560 -441 0
-560 -442 0
-561 -404 0
-561 -405 0
-561 -406 0
-561 -407 0
-561 -408 0
-561 -409 0
-561 -410 0
-561 -411 0
-561 -412 0
-561 -416 0
-561 -417 0
-561 -418 0
-561 -419 0
-561 -420 0
-561 -421 0
-561 -422 0
-561 -423 0
-561 -424 0
-561 -425 0
-561 -429 0
-561 -430 0
-561 -431 0
-561 -432 0
-561 -433 0
-561 -434 0
-561 -435 0
-561 -436 0
-561 -437 0
-561 -438 0
-561 -442 0
-562 -404 0
-562 -405 0
-562 -406 0
-562 -407 0
-562 -408 0
-562 -409 0
-562 -410 0
-562 -411 0
-562 -412 0
-562 -413 0
-562 -417 0
-562 -418 0
-562 -419 0
-562 -420 0
-562 -421 0
-562 -422 0
-562 -423 0
-562 -424 0
-562 -425 0
-562 -426 0
-562 -430 0
-562 -431 0
-562 -432 0
-562 -433 0
-562 -434 0
-562 -435 0
-562 -436 0
-562 -437 0
-562 -438 0
-562 -439 0
-40 -79 0
-40 -118 0
-40 -157 0
-40 -196 0
-40 -235 0
-40 -274 0
-40 -313 0
-40 -352 0
-40 -391 0
-40 -430 0
-79 -118 0
-79 -157 0
-79 -196 0
-79 -235 0
-79 -274 0
-79 -313 0
-79 -352 0
-79 -391 0
-79 -430 0
-118 -157 0
-118 -196 0
-118 -235 0
-118 -274 0
-118 -313 0
-118 -352 0
-118 -391 0
-118 -430 0
-157 -196 0
-157 -235 0
-157 -274 0
-157 -313 0
-157 -352 0
-157 -391 0
-157 -430 0
-196 -235 0
-196 -274 0
-196 -313 0
-196 -352 0
-196 -391 0
-196 -430 0
-235 -274 0
-235 -313 0
-235 -352 0
-235 -391 0
-235 -430 0
-274 -313 0
-274 -352 0
-274 -391 0
-274 -430 0
-313 -352 0
-313 -391 0
-313 -430 0
-352 -391 0
-352 -430 0
-391 -430 0
-41 -80 0
-41 -119 0
-41 -158 0
-41 -197 0
-41 -236 0
-41 -275 0
-41 -314 0
-41 -353 0
-41 -392 0
-41 -431 0
-80 -119 0
-80 -158 0
-80 -197 0
-80 -236 0
-80 -275 0
-80 -314 0
-80 -353 0
-80 -392 0
-80 -431 0
-119 -158 0
-119 -197 0
-119 -236 0
-119 -275 0
-119 -314 0
-119 -353 0
-119 -392 0
-119 -431 0
-158 -197 0
-158 -236 0
-158 -275 0
-158 -314 0
-158 -353 0
-158 -392 0
-158 -431 0
-197 -236 0
-197 -275 0
-197 -314 0
-197 -353 0
-197 -392 0
-197 -431 0
-236 -275 0
-236 -314 0
-236 -353 0
-236 -392 0
-236 -431 0
-275 -314 0
-275 -353 0
-275 -392 0
-275 -431 0
-314 -353 0
-314 -392 0
-314 -431 0
-353 -392 0
-353 -431 0
-392 -431 0
-42 -81 0
-42 -120 0
-42 -159 0
-42 -198 0
-42 -237 0
-42 -276 0
-42 -315 0
-42 -354 0
-42 -393 0
-42 -432 0
-81 -120 0
-81 -159 0
-81 -198 0
-81 -237 0
-81 -276 0
-81 -315 0
-81 -354 0
-81 -393 0
-81 -432 0
-120 -159 0
-120 -198 0
-120 -237 0
-120 -276 0
-120 -315 0
-120 -354 0
-120 -393 0
-120 -432 0
-159 -198 0
-159 -237 0
-159 -276 0
-159 -315 0
-159 -354 0
-159 -393 0
-159 -432 0
-198 -237 0
-198 -276 0
-198 -315 0
-198 -354 0
-198 -393 0
-198 -432 0
-237 -276 0
-237 -315 0
-237 -354 0
-237 -393 0
-237 -432 0
-276 -315 0
-276 -354 0
-276 -393 0
-276 -432 0
-315 -354 0
-315 -393 0
-315 -432 0
-354 -393 0
-354 -432 0
-393 -432 0
-43 -82 0
-43 -121 0
-43 -160 0
-43 -199 0
-43 -238 0
-43 -277 0
-43 -316 0
-43 -355 0
-43 -394 0
-43 -433 0
-82 -121 0
-82 -160 0
-82 -199 0
-82 -238 0
-82 -277 0
-82 -316 0
-82 -355 0
-82 -394 0
-82 -433 0
-121 -160 0
-121 -199 0
-121 -238 0
-121 -277 0
-121 -316 0
-121 -355 0
-121 -394 0
-121 -433 0
-160 -199 0
-160 -238 0
-160 -277 0
-160 -316 0
-160 -355 0
-160 -394 0
-160 -433 0
-199 -238 0
-199 -277 0
-199 -316 0
-199 -355 0
-199 -394 0
-199 -433 0
-238 -277 0
-238 -316 0
-238 -355 0
-238 -394 0
-238 -433 0
-277 -316 0
-277 -355 0
-277 -394 0
-277 -433 0
-316 -355 0
-316 -394 0
-316 -433 0
-355 -394 0
-355 -433 0
-394 -433 0
-44 -83 0
-44 -122 0
-44 -161 0
-44 -200 0
-44 -239 0
-44 -278 0
-44 -317 0
-44 -356 0
-44 -395 0
-44 -434 0
-83 -122 0
-83 -161 0
-83 -200 0
-83 -239 0
-83 -278 0
-83 -317 0
-83 -356 0
-83 -395 0
-83 -434 0
-122 -161 0
-122 -200 0
-122 -239 0
-122 -278 0
-122 -317 0
-122 -356 0
-122 -395 0
-122 -434 0
-161 -200 0
-161 -239 0
-161 -278 0
-161 -317 0
-161 -356 0
-161 -395 0
-161 -434 0
-200 -239 0
-200 -278 0
-200 -317 0
-200 -356 0
-200 -395 0
-200 -434 0
-239 -278 0
-239 -317 0
-239 -356 0
-239 -395 0
-239 -434 0
-278 -317 0
-278 -356 0
-278 -395 0
-278 -434 0
-317 -356 0
-317 -395 0
-317 -434 0
-356 -395 0
-356 -434 0
-395 -434 0
-45 -84 0
-45 -123 0
-45 -162 0
-45 -201 0
-45 -240 0
-45 -279 0
-45 -318 0
-45 -357 0
-45 -396 0
-45 -435 0
-84 -123 0
-84 -162 0
-84 -201 0
-84 -240 0
-84 -279 0
-84 -318 0
-84 -357 0
-84 -396 0
-84 -435 0
-123 -162 0
-123 -201 0
-123 -240 0
-123 -279 0
-123 -318 0
-123 -357 0
-123 -396 0
-123 -435 0
-162 -201 0
-162 -240 0
-162 -279 0
-162 -318 0
-162 -357 0
-162 -396 0
-162 -435 0
-201 -240 0
-201 -279 0
-201 -318 0
-201 -357 0
-201 -396 0
-201 -435 0
-240 -279 0
-240 -318 0
-240 -357 0
-240 -396 0
-240 -435 0
-279 -318 0
-279 -357 0
-279 -396 0
-279 -435 0
-318 -357 0
-318 -396 0
-318 -435 0
-357 -396 0
-357 -435 0
-396 -435 0
-46 -85 0
-46 -124 0
-46 -163 0
-46 -202 0
-46 -241 0
-46 -280 0
-46 -319 0
-46 -358 0
-46 -397 0
-46 -436 0
-85 -124 0
-85 -163 0
-85 -202 0
-85 -241 0
-85 -280 0
-85 -319 0
-85 -358 0
-85 -397 0
-85 -436 0
-124 -163 0
-124 -202 0
-124 -241 0
-124 -280 0
-124 -319 0
-124 -358 0
-124 -397 0
-124 -436 0
-163 -202 0
-163 -241 0
-163 -280 0
-163 -319 0
-163 -358 0
-163 -397 0
-163 -436 0
-202 -241 0
-202 -280 0
-202 -319 0
-202 -358 0
-202 -397 0
-202 -436 0
-241 -280 0
-241 -319 0
-241 -358 0
-241 -397 0
-241 -436 0
-280 -319 0
-280 -358 0
-280 -397 0
-280 -436 0
-319 -358 0
-319 -397 0
-319 -436 0
-358 -397 0
-358 -436 0
-397 -436 0
-47 -86 0
-47 -125 0
-47 -164 0
-47 -203 0
-47 -242 0
-47 -281 0
-47 -320 0
-47 -359 0
-47 -398 0
-47 -437 0
-86 -125 0
-86 -164 0
-86 -203 0
-86 -242 0
-86 -281 0
-86 -320 0
-86 -359 0
-86 -398 0
-86 -437 0
-125 -164 0
-125 -203 0
-125 -242 0
-125 -281 0
-125 -320 0
-125 -359 0
-125 -398 0
-125 -437 0
-164 -203 0
-164 -242 0
-164 -281 0
-164 -320 0
-164 -359 0
-164 -398 0
-164 -437 0
-203 -242 0
-203 -281 0
-203 -320 0
-203 -359 0
-203 -398 0
-203 -437 0
-242 -281 0
-242 -320 0
-242 -359 0
-242 -398 0
-242 -437 0
-281 -320 0
-281 -359 0
-281 -398 0
-281 -437 0
-320 -359 0
-320 -398 0
-320 -437 0
-359 -398 0
-359 -437 0
-398 -437 0
-48 -87 0
-48 -126 0
-48 -165 0
-48 -204 0
-48 -243 0
-48 -282 0
-48 -321 0
-48 -360 0
-48 -399 0
-48 -438 0
-87 -126 0
-87 -165 0
-87 -204 0
-87 -243 0
-87 -282 0
-87 -321 0
-87 -360 0
-87 -399 0
-87 -438 0
-126 -165 0
-126 -204 0
-126 -243 0
-126 -282 0
-126 -321 0
-126 -360 0
-126 -399 0
-126 -438 0
-165 -204 0
-165 -243 0
-165 -282 0
-165 -321 0
-165 -360 0
-165 -399 0
-165 -438 0
-204 -243 0
-204 -282 0
-204 -321 0
-204 -360 0
-204 -399 0
-204 -438 0
-243 -282 0
-243 -321 0
-243 -360 0
-243 -399 0
-243 -438 0
-282 -321 0
-282 -360 0
-282 -399 0
-282 -438 0
-321 -360 0
-321 -399 0
-321 -438 0
-360 -399 0
-360 -438 0
-399 -438 0
-49 -88 0
-49 -127 0
-49 -166 0
-49 -205 0
-49 -244 0
-49 -283 0
-49 -322 0
-49 -361 0
-49 -400 0
-49 -439 0
-88 -127 0
-88 -166 0
-88 -205 0
-88 -244 0
-88 -283 0
-88 -322 0
-88 -361 0
-88 -400 0
-88 -439 0
-127 -166 0
-127 -205 0
-127 -244 0
-127 -283 0
-127 -322 0
-127 -361 0
-127 -400 0
-127 -439 0
-166 -205 0
-166 -244 0
-166 -283 0
-166 -322 0
-166 -361 0
-166 -400 0
-166 -439 0
-205 -244 0
-205 -283 0
-205 -322 0
-205 -361 0
-205 -400 0
-205 -439 0
-244 -283 0
-244 -322 0
-244 -361 0
-244 -400 0
-244 -439 0
-283 -322 0
-283 -361 0
-283 -400 0
-283 -439 0
-322 -361 0
-322 -400 0
-322 -439 0
-361 -400 0
-361 -439 0
-400 -439 0
-50 -89 0
-50 -128 0
-50 -167 0
-50 -206 0
-50 -245 0
-50 -284 0
-50 -323 0
-50 -362 0
-50 -401 0
-50 -440 0
-89 -128 0
-89 -167 0
-89 -206 0
-89 -245 0
-89 -284 0
-89 -323 0
-89 -362 0
-89 -401 0
-89 -440 0
-128 -167 0
-128 -206 0
-128 -245 0
-128 -284 0
-128 -323 0
-128 -362 0
-128 -401 0
-128 -440 0
-167 -206 0
-167 -245 0
-167 -284 0
-167 -323 0
-167 -362 0
-167 -401 0
-167 -440 0
-206 -245 0
-206 -284 0
-206 -323 0
-206 -362 0
-206 -401 0
-206 -440 0
-245 -284 0
-245 -323 0
-245 -362 0
-245 -401 0
-245 -440 0
-284 -323 0
-284 -362 0
-284 -401 0
-284 -440 0
-323 -362 0
-323 -401 0
-323 -440 0
-362 -401 0
-362 -440 0
-401 -440 0
-51 -90 0
-51 -129 0
-51 -168 0
-51 -207 0
-51 -246 0
-51 -285 0
-51 -324 0
-51 -363 0
-51 -402 0
-51 -441 0
-90 -129 0
-90 -168 0
-90 -207 0
-90 -246 0
-90 -285 0
-90 -324 0
-90 -363 0
-90 -402 0
-90 -441 0
-129 -168 0
-129 -207 0
-129 -246 0
-129 -285 0
-129 -324 0
-129 -363 0
-129 -402 0
-129 -441 0
-168 -207 0
-168 -246 0
-168 -285 0
-168 -324 0
-168 -363 0
-168 -402 0
-168 -441 0
-207 -246 0
-207 -285 0
-207 -324 0
-207 -363 0
-207 -402 0
-207 -441 0
-246 -285 0
-246 -324 0
-246 -363 0
-246 -402 0
-246 -441 0
-285 -324 0
-285 -363 0
-285 -402 0
-285 -441 0
-324 -363 0
-324 -402 0
-324 -441 0
-363 -402 0
-363 -441 0
-402 -441 0
-52 -91 0
-52 -130 0
-52 -169 0
-52 -208 0
-52 -247 0
-52 -286 0
-52 -325 0
-52 -364 0
-52 -403 0
-52 -442 0
-91 -130 0
-91 -169 0
-91 -208 0
-91 -247 0
-91 -286 0
-91 -325 0
-91 -364 0
-91 -403 0
-91 -442 0
-130 -169 0
-130 -208 0
-130 -247 0
-130 -286 0
-130 -325 0
-130 -364 0
-130 -403 0
-130 -442 0
-169 -208 0
-169 -247 0
-169 -286 0
-169 -325 0
-169 -364 0
-169 -403 0
-169 -442 0
-208 -247 0
-208 -286 0
-208 -325 0
-208 -364 0
-208 -403 0
-208 -442 0
-247 -286 0
-247 -325 0
-247 -364 0
-247 -403 0
-247 -442 0
-286 -325 0
-286 -364 0
-286 -403 0
-286 -442 0
-325 -364 0
-325 -403 0
-325 -442 0
-364 -403 0
-364 -442 0
-403 -442 0
563 564 565 0
-563 -564 0
-563 -565 0
-564 -565 0
-40 563 0
-41 563 564 0
-42 563 564 565 0
-43 563 564 565 0
-44 563 564 565 0
-45 563 564 565 0
-46 563 564 565 0
-47 563 564 565 0
-48 563 564 565 0
-49 563 564 565 0
-50 563 564 565 0
-51 564 565 0
-52 565 0
-79 563 0
-80 563 564 0
-81 563 564 565 0
-82 563 564 565 0
-83 563 564 565 0
-84 563 564 565 0
-85 563 564 565 0
-86 563 564 565 0
-87 563 564 565 0
-88 563 564 565 0
-89 563 564 565 0
-90 564 565 0
-91 565 0
-118 563 0
-119 563 564 0
-120 563 564 565 0
-121 563 564 565 0
-122 563 564 565 0
-123 563 564 565 0
-124 563 564 565 0
-125 563 564 565 0
-126 563 564 565 0
-127 563 564 565 0
-128 563 564 565 0
-129 564 565 0
-130 565 0
-157 563 0
-158 563 564 0
-159 563 564 565 0
-160 563 564 565 0
-161 563 564 565 0
-162 563 564 565 0
-163 563 564 565 0
-164 563 564 565 0
-165 563 564 565 0
-166 563 564 565 0
-167 563 564 565 0
-168 564 565 0
-169 565 0
-196 563 0
-197 563 564 0
-198 563 564 565 0
-199 563 564 565 0
-200 563 564 565 0
-201 563 564 565 0
-202 563 564 565 0
-203 563 564 565 0
-204 563 564 565 0
-205 563 564 565 0
-206 563 564 565 0
-207 564 565 0
-208 565 0
-235 563 0
-236 563 564 0
-237 563 564 565 0
-238 563 564 565 0
-239 563 564 565 0
-240 563 564 565 0
-241 563 564 565 0
-242 563 564 565 0
-243 563 564 565 0
-244 563 564 565 0
-245 563 564 565 0
-246 564 565 0
-247 565 0
-274 563 0
-275 563 564 0
-276 563 564 565 0
-277 563 564 565 0
-278 563 564 565 0
-279 563 564 565 0
-280 563 564 565 0
-281 563 564 565 0
-282 563 564 565 0
-283 563 564 565 0
-284 563 564 565 0
-285 564 565 0
-286 565 0
-313 563 0
-314 563 564 0
-315 563 564 565 0
-316 563 564 565 0
-317 563 564 565 0
-318 563 564 565 0
-319 563 564 565 0
-320 563 564 565 0
-321 563 564 565 0
-322 563 564 565 0
-323 563 564 565 0
-324 564 565 0
-325 565 0
-352 563 0
-353 563 564 0
-354 563 564 565 0
-355 563 564 565 0
-356 563 564 565 0
-357 563 564 565 0
-358 563 564 565 0
-359 563 564 565 0
-360 563 564 565 0
-361 563 564 565 0
-362 563 564 565 0
-363 564 565 0
-364 565 0
-391 563 0
-392 563 564 0
-393 563 564 565 0
-394 563 564 565 0
-395 563 564 565 0
-396 563 564 565 0
-397 563 564 565 0
-398 563 564 565 0
-399 563 564 565 0
-400 563 564 565 0
-401 563 564 565 0
-402 564 565 0
-403 565 0
-430 563 0
-431 563 564 0
-432 563 564 565 0
-433 563 564 565 0
-434 563 564 565 0
-435 563 564 565 0
-436 563 564 565 0
-437 563 564 565 0
-438 563 564 565 0
-439 563 564 565 0
-440 563 564 565 0
-441 564 565 0
-442 565 0
-563 -51 0
-563 -52 0
-563 -90 0
-563 -91 0
-563 -129 0
-563 -130 0
-563 -168 0
-563 -169 0
-563 -207 0
-563 -208 0
-563 -246 0
-563 -247 0
-563 -285 0
-563 -286 0
-563 -324 0
-563 -325 0
-563 -363 0
-563 -364 0
-563 -402 0
-563 -403 0
-563 -441 0
-563 -442 0
-564 -40 0
-564 -52 0
-564 -79 0
-564 -91 0
-564 -118 0
-564 -130 0
-564 -157 0
-564 -169 0
-564 -196 0
-564 -208 0
-564 -235 0
-564 -247 0
-564 -274 0
-564 -286 0
-564 -313 0
-564 -325 0
-564 -352 0
-564 -364 0
-564 -391 0
-564 -403 0
-564 -430 0
-564 -442 0
-565 -40 0
-565 -41 0
-565 -79 0
-565 -80 0
-565 -118 0
-565 -119 0
-565 -157 0
-565 -158 0
-565 -196 0
-565 -197 0
-565 -235 0
-565 -236 0
-565 -274 0
-565 -275 0
-565 -313 0
-565 -314 0
-565 -352 0
-565 -353 0
-565 -391 0
-565 -392 0
-565 -430 0
-565 -431 0
-1 -131 0
-1 -170 0
-131 -170 0
-2 -132 0
-2 -171 0
-132 -171 0
-3 -133 0
-3 -172 0
-133 -172 0
-4 -134 0
-4 -173 0
-134 -173 0
-5 -135 0
-5 -174 0
-135 -174 0
-6 -136 0
-6 -175 0
-136 -175 0
-7 -137 0
-7 -176 0
-137 -176 0
-8 -138 0
-8 -177 0
-138 -177 0
-9 -139 0
-9 -178 0
-139 -178 0
-10 -140 0
-10 -179 0
-140 -179 0
-11 -141 0
-11 -180 0
-141 -180 0
-12 -142 0
-12 -181 0
-142 -181 0
-13 -143 0
-13 -182 0
-143 -182 0
566 567 568 569 570 571 572 573 574 575 576 0
-566 -567 0
-566 -568 0
-566 -569 0
-566 -570 0
-566 -571 0
-566 -572 0
-566 -573 0
-566 -574 0
-566 -575 0
-566 -576 0
-567 -568 0
-567 -569 0
-567 -570 0
-567 -571 0
-567 -572 0
-567 -573 0
-567 -574 0
-567 -575 0
-567 -576 0
-568 -569 0
-568 -570 0
-568 -571 0
-568 -572 0
-568 -573 0
-568 -574 0
-568 -575 0
-568 -576 0
-569 -570 0
-569 -571 0
-569 -572 0
-569 -573 0
-569 -574 0
-569 -575 0
-569 -576 0
-570 -571 0
-570 -572 0
-570 -573 0
-570 -574 0
-570 -575 0
-570 -576 0
-571 -572 0
-571 -573 0
-571 -574 0
-571 -575 0
-571 -576 0
-572 -573 0
-572 -574 0
-572 -575 0
-572 -576 0
-573 -574 0
-573 -575 0
-573 -576 0
-574 -575 0
-574 -576 0
-575 -576 0
-1 566 0
-2 566 567 0
-3 566 567 568 0
-4 567 568 569 0
-5 568 569 570 0
-6 569 570 571 0
-7 570 571 572 0
-8 571 572 573 0
-9 572 573 574 0
-10 573 574 575 0
-11 574 575 576 0
-12 575 576 0
-13 576 0
-131 566 0
-132 566 567 0
-133 566 567 568 0
-134 567 568 569 0
-135 568 569 570 0
-136 569 570 571 0
-137 570 571 572 0
-138 571 572 573 0
-139 572 573 574 0
-140 573 574 575 0
-141 574 575 576 0
-142 575 576 0
-143 576 0
-170 566 0
-171 566 567 0
-172 566 567 568 0
-173 567 568 569 0
-174 568 569 570 0
-175 569 570 571 0
-176 570 571 572 0
-177 571 572 573 0
-178 572 573 574 0
-179 573 574 575 0
-180 574 575 576 0
-181 575 576 0
-182 576 0
-566 -4 0
-566 -5 0
-566 -6 0
-566 -7 0
-566 -8 0
-566 -9 0
-566 -10 0
-566 -11 0
-566 -12 0
-566 -13 0
-566 -134 0
-566 -135 0
-566 -136 0
-566 -137 0
-566 -138 0
-566 -139 0
-566 -140 0
-566 -141 0
-566 -142 0
-566 -143 0
-566 -173 0
-566 -174 0
-566 -175 0
-566 -176 0
-566 -177 0
-566 -178 0
-566 -179 0
-566 -180 0
-566 -181 0
-566 -182 0
-567 -1 0
-567 -5 0
-567 -6 0
-567 -7 0
-567 -8 0
-567 -9 0
-567 -10 0
-567 -11 0
-567 -12 0
-567 -13 0
-567 -131 0
-567 -135 0
-567 -136 0
-567 -137 0
-567 -138 0
-567 -139 0
-567 -140 0
-567 -141 0
-567 -142 0
-567 -143 0
-567 -170 0
-567 -174 0
-567 -175 0
-567 -176 0
-567 -177 0
-567 -178 0
-567 -179 0
-567 -180 0
-567 -181 0
-567 -182 0
-568 -1 0
-568 -2 0
-568 -6 0
-568 -7 0
-568 -8 0
-568 -9 0
-568 -10 0
-568 -11 0
-568 -12 0
-568 -13 0
-568 -131 0
-568 -132 0
-568 -136 0
-568 -137 0
-568 -138 0
-568 -139 0
-568 -140 0
-568 -141 0
-568 -142 0
-568 -143 0
-568 -170 0
-568 -171 0
-568 -175 0
-568 -176 0
-568 -177 0
-568 -178 0
-568 -179 0
-568 -180 0
-568 -181 0
-568 -182 0
-569 -1 0
-569 -2 0
-569 -3 0
-569 -7 0
-569 -8 0
-569 -9 0
-569 -10 0
-569 -11 0
-569 -12 0
-569 -13 0
-569 -131 0
-569 -132 0
-569 -133 0
-569 -137 0
-569 -138 0
-569 -139 0
-569 -140 0
-569 -141 0
-569 -142 0
-569 -143 0
-569 -170 0
-569 -171 0
-569 -172 0
-569 -176 0
-569 -177 0
-569 -178 0
-569 -179 0
-569 -180 0
-569 -181 0
-569 -182 0
-570 -1 0
-570 -2 0
-570 -3 0
-570 -4 0
-570 -8 0
-570 -9 0
-570 -10 0
-570 -11 0
-570 -12 0
-570 -13 0
-570 -131 0
-570 -132 0
-570 -133 0
-570 -134 0
-570 -138 0
-570 -139 0
-570 -140 0
-570 -141 0
-570 -142 0
-570 -143 0
-570 -170 0
-570 -171 0
-570 -172 0
-570 -173 0
-570 -177 0
-570 -178 0
-570 -179 0
-570 -180 0
-570 -181 0
-570 -182 0
-571 -1 0
-571 -2 0
-571 -3 0
-571 -4 0
-571 -5 0
-571 -9 0
-571 -10 0
-571 -11 0
-571 -12 0
-571 -13 0
-571 -131 0
-571 -132 0
-571 -133 0
-571 -134 0
-571 -135 0
-571 -139 0
-571 -140 0
-571 -141 0
-571 -142 0
-571 -143 0
-571 -170 0
-571 -171 0
-571 -172 0
-571 -173 0
-571 -174 0
-571 -178 0
-571 -179 0
-571 -180 0
-571 -181 0
-571 -182 0
-572 -1 0
-572 -2 0
-572 -3 0
-572 -4 0
-572 -5 0
-572 -6 0
-572 -10 0
-572 -11 0
-572 -12 0
-572 -13 0
-572 -131 0
-572 -132 0
-572 -133 0
-572 -134 0
-572 -135 0
-572 -136 0
-572 -140 0
-572 -141 0
-572 -142 0
-572 -143 0
-572 -170 0
-572 -171 0
-572 -172 0
-572 -173 0
-572 -174 0
-572 -175 0
-572 -179 0
-572 -180 0
-572 -181 0
-572 -182 0
-573 -1 0
-573 -2 0
-573 -3 0
-573 -4 0
-573 -5 0
-573 -6 0
-573 -7 0
-573 -11 0
-573 -12 0
-573 -13 0
-573 -131 0
-573 -132 0
-573 -133 0
-573 -134 0
-573 -135 0
-573 -136 0
-573 -137 0
-573 -141 0
-573 -142 0
-573 -143 0
-573 -170 0
-573 -171 0
-573 -172 0
-573 -173 0
-573 -174 0
-573 -175 0
-573 -176 0
-573 -180 0
-573 -181 0
-573 -182 0
-574 -1 0
-574 -2 0
-574 -3 0
-574 -4 0
-574 -5 0
-574 -6 0
-574 -7 0
-574 -8 0
-574 -12 0
-574 -13 0
-574 -131 0
-574 -132 0
-574 -133 0
-574 -134 0
-574 -135 0
-574 -136 0
-574 -137 0
-574 -138 0
-574 -142 0
-574 -143 0
-574 -170 0
-574 -171 0
-574 -172 0
-574 -173 0
-574 -174 0
-574 -175 0
-574 -176 0
-574 -177 0
-574 -181 0
-574 -182 0
-575 -1 0
-575 -2 0
-575 -3 0
-575 -4 0
-575 -5 0
-575 -6 0
-575 -7 0
-575 -8 0
-575 -9 0
-575 -13 0
-575 -131 0
-575 -132 0
-575 -133 0
-575 -134 0
-575 -135 0
-575 -136 0
-575 -137 0
-575 -138 0
-575 -139 0
-575 -143 0
-575 -170 0
-575 -171 0
-575 -172 0
-575 -173 0
-575 -174 0
-575 -175 0
-575 -176 0
-575 -177 0
-575 -178 0
-575 -182 0
-576 -1 0
-576 -2 0
-576 -3 0
-576 -4 0
-576 -5 0
-576 -6 0
-576 -7 0
-576 -8 0
-576 -9 0
-576 -10 0
-576 -131 0
-576 -132 0
-576 -133 0
-576 -134 0
-576 -135 0
-576 -136 0
-576 -137 0
-576 -138 0
-576 -139 0
-576 -140 0
-576 -170 0
-576 -171 0
-576 -172 0
-576 -173 0
-576 -174 0
-576 -175 0
-576 -176 0
-576 -177 0
-576 -178 0
-576 -179 0
-209 -248 0
-209 -287 0
-209 -326 0
-248 -287 0
-248 -326 0
-287 -326 0
-210 -249 0
-210 -288 0
-210 -327 0
-249 -288 0
-249 -327 0
-288 -327 0
-211 -250 0
-211 -289 0
-211 -328 0
-250 -289 0
-250 -328 0
-289 -328 0
-212 -251 0
-212 -290 0
-212 -329 0
-251 -290 0
-251 -329 0
-290 -329 0
-213 -252 0
-213 -291 0
-213 -330 0
-252 -291 0
-252 -330 0
-291 -330 0
-214 -253 0
-214 -292 0
-214 -331 0
-253 -292 0
-253 -331 0
-292 -331 0
-215 -254 0
-215 -293 0
-215 -332 0
-254 -293 0
-254 -332 0
-293 -332 0
-216 -255 0
-216 -294 0
-216 -333 0
-255 -294 0
-255 -333 0
-294 -333 0
-217 -256 0
-217 -295 0
-217 -334 0
-256 -295 0
-256 -334 0
-295 -334 0
-218 -257 0
-218 -296 0
-218 -335 0
-257 -296 0
-257 -335 0
-296 -335 0
-219 -258 0
-219 -297 0
-219 -336 0
-258 -297 0
-258 -336 0
-297 -336 0
-220 -259 0
-220 -298 0
-220 -337 0
-259 -298 0
-259 -337 0
-298 -337 0
-221 -260 0
-221 -299 0
-221 -338 0
-260 -299 0
-260 -338 0
-299 -338 0
577 578 579 580 581 582 583 584 585 586 0
-577 -578 0
-577 -579 0
-577 -580 0
-577 -581 0
-577 -582 0
-577 -583 0
-577 -584 0
-577 -585 0
-577 -586 0
-578 -579 0
-578 -580 0
-578 -581 0
-578 -582 0
-578 -583 0
-578 -584 0
-578 -585 0
-578 -586 0
-579 -580 0
-579 -581 0
-579 -582 0
-579 -583 0
-579 -584 0
-579 -585 0
-579 -586 0
-580 -581 0
-580 -582 0
-580 -583 0
-580 -584 0
-580 -585 0
-580 -586 0
-581 -582 0
-581 -583 0
-581 -584 0
-581 -585 0
-581 -586 0
-582 -583 0
-582 -584 0
-582 -585 0
-582 -586 0
-583 -584 0
-583 -585 0
-583 -586 0
-584 -585 0
-584 -586 0
-585 -586 0
-209 577 0
-210 577 578 0
-211 577 578 579 0
-212 577 578 579 580 0
-213 578 579 580 581 0
-214 579 580 581 582 0
-215 580 581 582 583 0
-216 581 582 583 584 0
-217 582 583 584 585 0
-218 583 584 585 586 0
-219 584 585 586 0
-220 585 586 0
-221 586 0
-248 577 0
-249 577 578 0
-250 577 578 579 0
-251 577 578 579 580 0
-252 578 579 580 581 0
-253 579 580 581 582 0
-254 580 581 582 583 0
-255 581 582 583 584 0
-256 582 583 584 585 0
-257 583 584 585 586 0
-258 584 585 586 0
-259 585 586 0
-260 586 0
-287 577 0
-288 577 578 0
-289 577 578 579 0
-290 577 578 579 580 0
-291 578 579 580 581 0
-292 579 580 581 582 0
-293 580 581 582 583 0
-294 581 582 583 584 0
-295 582 583 584 585 0
-296 583 584 585 586 0
-297 584 585 586 0
-298 585 586 0
-299 586 0
-326 577 0
-327 577 578 0
-328 577 578 579 0
-329 577 578 579 580 0
-330 578 579 580 581 0
-331 579 580 581 582 0
-332 580 581 582 583 0
-333 581 582 583 584 0
-334 582 583 584 585 0
-335 583 584 585 586 0
-336 584 585 586 0
-337 585 586 0
-338 586 0
-577 -213 0
-577 -214 0
-577 -215 0
-577 -216 0
-577 -217 0
-577 -218 0
-577 -219 0
-577 -220 0
-577 -221 0
-577 -252 0
-577 -253 0
-577 -254 0
-577 -255 0
-577 -256 0
-577 -257 0
-577 -258 0
-577 -259 0
-577 -260 0
-577 -291 0
-577 -292 0
-577 -293 0
-577 -294 0
-577 -295 0
-577 -296 0
-577 -297 0
-577 -298 0
-577 -299 0
-577 -330 0
-577 -331 0
-577 -332 0
-577 -333 0
-577 -334 0
-577 -335 0
-577 -336 0
-577 -337 0
-577 -338 0
-578 -209 0
-578 -214 0
-578 -215 0
-578 -216 0
-578 -217 0
-578 -218 0
-578 -219 0
-578 -220 0
-578 -221 0
-578 -248 0
-578 -253 0
-578 -254 0
-578 -255 0
-578 -256 0
-578 -257 0
-578 -258 0
-578 -259 0
-578 -260 0
-578 -287 0
-578 -292 0
-578 -293 0
-578 -294 0
-578 -295 0
-578 -296 0
-578 -297 0
-578 -298 0
-578 -299 0
-578 -326 0
-578 -331 0
-578 -332 0
-578 -333 0
-578 -334 0
-578 -335 0
-578 -336 0
-578 -337 0
-578 -338 0
-579 -209 0
-579 -210 0
-579 -215 0
-579 -216 0
-579 -217 0
-579 -218 0
-579 -219 0
-579 -220 0
-579 -221 0
-579 -248 0
-579 -249 0
-579 -254 0
-579 -255 0
-579 -256 0
-579 -257 0
-579 -258 0
-579 -259 0
-579 -260 0
-579 -287 0
-579 -288 0
-579 -293 0
-579 -294 0
-579 -295 0
-579 -296 0
-579 -297 0
-579 -298 0
-579 -299 0
-579 -326 0
-579 -327 0
-579 -332 0
-579 -333 0
-579 -334 0
-579 -335 0
-579 -336 0
-579 -337 0
-579 -338 0
-580 -209 0
-580 -210 0
-580 -211 0
-580 -216 0
-580 -217 0
-580 -218 0
-580 -219 0
-580 -220 0
-580 -221 0
-580 -248 0
-580 -249 0
-580 -250 0
-580 -255 0
-580 -256 0
-580 -257 0
-580 -258 0
-580 -259 0
-580 -260 0
-580 -287 0
-580 -288 0
-580 -289 0
-580 -294 0
-580 -295 0
-580 -296 0
-580 -297 0
-580 -298 0
-580 -299 0
-580 -326 0
-580 -327 0
-580 -328 0
-580 -333 0
-580 -334 0
-580 -335 0
-580 -336 0
-580 -337 0
-580 -338 0
-581 -209 0
-581 -210 0
-581 -211 0
-581 -212 0
-581 -217 0
-581 -218 0
-581 -219 0
-581 -220 0
-581 -221 0
-581 -248 0
-581 -249 0
-581 -250 0
-581 -251 0
-581 -256 0
-581 -257 0
-581 -258 0
-581 -259 0
-581 -260 0
-581 -287 0
-581 -288 0
-581 -289 0
-581 -290 0
-581 -295 0
-581 -296 0
-581 -297 0
-581 -298 0
-581 -299 0
-581 -326 0
-581 -327 0
-581 -328 0
-581 -329 0
-581 -334 0
-581 -335 0
-581 -336 0
-581 -337 0
-581 -338 0
-582 -209 0
-582 -210 0
-582 -211 0
-582 -212 0
-582 -213 0
-582 -218 0
-582 -219 0
-582 -220 0
-582 -221 0
-582 -248 0
-582 -249 0
-582 -250 0
-582 -251 0
-582 -252 0
-582 -257 0
-582 -258 0
-582 -259 0
-582 -260 0
-582 -287 0
-582 -288 0
-582 -289 0
-582 -290 0
-582 -291 0
-582 -296 0
-582 -297 0
-582 -298 0
-582 -299 0
-582 -326 0
-582 -327 0
-582 -328 0
-582 -329 0
-582 -330 0
-582 -335 0
-582 -336 0
-582 -337 0
-582 -338 0
-583 -209 0
-583 -210 0
-583 -211 0
-583 -212 0
-583 -213 0
-583 -214 0
-583 -219 0
-583 -220 0
-583 -221 0
-583 -248 0
-583 -249 0
-583 -250 0
-583 -251 0
-583 -252 0
-583 -253 0
-583 -258 0
-583 -259 0
-583 -260 0
-583 -287 0
-583 -288 0
-583 -289 0
-583 -290 0
-583 -291 0
-583 -292 0
-583 -297 0
-583 -298 0
-583 -299 0
-583 -326 0
-583 -327 0
-583 -328 0
-583 -329 0
-583 -330 0
-583 -331 0
-583 -336 0
-583 -337 0
-583 -338 0
-584 -209 0
-584 -210 0
-584 -211 0
-584 -212 0
-584 -213 0
-584 -214 0
-584 -215 0
-584 -220 0
-584 -221 0
-584 -248 0
-584 -249 0
-584 -250 0
-584 -251 0
-584 -252 0
-584 -253 0
-584 -254 0
-584 -259 0
-584 -260 0
-584 -287 0
-584 -288 0
-584 -289 0
-584 -290 0
-584 -291 0
-584 -292 0
-584 -293 0
-584 -298 0
-584 -299 0
-584 -326 0
-584 -327 0
-584 -328 0
-584 -329 0
-584 -330 0
-584 -331 0
-584 -332 0
-584 -337 0
-584 -338 0
-585 -209 0
-585 -210 0
-585 -211 0
-585 -212 0
-585 -213 0
-585 -214 0
-585 -215 0
-585 -216 0
-585 -221 0
-585 -248 0
-585 -249 0
-585 -250 0
-585 -251 0
-585 -252 0
-585 -253 0
-585 -254 0
-585 -255 0
-585 -260 0
-585 -287 0
-585 -288 0
-585 -289 0
-585 -290 0
-585 -291 0
-585 -292 0
-585 -293 0
-585 -294 0
-585 -299 0
-585 -326 0
-585 -327 0
-585 -328 0
-585 -329 0
-585 -330 0
-585 -331 0
-585 -332 0
-585 -333 0
-585 -338 0
-586 -209 0
-586 -210 0
-586 -211 0
-586 -212 0
-586 -213 0
-586 -214 0
-586 -215 0
-586 -216 0
-586 -217 0
-586 -248 0
-586 -249 0
-586 -250 0
-586 -251 0
-586 -252 0
-586 -253 0
-586 -254 0
-586 -255 0
-586 -256 0
-586 -287 0
-586 -288 0
-586 -289 0
-586 -290 0
-586 -291 0
-586 -292 0
-586 -293 0
-586 -294 0
-586 -295 0
-586 -326 0
-586 -327 0
-586 -328 0
-586 -329 0
-586 -330 0
-586 -331 0
-586 -332 0
-586 -333 0
-586 -334 0
-53 -92 0
-53 -365 0
-53 -404 0
-92 -365 0
-92 -404 0
-365 -404 0
-54 -93 0
-54 -366 0
-54 -405 0
-93 -366 0
-93 -405 0
-366 -405 0
-55 -94 0
-55 -367 0
-55 -406 0
-94 -367 0
-94 -406 0
-367 -406 0
-56 -95 0
-56 -368 0
-56 -407 0
-95 -368 0
-95 -407 0
-368 -407 0
-57 -96 0
-57 -369 0
-57 -408 0
-96 -369 0
-96 -408 0
-369 -408 0
-58 -97 0
-58 -370 0
-58 -409 0
-97 -370 0
-97 -409 0
-370 -409 0
-59 -98 0
-59 -371 0
-59 -410 0
-98 -371 0
-98 -410 0
-371 -410 0
-60 -99 0
-60 -372 0
-60 -411 0
-99 -372 0
-99 -411 0
-372 -411 0
-61 -100 0
-61 -373 0
-61 -412 0
-100 -373 0
-100 -412 0
-373 -412 0
-62 -101 0
-62 -374 0
-62 -413 0
-101 -374 0
-101 -413 0
-374 -413 0
-63 -102 0
-63 -375 0
-63 -414 0
-102 -375 0
-102 -414 0
-375 -414 0
-64 -103 0
-64 -376 0
-64 -415 0
-103 -376 0
-103 -415 0
-376 -415 0
-65 -104 0
-65 -377 0
-65 -416 0
-104 -377 0
-104 -416 0
-377 -416 0
587 588 589 590 591 592 593 594 595 596 0
-587 -588 0
-587 -589 0
-587 -590 0
-587 -591 0
-587 -592 0
-587 -593 0
-587 -594 0
-587 -595 0
-587 -596 0
-588 -589 0
-588 -590 0
-588 -591 0
-588 -592 0
-588 -593 0
-588 -594 0
-588 -595 0
-588 -596 0
-589 -590 0
-589 -591 0
-589 -592 0
-589 -593 0
-589 -594 0
-589 -595 0
-589 -596 0
-590 -591 0
-590 -592 0
-590 -593 0
-590 -594 0
-590 -595 0
-590 -596 0
-591 -592 0
-591 -593 0
-591 -594 0
-591 -595 0
-591 -596 0
-592 -593 0
-592 -594 0
-592 -595 0
-592 -596 0
-593 -594 0
-593 -595 0
-593 -596 0
-594 -595 0
-594 -596 0
-595 -596 0
-53 587 0
-54 587 588 0
-55 587 588 589 0
-56 587 588 589 590 0
-57 588 589 590 591 0
-58 589 590 591 592 0
-59 590 591 592 593 0
-60 591 592 593 594 0
-61 592 593 594 595 0
-62 593 594 595 596 0
-63 594 595 596 0
-64 595 596 0
-65 596 0
-92 587 0
-93 587 588 0
-94 587 588 589 0
-95 587 588 589 590 0
-96 588 589 590 591 0
-97 589 590 591 592 0
-98 590 591 592 593 0
-99 591 592 593 594 0
-100 592 593 594 595 0
-101 593 594 595 596 0
-102 594 595 596 0
-103 595 596 0
-104 596 0
-365 587 0
-366 587 588 0
-367 587 588 589 0
-368 587 588 589 590 0
-369 588 589 590 591 0
-370 589 590 591 592 0
-371 590 591 592 593 0
-372 591 592 593 594 0
-373 592 593 594 595 0
-374 593 594 595 596 0
-375 594 595 596 0
-376 595 596 0
-377 596 0
-404 587 0
-405 587 588 0
-406 587 588 589 0
-407 587 588 589 590 0
-408 588 589 590 591 0
-409 589 590 591 592 0
-410 590 591 592 593 0
-411 591 592 593 594 0
-412 592 593 594 595 0
-413 593 594 595 596 0
-414 594 595 596 0
-415 595 596 0
-416 596 0
-587 -57 0
-587 -58 0
-587 -59 0
-587 -60 0
-587 -61 0
-587 -62 0
-587 -63 0
-587 -64 0
-587 -65 0
-587 -96 0
-587 -97 0
-587 -98 0
-587 -99 0
-587 -100 0
-587 -101 0
-587 -102 0
-587 -103 0
-587 -104 0
-587 -369 0
-587 -370 0
-587 -371 0
-587 -372 0
-587 -373 0
-587 -374 0
-587 -375 0
-587 -376 0
-587 -377 0
-587 -408 0
-587 -409 0
-587 -410 0
-587 -411 0
-587 -412 0
-587 -413 0
-587 -414 0
-587 -415 0
-587 -416 0
-588 -53 0
-588 -58 0
-588 -59 0
-588 -60 0
-588 -61 0
-588 -62 0
-588 -63 0
-588 -64 0
-588 -65 0
-588 -92 0
-588 -97 0
-588 -98 0
-588 -99 0
-588 -100 0
-588 -101 0
-588 -102 0
-588 -103 0
-588 -104 0
-588 -365 0
-588 -370 0
-588 -371 0
-588 -372 0
-588 -373 0
-588 -374 0
-588 -375 0
-588 -376 0
-588 -377 0
-588 -404 0
-588 -409 0
-588 -410 0
-588 -411 0
-588 -412 0
-588 -413 0
-588 -414 0
-588 -415 0
-588 -416 0
-589 -53 0
-589 -54 0
-589 -59 0
-589 -60 0
-589 -61 0
-589 -62 0
-589 -63 0
-589 -64 0
-589 -65 0
-589 -92 0
-589 -93 0
-589 -98 0
-589 -99 0
-589 -100 0
-589 -101 0
-589 -102 0
-589 -103 0
-589 -104 0
-589 -365 0
-589 -366 0
-589 -371 0
-589 -372 0
-589 -373 0
-589 -374 0
-589 -375 0
-589 -376 0
-589 -377 0
-589 -404 0
-589 -405 0
-589 -410 0
-589 -411 0
-589 -412 0
-589 -413 0
-589 -414 0
-589 -415 0
-589 -416 0
-590 -53 0
-590 -54 0
-590 -55 0
-590 -60 0
-590 -61 0
-590 -62 0
-590 -63 0
-590 -64 0
-590 -65 0
-590 -92 0
-590 -93 0
-590 -94 0
-590 -99 0
-590 -100 0
-590 -101 0
-590 -102 0
-590 -103 0
-590 -104 0
-590 -365 0
-590 -366 0
-590 -367 0
-590 -372 0
-590 -373 0
-590 -374 0
-590 -375 0
-590 -376 0
-590 -377 0
-590 -404 0
-590 -405 0
-590 -406 0
-590 -411 0
-590 -412 0
-590 -413 0
-590 -414 0
-590 -415 0
-590 -416 0
-591 -53 0
-591 -54 0
-591 -55 0
-591 -56 0
-591 -61 0
-591 -62 0
-591 -63 0
-591 -64 0
-591 -65 0
-591 -92 0
-591 -93 0
-591 -94 0
-591 -95 0
-591 -100 0
-591 -101 0
-591 -102 0
-591 -103 0
-591 -104 0
-591 -365 0
-591 -366 0
-591 -367 0
-591 -368 0
-591 -373 0
-591 -374 0
-591 -375 0
-591 -376 0
-591 -377 0
-591 -404 0
-591 -405 0
-591 -406 0
-591 -407 0
-591 -412 0
-591 -413 0
-591 -414 0
-591 -415 0
-591 -416 0
-592 -53 0
-592 -54 0
-592 -55 0
-592 -56 0
-592 -57 0
-592 -62 0
-592 -63 0
-592 -64 0
-592 -65 0
-592 -92 0
-592 -93 0
-592 -94 0
-592 -95 0
-592 -96 0
-592 -101 0
-592 -102 0
-592 -103 0
-592 -104 0
-592 -365 0
-592 -366 0
-592 -367 0
-592 -368 0
-592 -369 0
-592 -374 0
-592 -375 0
-592 -376 0
-592 -377 0
-592 -404 0
-592 -405 0
-592 -406 0
-592 -407 0
-592 -408 0
-592 -413 0
-592 -414 0
-592 -415 0
-592 -416 0
-593 -53 0
-593 -54 0
-593 -55 0
-593 -56 0
-593 -57 0
-593 -58 0
-593 -63 0
-593 -64 0
-593 -65 0
-593 -92 0
-593 -93 0
-593 -94 0
-593 -95 0
-593 -96 0
-593 -97 0
-593 -102 0
-593 -103 0
-593 -104 0
-593 -365 0
-593 -366 0
-593 -367 0
-593 -368 0
-593 -369 0
-593 -370 0
-593 -375 0
-593 -376 0
-593 -377 0
-593 -404 0
-593 -405 0
-593 -406 0
-593 -407 0
-593 -408 0
-593 -409 0
-593 -414 0
-593 -415 0
-593 -416 0
-594 -53 0
-594 -54 0
-594 -55 0
-594 -56 0
-594 -57 0
-594 -58 0
-594 -59 0
-594 -64 0
-594 -65 0
-594 -92 0
-594 -93 0
-594 -94 0
-594 -95 0
-594 -96 0
-594 -97 0
-594 -98 0
-594 -103 0
-594 -104 0
-594 -365 0
-594 -366 0
-594 -367 0
-594 -368 0
-594 -369 0
-594 -370 0
-594 -371 0
-594 -376 0
-594 -377 0
-594 -404 0
-594 -405 0
-594 -406 0
-594 -407 0
-594 -408 0
-594 -409 0
-594 -410 0
-594 -415 0
-594 -416 0
-595 -53 0
-595 -54 0
-595 -55 0
-595 -56 0
-595 -57 0
-595 -58 0
-595 -59 0
-595 -60 0
-595 -65 0
-595 -92 0
-595 -93 0
-595 -94 0
-595 -95 0
-595 -96 0
-595 -97 0
-595 -98 0
-595 -99 0
-595 -104 0
-595 -365 0
-595 -366 0
-595 -367 0
-595 -368 0
-595 -369 0
-595 -370 0
-595 -371 0
-595 -372 0
-595 -377 0
-595 -404 0
-595 -405 0
-595 -406 0
-595 -407 0
-595 -408 0
-595 -409 0
-595 -410 0
-595 -411 0
-595 -416 0
-596 -53 0
-596 -54 0
-596 -55 0
-596 -56 0
-596 -57 0
-596 -58 0
-596 -59 0
-596 -60 0
-596 -61 0
-596 -92 0
-596 -93 0
-596 -94 0
-596 -95 0
-596 -96 0
-596 -97 0
-596 -98 0
-596 -99 0
-596 -100 0
-596 -365 0
-596 -366 0
-596 -367 0
-596 -368 0
-596 -369 0
-596 -370 0
-596 -371 0
-596 -372 0
-596 -373 0
-596 -404 0
-596 -405 0
-596 -406 0
-596 -407 0
-596 -408 0
-596 -409 0
-596 -410 0
-596 -411 0
-596 -412 0
-14 -222 0
-14 -378 0
-222 -378 0
-15 -223 0
-15 -379 0
-223 -379 0
-16 -224 0
-16 -380 0
-224 -380 0
-17 -225 0
-17 -381 0
-225 -381 0
-18 -226 0
-18 -382 0
-226 -382 0
-19 -227 0
-19 -383 0
-227 -383 0
-20 -228 0
-20 -384 0
-228 -384 0
-21 -229 0
-21 -385 0
-229 -385 0
-22 -230 0
-22 -386 0
-230 -386 0
-23 -231 0
-23 -387 0
-231 -387 0
-24 -232 0
-24 -388 0
-232 -388 0
-25 -233 0
-25 -389 0
-233 -389 0
-26 -234 0
-26 -390 0
-234 -390 0
597 598 599 600 601 602 603 604 605 606 607 0
-597 -598 0
-597 -599 0
-597 -600 0
-597 -601 0
-597 -602 0
-597 -603 0
-597 -604 0
-597 -605 0
-597 -606 0
-597 -607 0
-598 -599 0
-598 -600 0
-598 -601 0
-598 -602 0
-598 -603 0
-598 -604 0
-598 -605 0
-598 -606 0
-598 -607 0
-599 -600 0
-599 -601 0
-599 -602 0
-599 -603 0
-599 -604 0
-599 -605 0
-599 -606 0
-599 -607 0
-600 -601 0
-600 -602 0
-600 -603 0
-600 -604 0
-600 -605 0
-600 -606 0
-600 -607 0
-601 -602 0
-601 -603 0
-601 -604 0
-601 -605 0
-601 -606 0
-601 -607 0
-602 -603 0
-602 -604 0
-602 -605 0
-602 -606 0
-602 -607 0
-603 -604 0
-603 -605 0
-603 -606 0
-603 -607 0
-604 -605 0
-604 -606 0
-604 -607 0
-605 -606 0
-605 -607 0
-606 -607 0
-14 597 0
-15 597 598 0
-16 597 598 599 0
-17 598 599 600 0
-18 599 600 601 0
-19 600 601 602 0
-20 601 602 603 0
-21 602 603 604 0
-22 603 604 605 0
-23 604 605 606 0
-24 605 606 607 0
-25 606 607 0
-26 607 0
-222 597 0
-223 597 598 0
-224 597 598 599 0
-225 598 599 600 0
-226 599 600 601 0
-227 600 601 602 0
-228 601 602 603 0
-229 602 603 604 0
-230 603 604 605 0
-231 604 605 606 0
-232 605 606 607 0
-233 606 607 0
-234 607 0
-378 597 0
-379 597 598 0
-380 597 598 599 0
-381 598 599 600 0
-382 599 600 601 0
-383 600 601 602 0
-384 601 602 603 0
-385 602 603 604 0
-386 603 604 605 0
-387 604 605 606 0
-388 605 606 607 0
-389 606 607 0
-390 607 0
-597 -17 0
-597 -18 0
-597 -19 0
-597 -20 0
-597 -21 0
-597 -22 0
-597 -23 0
-597 -24 0
-597 -25 0
-597 -26 0
-597 -225 0
-597 -226 0
-597 -227 0
-597 -228 0
-597 -229 0
-597 -230 0
-597 -231 0
-597 -232 0
-597 -233 0
-597 -234 0
-597 -381 0
-597 -382 0
-597 -383 0
-597 -384 0
-597 -385 0
-597 -386 0
-597 -387 0
-597 -388 0
-597 -389 0
-597 -390 0
-598 -14 0
-598 -18 0
-598 -19 0
-598 -20 0
-598 -21 0
-598 -22 0
-598 -23 0
-598 -24 0
-598 -25 0
-598 -26 0
-598 -222 0
-598 -226 0
-598 -227 0
-598 -228 0
-598 -229 0
-598 -230 0
-598 -231 0
-598 -232 0
-598 -233 0
-598 -234 0
-598 -378 0
-598 -382 0
-598 -383 0
-598 -384 0
-598 -385 0
-598 -386 0
-598 -387 0
-598 -388 0
-598 -389 0
-598 -390 0
-599 -14 0
-599 -15 0
-599 -19 0
-599 -20 0
-599 -21 0
-599 -22 0
-599 -23 0
-599 -24 0
-599 -25 0
-599 -26 0
-599 -222 0
-599 -223 0
-599 -227 0
-599 -228 0
-599 -229 0
-599 -230 0
-599 -231 0
-599 -232 0
-599 -233 0
-599 -234 0
-599 -378 0
-599 -379 0
-599 -383 0
-599 -384 0
-599 -385 0
-599 -386 0
-599 -387 0
-599 -388 0
-599 -389 0
-599 -390 0
-600 -14 0
-600 -15 0
-600 -16 0
-600 -20 0
-600 -21 0
-600 -22 0
-600 -23 0
-600 -24 0
-600 -25 0
-600 -26 0
-600 -222 0
-600 -223 0
-600 -224 0
-600 -228 0
-600 -229 0
-600 -230 0
-600 -231 0
-600 -232 0
-600 -233 0
-600 -234 0
-600 -378 0
-600 -379 0
-600 -380 0
-600 -384 0
-600 -385 0
-600 -386 0
-600 -387 0
-600 -388 0
-600 -389 0
-600 -390 0
-601 -14 0
-601 -15 0
-601 -16 0
-601 -17 0
-601 -21 0
-601 -22 0
-601 -23 0
-601 -24 0
-601 -25 0
-601 -26 0
-601 -222 0
-601 -223 0
-601 -224 0
-601 -225 0
-601 -229 0
-601 -230 0
-601 -231 0
-601 -232 0
-601 -233 0
-601 -234 0
-601 -378 0
-601 -379 0
-601 -380 0
-601 -381 0
-601 -385 0
-601 -386 0
-601 -387 0
-601 -388 0
-601 -389 0
-601 -390 0
-602 -14 0
-602 -15 0
-602 -16 0
-602 -17 0
-602 -18 0
-602 -22 0
-602 -23 0
-602 -24 0
-602 -25 0
-602 -26 0
-602 -222 0
-602 -223 0
-602 -224 0
-602 -225 0
-602 -226 0
-602 -230 0
-602 -231 0
-602 -232 0
-602 -233 0
-602 -234 0
-602 -378 0
-602 -379 0
-602 -380 0
-602 -381 0
-602 -382 0
-602 -386 0
-602 -387 0
-602 -388 0
-602 -389 0
-602 -390 0
-603 -14 0
-603 -15 0
-603 -16 0
-603 -17 0
-603 -18 0
-603 -19 0
-603 -23 0
-603 -24 0
-603 -25 0
-603 -26 0
-603 -222 0
-603 -223 0
-603 -224 0
-603 -225 0
-603 -226 0
-603 -227 0
-603 -231 0
-603 -232 0
-603 -233 0
-603 -234 0
-603 -378 0
-603 -379 0
-603 -380 0
-603 -381 0
-603 -382 0
-603 -383 0
-603 -387 0
-603 -388 0
-603 -389 0
-603 -390 0
-604 -14 0
-604 -15 0
-604 -16 0
-604 -17 0
-604 -18 0
-604 -19 0
-604 -20 0
-604 -24 0
-604 -25 0
-604 -26 0
-604 -222 0
-604 -223 0
-604 -224 0
-604 -225 0
-604 -226 0
-604 -227 0
-604 -228 0
-604 -232 0
-604 -233 0
-604 -234 0
-604 -378 0
-604 -379 0
-604 -380 0
-604 -381 0
-604 -382 0
-604 -383 0
-604 -384 0
-604 -388 0
-604 -389 0
-604 -390 0
-605 -14 0
-605 -15 0
-605 -16 0
-605 -17 0
-605 -18 0
-605 -19 0
-605 -20 0
-605 -21 0
-605 -25 0
-605 -26 0
-605 -222 0
-605 -223 0
-605 -224 0
-605 -225 0
-605 -226 0
-605 -227 0
-605 -228 0
-605 -229 0
-605 -233 0
-605 -234 0
-605 -378 0
-605 -379 0
-605 -380 0
-605 -381 0
-605 -382 0
-605 -383 0
-605 -384 0
-605 -385 0
-605 -389 0
-605 -390 0
-606 -14 0
-606 -15 0
-606 -16 0
-606 -17 0
-606 -18 0
-606 -19 0
-606 -20 0
-606 -21 0
-606 -22 0
-606 -26 0
-606 -222 0
-606 -223 0
-606 -224 0
-606 -225 0
-606 -226 0
-606 -227 0
-606 -228 0
-606 -229 0
-606 -230 0
-606 -234 0
-606 -378 0
-606 -379 0
-606 -380 0
-606 -381 0
-606 -382 0
-606 -383 0
-606 -384 0
-606 -385 0
-606 -386 0
-606 -390 0
-607 -14 0
-607 -15 0
-607 -16 0
-607 -17 0
-607 -18 0
-607 -19 0
-607 -20 0
-607 -21 0
-607 -22 0
-607 -23 0
-607 -222 0
-607 -223 0
-607 -224 0
-607 -225 0
-607 -226 0
-607 -227 0
-607 -228 0
-607 -229 0
-607 -230 0
-607 -231 0
-607 -378 0
-607 -379 0
-607 -380 0
-607 -381 0
-607 -382 0
-607 -383 0
-607 -384 0
-607 -385 0
-607 -386 0
-607 -387 0
-27 -261 0
-27 -417 0
-261 -417 0
-28 -262 0
-28 -418 0
-262 -418 0
-29 -263 0
-29 -419 0
-263 -419 0
-30 -264 0
-30 -420 0
-264 -420 0
-31 -265 0
-31 -421 0
-265 -421 0
-32 -266 0
-32 -422 0
-266 -422 0
-33 -267 0
-33 -423 0
-267 -423 0
-34 -268 0
-34 -424 0
-268 -424 0
-35 -269 0
-35 -425 0
-269 -425 0
-36 -270 0
-36 -426 0
-270 -426 0
-37 -271 0
-37 -427 0
-271 -427 0
-38 -272 0
-38 -428 0
-272 -428 0
-39 -273 0
-39 -429 0
-273 -429 0
608 609 610 611 612 613 614 615 616 617 618 0
-608 -609 0
-608 -610 0
-608 -611 0
-608 -612 0
-608 -613 0
-608 -614 0
-608 -615 0
-608 -616 0
-608 -617 0
-608 -618 0
-609 -610 0
-609 -611 0
-609 -612 0
-609 -613 0
-609 -614 0
-609 -615 0
-609 -616 0
-609 -617 0
-609 -618 0
-610 -611 0
-610 -612 0
-610 -613 0
-610 -614 0
-610 -615 0
-610 -616 0
-610 -617 0
-610 -618 0
-611 -612 0
-611 -613 0
-611 -614 0
-611 -615 0
-611 -616 0
-611 -617 0
-611 -618 0
-612 -613 0
-612 -614 0
-612 -615 0
-612 -616 0
-612 -617 0
-612 -618 0
-613 -614 0
-613 -615 0
-613 -616 0
-613 -617 0
-613 -618 0
-614 -615 0
-614 -616 0
-614 -617 0
-614 -618 0
-615 -616 0
-615 -617 0
-615 -618 0
-616 -617 0
-616 -618 0
-617 -618 0
-27 608 0
-28 608 609 0
-29 608 609 610 0
-30 609 610 611 0
-31 610 611 612 0
-32 611 612 613 0
-33 612 613 614 0
-34 613 614 615 0
-35 614 615 616 0
-36 615 616 617 0
-37 616 617 618 0
-38 617 618 0
-39 618 0
-261 608 0
-262 608 609 0
-263 608 609 610 0
-264 609 610 611 0
-265 610 611 612 0
-266 611 612 613 0
-267 612 613 614 0
-268 613 614 615 0
-269 614 615 616 0
-270 615 616 617 0
-271 616 617 618 0
-272 617 618 0
-273 618 0
-417 608 0
-418 608 609 0
-419 608 609 610 0
-420 609 610 611 0
-421 610 611 612 0
-422 611 612 613 0
-423 612 613 614 0
-424 613 614 615 0
-425 614 615 616 0
-426 615 616 617 0
-427 616 617 618 0
-428 617 618 0
-429 618 0
-608 -30 0
-608 -31 0
-608 -32 0
-608 -33 0
-608 -34 0
-608 -35 0
-608 -36 0
-608 -37 0
-608 -38 0
-608 -39 0
-608 -264 0
-608 -265 0
-608 -266 0
-608 -267 0
-608 -268 0
-608 -269 0
-608 -270 0
-608 -271 0
-608 -272 0
-608 -273 0
-608 -420 0
-608 -421 0
-608 -422 0
-608 -423 0
-608 -424 0
-608 -425 0
-608 -426 0
-608 -427 0
-608 -428 0
-608 -429 0
-609 -27 0
-609 -31 0
-609 -32 0
-609 -33 0
-609 -34 0
-609 -35 0
-609 -36 0
-609 -37 0
-609 -38 0
-609 -39 0
-609 -261 0
-609 -265 0
-609 -266 0
-609 -267 0
-609 -268 0
-609 -269 0
-609 -270 0
-609 -271 0
-609 -272 0
-609 -273 0
-609 -417 0
-609 -421 0
-609 -422 0
-609 -423 0
-609 -424 0
-609 -425 0
-609 -426 0
-609 -427 0
-609 -428 0
-609 -429 0
-610 -27 0
-610 -28 0
-610 -32 0
-610 -33 0
-610 -34 0
-610 -35 0
-610 -36 0
-610 -37 0
-610 -38 0
-610 -39 0
-610 -261 0
-610 -262 0
-610 -266 0
-610 -267 0
-610 -268 0
-610 -269 0
-610 -270 0
-610 -271 0
-610 -272 0
-610 -273 0
-610 -417 0
-610 -418 0
-610 -422 0
-610 -423 0
-610 -424 0
-610 -425 0
-610 -426 0
-610 -427 0
-610 -428 0
-610 -429 0
-611 -27 0
-611 -28 0
-611 -29 0
-611 -33 0
-611 -34 0
-611 -35 0
-611 -36 0
-611 -37 0
-611 -38 0
-611 -39 0
-611 -261 0
-611 -262 0
-611 -263 0
-611 -267 0
-611 -268 0
-611 -269 0
-611 -270 0
-611 -271 0
-611 -272 0
-611 -273 0
-611 -417 0
-611 -418 0
-611 -419 0
-611 -423 0
-611 -424 0
-611 -425 0
-611 -426 0
-611 -427 0
-611 -428 0
-611 -429 0
-612 -27 0
-612 -28 0
-612 -29 0
-612 -30 0
-612 -34 0
-612 -35 0
-612 -36 0
-612 -37 0
-612 -38 0
-612 -39 0
-612 -261 0
-612 -262 0
-612 -263 0
-612 -264 0
-612 -268 0
-612 -269 0
-612 -270 0
-612 -271 0
-612 -272 0
-612 -273 0
-612 -417 0
-612 -418 0
-612 -419 0
-612 -420 0
-612 -424 0
-612 -425 0
-612 -426 0
-612 -427 0
-612 -428 0
-612 -429 0
-613 -27 0
-613 -28 0
-613 -29 0
-613 -30 0
-613 -31 0
-613 -35 0
-613 -36 0
-613 -37 0
-613 -38 0
-613 -39 0
-613 -261 0
-613 -262 0
-613 -263 0
-613 -264 0
-613 -265 0
-613 -269 0
-613 -270 0
-613 -271 0
-613 -272 0
-613 -273 0
-613 -417 0
-613 -418 0
-613 -419 0
-613 -420 0
-613 -421 0
-613 -425 0
-613 -426 0
-613 -427 0
-613 -428 0
-613 -429 0
-614 -27 0
-614 -28 0
-614 -29 0
-614 -30 0
-614 -31 0
-614 -32 0
-614 -36 0
-614 -37 0
-614 -38 0
-614 -39 0
-614 -261 0
-614 -262 0
-614 -263 0
-614 -264 0
-614 -265 0
-614 -266 0
-614 -270 0
-614 -271 0
-614 -272 0
-614 -273 0
-614 -417 0
-614 -418 0
-614 -419 0
-614 -420 0
-614 -421 0
-614 -422 0
-614 -426 0
-614 -427 0
-614 -428 0
-614 -429 0
-615 -27 0
-615 -28 0
-615 -29 0
-615 -30 0
-615 -31 0
-615 -32 0
-615 -33 0
-615 -37 0
-615 -38 0
-615 -39 0
-615 -261 0
-615 -262 0
-615 -263 0
-615 -264 0
-615 -265 0
-615 -266 0
-615 -267 0
-615 -271 0
-615 -272 0
-615 -273 0
-615 -417 0
-615 -418 0
-615 -419 0
-615 -420 0
-615 -421 0
-615 -422 0
-615 -423 0
-615 -427 0
-615 -428 0
-615 -429 0
-616 -27 0
-616 -28 0
-616 -29 0
-616 -30 0
-616 -31 0
-616 -32 0
-616 -33 0
-616 -34 0
-616 -38 0
-616 -39 0
-616 -261 0
-616 -262 0
-616 -263 0
-616 -264 0
-616 -265 0
-616 -266 0
-616 -267 0
-616 -268 0
-616 -272 0
-616 -273 0
-616 -417 0
-616 -418 0
-616 -419 0
-616 -420 0
-616 -421 0
-616 -422 0
-616 -423 0
-616 -424 0
-616 -428 0
-616 -429 0
-617 -27 0
-617 -28 0
-617 -29 0
-617 -30 0
-617 -31 0
-617 -32 0
-617 -33 0
-617 -34 0
-617 -35 0
-617 -39 0
-617 -261 0
-617 -262 0
-617 -263 0
-617 -264 0
-617 -265 0
-617 -266 0
-617 -267 0
-617 -268 0
-617 -269 0
-617 -273 0
-617 -417 0
-617 -418 0
-617 -419 0
-617 -420 0
-617 -421 0
-617 -422 0
-617 -423 0
-617 -424 0
-617 -425 0
-617 -429 0
-618 -27 0
-618 -28 0
-618 -29 0
-618 -30 0
-618 -31 0
-618 -32 0
-618 -33 0
-618 -34 0
-618 -35 0
-618 -36 0
-618 -261 0
-618 -262 0
-618 -263 0
-618 -264 0
-618 -265 0
-618 -266 0
-618 -267 0
-618 -268 0
-618 -269 0
-618 -270 0
-618 -417 0
-618 -418 0
-618 -419 0
-618 -420 0
-618 -421 0
-618 -422 0
-618 -423 0
-618 -424 0
-618 -425 0
-618 -426 0
-66 -144 0
-66 -300 0
-144 -300 0
-67 -145 0
-67 -301 0
-145 -301 0
-68 -146 0
-68 -302 0
-146 -302 0
-69 -147 0
-69 -303 0
-147 -303 0
-70 -148 0
-70 -304 0
-148 -304 0
-71 -149 0
-71 -305 0
-149 -305 0
-72 -150 0
-72 -306 0
-150 -306 0
-73 -151 0
-73 -307 0
-151 -307 0
-74 -152 0
-74 -308 0
-152 -308 0
-75 -153 0
-75 -309 0
-153 -309 0
-76 -154 0
-76 -310 0
-154 -310 0
-77 -155 0
-77 -311 0
-155 -311 0
-78 -156 0
-78 -312 0
-156 -312 0
619 620 621 622 623 624 625 626 627 628 629 0
-619 -620 0
-619 -621 0
-619 -622 0
-619 -623 0
-619 -624 0
-619 -625 0
-619 -626 0
-619 -627 0
-619 -628 0
-619 -629 0
-620 -621 0
-620 -622 0
-620 -623 0
-620 -624 0
-620 -625 0
-620 -626 0
-620 -627 0
-620 -628 0
-620 -629 0
-621 -622 0
-621 -623 0
-621 -624 0
-621 -625 0
-621 -626 0
-621 -627 0
-621 -628 0
-621 -629 0
-622 -623 0
-622 -624 0
-622 -625 0
-622 -626 0
-622 -627 0
-622 -628 0
-622 -629 0
-623 -624 0
-623 -625 0
-623 -626 0
-623 -627 0
-623 -628 0
-623 -629 0
-624 -625 0
-624 -626 0
-624 -627 0
-624 -628 0
-624 -629 0
-625 -626 0
-625 -627 0
-625 -628 0
-625 -629 0
-626 -627 0
-626 -628 0
-626 -629 0
-627 -628 0
-627 -629 0
-628 -629 0
-66 619 0
-67 619 620 0
-68 619 620 621 0
-69 620 621 622 0
-70 621 622 623 0
-71 622 623 624 0
-72 623 624 625 0
-73 624 625 626 0
-74 625 626 627 0
-75 626 627 628 0
-76 627 628 629 0
-77 628 629 0
-78 629 0
-144 619 0
-145 619 620 0
-146 619 620 621 0
-147 620 621 622 0
-148 621 622 623 0
-149 622 623 624 0
-150 623 624 625 0
-151 624 625 626 0
-152 625 626 627 0
-153 626 627 628 0
-154 627 628 629 0
-155 628 629 0
-156 629 0
-300 619 0
-301 619 620 0
-302 619 620 621 0
-303 620 621 622 0
-304 621 622 623 0
-305 622 623 624 0
-306 623 624 625 0
-307 624 625 626 0
-308 625 626 627 0
-309 626 627 628 0
-310 627 628 629 0
-311 628 629 0
-312 629 0
-619 -69 0
-619 -70 0
-619 -71 0
-619 -72 0
-619 -73 0
-619 -74 0
-619 -75 0
-619 -76 0
-619 -77 0
-619 -78 0
-619 -147 0
-619 -148 0
-619 -149 0
-619 -150 0
-619 -151 0
-619 -152 0
-619 -153 0
-619 -154 0
-619 -155 0
-619 -156 0
-619 -303 0
-619 -304 0
-619 -305 0
-619 -306 0
-619 -307 0
-619 -308 0
-619 -309 0
-619 -310 0
-619 -311 0
-619 -312 0
-620 -66 0
-620 -70 0
-620 -71 0
-620 -72 0
-620 -73 0
-620 -74 0
-620 -75 0
-620 -76 0
-620 -77 0
-620 -78 0
-620 -144 0
-620 -148 0
-620 -149 0
-620 -150 0
-620 -151 0
-620 -152 0
-620 -153 0
-620 -154 0
-620 -155 0
-620 -156 0
-620 -300 0
-620 -304 0
-620 -305 0
-620 -306 0
-620 -307 0
-620 -308 0
-620 -309 0
-620 -310 0
-620 -311 0
-620 -312 0
-621 -66 0
-621 -67 0
-621 -71 0
-621 -72 0
-621 -73 0
-621 -74 0
-621 -75 0
-621 -76 0
-621 -77 0
-621 -78 0
-621 -144 0
-621 -145 0
-621 -149 0
-621 -150 0
-621 -151 0
-621 -152 0
-621 -153 0
-621 -154 0
-621 -155 0
-621 -156 0
-621 -300 0
-621 -301 0
-621 -305 0
-621 -306 0
-621 -307 0
-621 -308 0
-621 -309 0
-621 -310 0
-621 -311 0
-621 -312 0
-622 -66 0
-622 -67 0
-622 -68 0
-622 -72 0
-622 -73 0
-622 -74 0
-622 -75 0
-622 -76 0
-622 -77 0
-622 -78 0
-622 -144 0
-622 -145 0
-622 -146 0
-622 -150 0
-622 -151 0
-622 -152 0
-622 -153 0
-622 -154 0
-622 -155 0
-622 -156 0
-622 -300 0
-622 -301 0
-622 -302 0
-622 -306 0
-622 -307 0
-622 -308 0
-622 -309 0
-622 -310 0
-622 -311 0
-622 -312 0
-623 -66 0
-623 -67 0
-623 -68 0
-623 -69 0
-623 -73 0
-623 -74 0
-623 -75 0
-623 -76 0
-623 -77 0
-623 -78 0
-623 -144 0
-623 -145 0
-623 -146 0
-623 -147 0
-623 -151 0
-623 -152 0
-623 -153 0
-623 -154 0
-623 -155 0
-623 -156 0
-623 -300 0
-623 -301 0
-623 -302 0
-623 -303 0
-623 -307 0
-623 -308 0
-623 -309 0
-623 -310 0
-623 -311 0
-623 -312 0
-624 -66 0
-624 -67 0
-624 -68 0
-624 -69 0
-624 -70 0
-624 -74 0
-624 -75 0
-624 -76 0
-624 -77 0
-624 -78 0
-624 -144 0
-624 -145 0
-624 -146 0
-624 -147 0
-624 -148 0
-624 -152 0
-624 -153 0
-624 -154 0
-624 -155 0
-624 -156 0
-624 -300 0
-624 -301 0
-624 -302 0
-624 -303 0
-624 -304 0
-624 -308 0
-624 -309 0
-624 -310 0
-624 -311 0
-624 -312 0
-625 -66 0
-625 -67 0
-625 -68 0
-625 -69 0
-625 -70 0
-625 -71 0
-625 -75 0
-625 -76 0
-625 -77 0
-625 -78 0
-625 -144 0
-625 -145 0
-625 -146 0
-625 -147 0
-625 -148 0
-625 -149 0
-625 -153 0
-625 -154 0
-625 -155 0
-625 -156 0
-625 -300 0
-625 -301 0
-625 -302 0
-625 -303 0
-625 -304 0
-625 -305 0
-625 -309 0
-625 -310 0
-625 -311 0
-625 -312 0
-626 -66 0
-626 -67 0
-626 -68 0
-626 -69 0
-626 -70 0
-626 -71 0
-626 -72 0
-626 -76 0
-626 -77 0
-626 -78 0
-626 -144 0
-626 -145 0
-626 -146 0
-626 -147 0
-626 -148 0
-626 -149 0
-626 -150 0
-626 -154 0
-626 -155 0
-626 -156 0
-626 -300 0
-626 -301 0
-626 -302 0
-626 -303 0
-626 -304 0
-626 -305 0
-626 -306 0
-626 -310 0
-626 -311 0
-626 -312 0
-627 -66 0
-627 -67 0
-627 -68 0
-627 -69 0
-627 -70 0
-627 -71 0
-627 -72 0
-627 -73 0
-627 -77 0
-627 -78 0
-627 -144 0
-627 -145 0
-627 -146 0
-627 -147 0
-627 -148 0
-627 -149 0
-627 -150 0
-627 -151 0
-627 -155 0
-627 -156 0
-627 -300 0
-627 -301 0
-627 -302 0
-627 -303 0
-627 -304 0
-627 -305 0
-627 -306 0
-627 -307 0
-627 -311 0
-627 -312 0
-628 -66 0
-628 -67 0
-628 -68 0
-628 -69 0
-628 -70 0
-628 -71 0
-628 -72 0
-628 -73 0
-628 -74 0
-628 -78 0
-628 -144 0
-628 -145 0
-628 -146 0
-628 -147 0
-628 -148 0
-628 -149 0
-628 -150 0
-628 -151 0
-628 -152 0
-628 -156 0
-628 -300 0
-628 -301 0
-628 -302 0
-628 -303 0
-628 -304 0
-628 -305 0
-628 -306 0
-628 -307 0
-628 -308 0
-628 -312 0
-629 -66 0
-629 -67 0
-629 -68 0
-629 -69 0
-629 -70 0
-629 -71 0
-629 -72 0
-629 -73 0
-629 -74 0
-629 -75 0
-629 -144 0
-629 -145 0
-629 -146 0
-629 -147 0
-629 -148 0
-629 -149 0
-629 -150 0
-629 -151 0
-629 -152 0
-629 -153 0
-629 -300 0
-629 -301 0
-629 -302 0
-629 -303 0
-629 -304 0
-629 -305 0
-629 -306 0
-629 -307 0
-629 -308 0
-629 -309 0
-105 -183 0
-105 -339 0
-183 -339 0
-106 -184 0
-106 -340 0
-184 -340 0
-107 -185 0
-107 -341 0
-185 -341 0
-108 -186 0
-108 -342 0
-186 -342 0
-109 -187 0
-109 -343 0
-187 -343 0
-110 -188 0
-110 -344 0
-188 -344 0
-111 -189 0
-111 -345 0
-189 -345 0
-112 -190 0
-112 -346 0
-190 -346 0
-113 -191 0
-113 -347 0
-191 -347 0
-114 -192 0
-114 -348 0
-192 -348 0
-115 -193 0
-115 -349 0
-193 -349 0
-116 -194 0
-116 -350 0
-194 -350 0
-117 -195 0
-117 -351 0
-195 -351 0
630 631 632 633 634 635 636 637 638 639 640 0
-630 -631 0
-630 -632 0
-630 -633 0
-630 -634 0
-630 -635 0
-630 -636 0
-630 -637 0
-630 -638 0
-630 -639 0
-630 -640 0
-631 -632 0
-631 -633 0
-631 -634 0
-631 -635 0
-631 -636 0
-631 -637 0
-631 -638 0
-631 -639 0
-631 -640 0
-632 -633 0
-632 -634 0
-632 -635 0
-632 -636 0
-632 -637 0
-632 -638 0
-632 -639 0
-632 -640 0
-633 -634 0
-633 -635 0
-633 -636 0
-633 -637 0
-633 -638 0
-633 -639 0
-633 -640 0
-634 -635 0
-634 -636 0
-634 -637 0
-634 -638 0
-634 -639 0
-634 -640 0
-635 -636 0
-635 -637 0
-635 -638 0
-635 -639 0
-635 -640 0
-636 -637 0
-636 -638 0
-636 -639 0
-636 -640 0
-637 -638 0
-637 -639 0
-637 -640 0
-638 -639 0
-638 -640 0
-639 -640 0
-105 630 0
-106 630 631 0
-107 630 631 632 0
-108 631 632 633 0
-109 632 633 634 0
-110 633 634 635 0
-111 634 635 636 0
-112 635 636 637 0
-113 636 637 638 0
-114 637 638 639 0
-115 638 639 640 0
-116 639 640 0
-117 640 0
-183 630 0
-184 630 631 0
-185 630 631 632 0
-186 631 632 633 0
-187 632 633 634 0
-188 633 634 635 0
-189 634 635 636 0
-190 635 636 637 0
-191 636 637 638 0
-192 637 638 639 0
-193 638 639 640 0
-194 639 640 0
-195 640 0
-339 630 0
-340 630 631 0
-341 630 631 632 0
-342 631 632 633 0
-343 632 633 634 0
-344 633 634 635 0
-345 634 635 636 0
-346 635 636 637 0
-347 636 637 638 0
-348 637 638 639 0
-349 638 639 640 0
-350 639 640 0
-351 640 0
-630 -108 0
-630 -109 0
-630 -110 0
-630 -111 0
-630 -112 0
-630 -113 0
-630 -114 0
-630 -115 0
-630 -116 0
-630 -117 0
-630 -186 0
-630 -187 0
-630 -188 0
-630 -189 0
-630 -190 0
-630 -191 0
-630 -192 0
-630 -193 0
-630 -194 0
-630 -195 0
-630 -342 0
-630 -343 0
-630 -344 0
-630 -345 0
-630 -346 0
-630 -347 0
-630 -348 0
-630 -349 0
-630 -350 0
-630 -351 0
-631 -105 0
-631 -109 0
-631 -110 0
-631 -111 0
-631 -112 0
-631 -113 0
-631 -114 0
-631 -115 0
-631 -116 0
-631 -117 0
-631 -183 0
-631 -187 0
-631 -188 0
-631 -189 0
-631 -190 0
-631 -191 0
-631 -192 0
-631 -193 0
-631 -194 0
-631 -195 0
-631 -339 0
-631 -343 0
-631 -344 0
-631 -345 0
-631 -346 0
-631 -347 0
-631 -348 0
-631 -349 0
-631 -350 0
-631 -351 0
-632 -105 0
-632 -106 0
-632 -110 0
-632 -111 0
-632 -112 0
-632 -113 0
-632 -114 0
-632 -115 0
-632 -116 0
-632 -117 0
-632 -183 0
-632 -184 0
-632 -188 0
-632 -189 0
-632 -190 0
-632 -191 0
-632 -192 0
-632 -193 0
-632 -194 0
-632 -195 0
-632 -339 0
-632 -340 0
-632 -344 0
-632 -345 0
-632 -346 0
-632 -347 0
-632 -348 0
-632 -349 0
-632 -350 0
-632 -351 0
-633 -105 0
-633 -106 0
-633 -107 0
-633 -111 0
-633 -112 0
-633 -113 0
-633 -114 0
-633 -115 0
-633 -116 0
-633 -117 0
-633 -183 0
-633 -184 0
-633 -185 0
-633 -189 0
-633 -190 0
-633 -191 0
-633 -192 0
-633 -193 0
-633 -194 0
-633 -195 0
-633 -339 0
-633 -340 0
-633 -341 0
-633 -345 0
-633 -346 0
-633 -347 0
-633 -348 0
-633 -349 0
-633 -350 0
-633 -351 0
-634 -105 0
-634 -106 0
-634 -107 0
-634 -108 0
-634 -112 0
-634 -113 0
-634 -114 0
-634 -115 0
-634 -116 0
-634 -117 0
-634 -183 0
-634 -184 0
-634 -185 0
-634 -186 0
-634 -190 0
-634 -191 0
-634 -192 0
-634 -193 0
-634 -194 0
-634 -195 0
-634 -339 0
-634 -340 0
-634 -341 0
-634 -342 0
-634 -346 0
-634 -347 0
-634 -348 0
-634 -349 0
-634 -350 0
-634 -351 0
-635 -105 0
-635 -106 0
-635 -107 0
-635 -108 0
-635 -109 0
-635 -113 0
-635 -114 0
-635 -115 0
-635 -116 0
-635 -117 0
-635 -183 0
-635 -184 0
-635 -185 0
-635 -186 0
-635 -187 0
-635 -191 0
-635 -192 0
-635 -193 0
-635 -194 0
-635 -195 0
-635 -339 0
-635 -340 0
-635 -341 0
-635 -342 0
-635 -343 0
-635 -347 0
-635 -348 0
-635 -349 0
-635 -350 0
-635 -351 0
-636 -105 0
-636 -106 0
-636 -107 0
-636 -108 0
-636 -109 0
-636 -110 0
-636 -114 0
-636 -115 0
-636 -116 0
-636 -117 0
-636 -183 0
-636 -184 0
-636 -185 0
-636 -186 0
-636 -187 0
-636 -188 0
-636 -192 0
-636 -193 0
-636 -194 0
-636 -195 0
-636 -339 0
-636 -340 0
-636 -341 0
-636 -342 0
-636 -343 0
-636 -344 0
-636 -348 0
-636 -349 0
-636 -350 0
-636 -351 0
-637 -105 0
-637 -106 0
-637 -107 0
-637 -108 0
-637 -109 0
-637 -110 0
-637 -111 0
-637 -115 0
-637 -116 0
-637 -117 0
-637 -183 0
-637 -184 0
-637 -185 0
-637 -186 0
-637 -187 0
-637 -188 0
-637 -189 0
-637 -193 0
-637 -194 0
-637 -195 0
-637 -339 0
-637 -340 0
-637 -341 0
-637 -342 0
-637 -343 0
-637 -344 0
-637 -345 0
-637 -349 0
-637 -350 0
-637 -351 0
-638 -105 0
-638 -106 0
-638 -107 0
-638 -108 0
-638 -109 0
-638 -110 0
-638 -111 0
-638 -112 0
-638 -116 0
-638 -117 0
-638 -183 0
-638 -184 0
-638 -185 0
-638 -186 0
-638 -187 0
-638 -188 0
-638 -189 0
-638 -190 0
-638 -194 0
-638 -195 0
-638 -339 0
-638 -340 0
-638 -341 0
-638 -342 0
-638 -343 0
-638 -344 0
-638 -345 0
-638 -346 0
-638 -350 0
-638 -351 0
-639 -105 0
-639 -106 0
-639 -107 0
-639 -108 0
-639 -109 0
-639 -110 0
-639 -111 0
-639 -112 0
-639 -113 0
-639 -117 0
-639 -183 0
-639 -184 0
-639 -185 0
-639 -186 0
-639 -187 0
-639 -188 0
-639 -189 0
-639 -190 0
-639 -191 0
-639 -195 0
-639 -339 0
-639 -340 0
-639 -341 0
-639 -342 0
-639 -343 0
-639 -344 0
-639 -345 0
-639 -346 0
-639 -347 0
-639 -351 0
-640 -105 0
-640 -106 0
-640 -107 0
-640 -108 0
-640 -109 0
-640 -110 0
-640 -111 0
-640 -112 0
-640 -113 0
-640 -114 0
-640 -183 0
-640 -184 0
-640 -185 0
-640 -186 0
-640 -187 0
-640 -188 0
-640 -189 0
-640 -190 0
-640 -191 0
-640 -192 0
-640 -339 0
-640 -340 0
-640 -341 0
-640 -342 0
-640 -343 0
-640 -344 0
-640 -345 0
-640 -346 0
-640 -347 0
-640 -348 0
1 14 27 40 53 66 79 92 105 118 131 144 157 170 183 196 209 222 235 248 261 274 287 300 313 326 339 352 365 378 391 404 417 430 0
2 15 28 41 54 67 80 93 106 119 132 145 158 171 184 197 210 223 236 249 262 275 288 301 314 327 340 353 366 379 392 405 418 431 0
3 16 29 42 55 68 81 94 107 120 133 146 159 172 185 198 211 224 237 250 263 276 289 302 315 328 341 354 367 380 393 406 419 432 0
4 17 30 43 56 69 82 95 108 121 134 147 160 173 186 199 212 225 238 251 264 277 290 303 316 329 342 355 368 381 394 407 420 433 0
5 18 31 44 57 70 83 96 109 122 135 148 161 174 187 200 213 226 239 252 265 278 291 304 317 330 343 356 369 382 395 408 421 434 0
6 19 32 45 58 71 84 97 110 123 136 149 162 175 188 201 214 227 240 253 266 279 292 305 318 331 344 357 370 383 396 409 422 435 0
7 20 33 46 59 72 85 98 111 124 137 150 163 176 189 202 215 228 241 254 267 280 293 306 319 332 345 358 371 384 397 410 423 436 0
8 21 34 47 60 73 86 99 112 125 138 151 164 177 190 203 216 229 242 255 268 281 294 307 320 333 346 359 372 385 398 411 424 437 0
9 22 35 48 61 74 87 100 113 126 139 152 165 178 191 204 217 230 243 256 269 282 295 308 321 334 347 360 373 386 399 412 425 438 0
10 23 36 49 62 75 88 101 114 127 140 153 166 179 192 205 218 231 244 257 270 283 296 309 322 335 348 361 374 387 400 413 426 439 0
11 24 37 50 63 76 89 102 115 128 141 154 167 180 193 206 219 232 245 258 271 284 297 310 323 336 349 362 375 388 401 414 427 440 0
12 25 38 51 64 77 90 103 116 129 142 155 168 181 194 207 220 233 246 259 272 285 298 311 324 337 350 363 376 389 402 415 428 441 0
13 26 39 52 65 78 91 104 117 130 143 156 169 182 195 208 221 234 247 260 273 286 299 312 325 338 351 364 377 390 403 416 429 442 0
