p cnf 534 8516
1 2 3 4 5 6 7 8 9 10 11 0
-1 -2 0
-1 -3 0
-1 -4 0
-1 -5 0
-1 -6 0
-1 -7 0
-1 -8 0
-1 -9 0
-1 -10 0
-1 -11 0
-2 -3 0
-2 -4 0
-2 -5 0
-2 -6 0
-2 -7 0
-2 -8 0
-2 -9 0
-2 -10 0
-2 -11 0
-3 -4 0
-3 -5 0
-3 -6 0
-3 -7 0
-3 -8 0
-3 -9 0
-3 -10 0
-3 -11 0
-4 -5 0
-4 -6 0
-4 -7 0
-4 -8 0
-4 -9 0
-4 -10 0
-4 -11 0
-5 -6 0
-5 -7 0
-5 -8 0
-5 -9 0
-5 -10 0
-5 -11 0
-6 -7 0
-6 -8 0
-6 -9 0
-6 -10 0
-6 -11 0
-7 -8 0
-7 -9 0
-7 -10 0
-7 -11 0
-8 -9 0
-8 -10 0
-8 -11 0
-9 -10 0
-9 -11 0
-10 -11 0
12 13 14 15 16 17 18 19 20 21 22 0
-12 -13 0
-12 -14 0
-12 -15 0
-12 -16 0
-12 -17 0
-12 -18 0
-12 -19 0
-12 -20 0
-12 -21 0
-12 -22 0
-13 -14 0
-13 -15 0
-13 -16 0
-13 -17 0
-13 -18 0
-13 -19 0
-13 -20 0
-13 -21 0
-13 -22 0
-14 -15 0
-14 -16 0
-14 -17 0
-14 -18 0
-14 -19 0
-14 -20 0
-14 -21 0
-14 -22 0
-15 -16 0
-15 -17 0
-15 -18 0
-15 -19 0
-15 -20 0
-15 -21 0
-15 -22 0
-16 -17 0
-16 -18 0
-16 -19 0
-16 -20 0
-16 -21 0
-16 -22 0
-17 -18 0
-17 -19 0
-17 -20 0
-17 -21 0
-17 -22 0
-18 -19 0
-18 -20 0
-18 -21 0
-18 -22 0
-19 -20 0
-19 -21 0
-19 -22 0
-20 -21 0
-20 -22 0
-21 -22 0
23 24 25 26 27 28 29 30 31 32 33 0
-23 -24 0
-23 -25 0
-23 -26 0
-23 -27 0
-23 -28 0
-23 -29 0
-23 -30 0
-23 -31 0
-23 -32 0
-23 -33 0
-24 -25 0
-24 -26 0
-24 -27 0
-24 -28 0
-24 -29 0
-24 -30 0
-24 -31 0
-24 -32 0
-24 -33 0
-25 -26 0
-25 -27 0
-25 -28 0
-25 -29 0
-25 -30 0
-25 -31 0
-25 -32 0
-25 -33 0
-26 -27 0
-26 -28 0
-26 -29 0
-26 -30 0
-26 -31 0
-26 -32 0
-26 -33 0
-27 -28 0
-27 -29 0
-27 -30 0
-27 -31 0
-27 -32 0
-27 -33 0
-28 -29 0
-28 -30 0
-28 -31 0
-28 -32 0
-28 -33 0
-29 -30 0
-29 -31 0
-29 -32 0
-29 -33 0
-30 -31 0
-30 -32 0
-30 -33 0
-31 -32 0
-31 -33 0
-32 -33 0
34 35 36 37 38 39 40 41 42 43 44 0
-34 -35 0
-34 -36 0
-34 -37 0
-34 -38 0
-34 -39 0
-34 -40 0
-34 -41 0
-34 -42 0
-34 -43 0
-34 -44 0
-35 -36 0
-35 -37 0
-35 -38 0
-35 -39 0
-35 -40 0
-35 -41 0
-35 -42 0
-35 -43 0
-35 -44 0
-36 -37 0
-36 -38 0
-36 -39 0
-36 -40 0
-36 -41 0
-36 -42 0
-36 -43 0
-36 -44 0
-37 -38 0
-37 -39 0
-37 -40 0
-37 -41 0
-37 -42 0
-37 -43 0
-37 -44 0
-38 -39 0
-38 -40 0
-38 -41 0
-38 -42 0
-38 -43 0
-38 -44 0
-39 -40 0
-39 -41 0
-39 -42 0
-39 -43 0
-39 -44 0
-40 -41 0
-40 -42 0
-40 -43 0
-40 -44 0
-41 -42 0
-41 -43 0
-41 -44 0
-42 -43 0
-42 -44 0
-43 -44 0
45 46 47 48 49 50 51 52 53 54 55 0
-45 -46 0
-45 -47 0
-45 -48 0
-45 -49 0
-45 -50 0
-45 -51 0
-45 -52 0
-45 -53 0
-45 -54 0
-45 -55 0
-46 -47 0
-46 -48 0
-46 -49 0
-46 -50 0
-46 -51 0
-46 -52 0
-46 -53 0
-46 -54 0
-46 -55 0
-47 -48 0
-47 -49 0
-47 -50 0
-47 -51 0
-47 -52 0
-47 -53 0
-47 -54 0
-47 -55 0
-48 -49 0
-48 -50 0
-48 -51 0
-48 -52 0
-48 -53 0
-48 -54 0
-48 -55 0
-49 -50 0
-49 -51 0
-49 -52 0
-49 -53 0
-49 -54 0
-49 -55 0
-50 -51 0
-50 -52 0
-50 -53 0
-50 -54 0
-50 -55 0
-51 -52 0
-51 -53 0
-51 -54 0
-51 -55 0
-52 -53 0
-52 -54 0
-52 -55 0
-53 -54 0
-53 -55 0
-54 -55 0
56 57 58 59 60 61 62 63 64 65 66 0
-56 -57 0
-56 -58 0
-56 -59 0
-56 -60 0
-56 -61 0
-56 -62 0
-56 -63 0
-56 -64 0
-56 -65 0
-56 -66 0
-57 -58 0
-57 -59 0
-57 -60 0
-57 -61 0
-57 -62 0
-57 -63 0
-57 -64 0
-57 -65 0
-57 -66 0
-58 -59 0
-58 -60 0
-58 -61 0
-58 -62 0
-58 -63 0
-58 -64 0
-58 -65 0
-58 -66 0
-59 -60 0
-59 -61 0
-59 -62 0
-59 -63 0
-59 -64 0
-59 -65 0
-59 -66 0
-60 -61 0
-60 -62 0
-60 -63 0
-60 -64 0
-60 -65 0
-60 -66 0
-61 -62 0
-61 -63 0
-61 -64 0
-61 -65 0
-61 -66 0
-62 -63 0
-62 -64 0
-62 -65 0
-62 -66 0
-63 -64 0
-63 -65 0
-63 -66 0
-64 -65 0
-64 -66 0
-65 -66 0
67 68 69 70 71 72 73 74 75 76 77 0
-67 -68 0
-67 -69 0
-67 -70 0
-67 -71 0
-67 -72 0
-67 -73 0
-67 -74 0
-67 -75 0
-67 -76 0
-67 -77 0
-68 -69 0
-68 -70 0
-68 -71 0
-68 -72 0
-68 -73 0
-68 -74 0
-68 -75 0
-68 -76 0
-68 -77 0
-69 -70 0
-69 -71 0
-69 -72 0
-69 -73 0
-69 -74 0
-69 -75 0
-69 -76 0
-69 -77 0
-70 -71 0
-70 -72 0
-70 -73 0
-70 -74 0
-70 -75 0
-70 -76 0
-70 -77 0
-71 -72 0
-71 -73 0
-71 -74 0
-71 -75 0
-71 -76 0
-71 -77 0
-72 -73 0
-72 -74 0
-72 -75 0
-72 -76 0
-72 -77 0
-73 -74 0
-73 -75 0
-73 -76 0
-73 -77 0
-74 -75 0
-74 -76 0
-74 -77 0
-75 -76 0
-75 -77 0
-76 -77 0
78 79 80 81 82 83 84 85 86 87 88 0
-78 -79 0
-78 -80 0
-78 -81 0
-78 -82 0
-78 -83 0
-78 -84 0
-78 -85 0
-78 -86 0
-78 -87 0
-78 -88 0
-79 -80 0
-79 -81 0
-79 -82 0
-79 -83 0
-79 -84 0
-79 -85 0
-79 -86 0
-79 -87 0
-79 -88 0
-80 -81 0
-80 -82 0
-80 -83 0
-80 -84 0
-80 -85 0
-80 -86 0
-80 -87 0
-80 -88 0
-81 -82 0
-81 -83 0
-81 -84 0
-81 -85 0
-81 -86 0
-81 -87 0
-81 -88 0
-82 -83 0
-82 -84 0
-82 -85 0
-82 -86 0
-82 -87 0
-82 -88 0
-83 -84 0
-83 -85 0
-83 -86 0
-83 -87 0
-83 -88 0
-84 -85 0
-84 -86 0
-84 -87 0
-84 -88 0
-85 -86 0
-85 -87 0
-85 -88 0
-86 -87 0
-86 -88 0
-87 -88 0
89 90 91 92 93 94 95 96 97 98 99 0
-89 -90 0
-89 -91 0
-89 -92 0
-89 -93 0
-89 -94 0
-89 -95 0
-89 -96 0
-89 -97 0
-89 -98 0
-89 -99 0
-90 -91 0
-90 -92 0
-90 -93 0
-90 -94 0
-90 -95 0
-90 -96 0
-90 -97 0
-90 -98 0
-90 -99 0
-91 -92 0
-91 -93 0
-91 -94 0
-91 -95 0
-91 -96 0
-91 -97 0
-91 -98 0
-91 -99 0
-92 -93 0
-92 -94 0
-92 -95 0
-92 -96 0
-92 -97 0
-92 -98 0
-92 -99 0
-93 -94 0
-93 -95 0
-93 -96 0
-93 -97 0
-93 -98 0
-93 -99 0
-94 -95 0
-94 -96 0
-94 -97 0
-94 -98 0
-94 -99 0
-95 -96 0
-95 -97 0
-95 -98 0
-95 -99 0
-96 -97 0
-96 -98 0
-96 -99 0
-97 -98 0
-97 -99 0
-98 -99 0
100 101 102 103 104 105 106 107 108 109 110 0
-100 -101 0
-100 -102 0
-100 -103 0
-100 -104 0
-100 -105 0
-100 -106 0
-100 -107 0
-100 -108 0
-100 -109 0
-100 -110 0
-101 -102 0
-101 -103 0
-101 -104 0
-101 -105 0
-101 -106 0
-101 -107 0
-101 -108 0
-101 -109 0
-101 -110 0
-102 -103 0
-102 -104 0
-102 -105 0
-102 -106 0
-102 -107 0
-102 -108 0
-102 -109 0
-102 -110 0
-103 -104 0
-103 -105 0
-103 -106 0
-103 -107 0
-103 -108 0
-103 -109 0
-103 -110 0
-104 -105 0
-104 -106 0
-104 -107 0
-104 -108 0
-104 -109 0
-104 -110 0
-105 -106 0
-105 -107 0
-105 -108 0
-105 -109 0
-105 -110 0
-106 -107 0
-106 -108 0
-106 -109 0
-106 -110 0
-107 -108 0
-107 -109 0
-107 -110 0
-108 -109 0
-108 -110 0
-109 -110 0
111 112 113 114 115 116 117 118 119 120 121 0
-111 -112 0
-111 -113 0
-111 -114 0
-111 -115 0
-111 -116 0
-111 -117 0
-111 -118 0
-111 -119 0
-111 -120 0
-111 -121 0
-112 -113 0
-112 -114 0
-112 -115 0
-112 -116 0
-112 -117 0
-112 -118 0
-112 -119 0
-112 -120 0
-112 -121 0
-113 -114 0
-113 -115 0
-113 -116 0
-113 -117 0
-113 -118 0
-113 -119 0
-113 -120 0
-113 -121 0
-114 -115 0
-114 -116 0
-114 -117 0
-114 -118 0
-114 -119 0
-114 -120 0
-114 -121 0
-115 -116 0
-115 -117 0
-115 -118 0
-115 -119 0
-115 -120 0
-115 -121 0
-116 -117 0
-116 -118 0
-116 -119 0
-116 -120 0
-116 -121 0
-117 -118 0
-117 -119 0
-117 -120 0
-117 -121 0
-118 -119 0
-118 -120 0
-118 -121 0
-119 -120 0
-119 -121 0
-120 -121 0
122 123 124 125 126 127 128 129 130 131 132 0
-122 -123 0
-122 -124 0
-122 -125 0
-122 -126 0
-122 -127 0
-122 -128 0
-122 -129 0
-122 -130 0
-122 -131 0
-122 -132 0
-123 -124 0
-123 -125 0
-123 -126 0
-123 -127 0
-123 -128 0
-123 -129 0
-123 -130 0
-123 -131 0
-123 -132 0
-124 -125 0
-124 -126 0
-124 -127 0
-124 -128 0
-124 -129 0
-124 -130 0
-124 -131 0
-124 -132 0
-125 -126 0
-125 -127 0
-125 -128 0
-125 -129 0
-125 -130 0
-125 -131 0
-125 -132 0
-126 -127 0
-126 -128 0
-126 -129 0
-126 -130 0
-126 -131 0
-126 -132 0
-127 -128 0
-127 -129 0
-127 -130 0
-127 -131 0
-127 -132 0
-128 -129 0
-128 -130 0
-128 -131 0
-128 -132 0
-129 -130 0
-129 -131 0
-129 -132 0
-130 -131 0
-130 -132 0
-131 -132 0
133 134 135 136 137 138 139 140 141 142 143 0
-133 -134 0
-133 -135 0
-133 -136 0
-133 -137 0
-133 -138 0
-133 -139 0
-133 -140 0
-133 -141 0
-133 -142 0
-133 -143 0
-134 -135 0
-134 -136 0
-134 -137 0
-134 -138 0
-134 -139 0
-134 -140 0
-134 -141 0
-134 -142 0
-134 -143 0
-135 -136 0
-135 -137 0
-135 -138 0
-135 -139 0
-135 -140 0
-135 -141 0
-135 -142 0
-135 -143 0
-136 -137 0
-136 -138 0
-136 -139 0
-136 -140 0
-136 -141 0
-136 -142 0
-136 -143 0
-137 -138 0
-137 -139 0
-137 -140 0
-137 -141 0
-137 -142 0
-137 -143 0
-138 -139 0
-138 -140 0
-138 -141 0
-138 -142 0
-138 -143 0
-139 -140 0
-139 -141 0
-139 -142 0
-139 -143 0
-140 -141 0
-140 -142 0
-140 -143 0
-141 -142 0
-141 -143 0
-142 -143 0
144 145 146 147 148 149 150 151 152 153 154 0
-144 -145 0
-144 -146 0
-144 -147 0
-144 -148 0
-144 -149 0
-144 -150 0
-144 -151 0
-144 -152 0
-144 -153 0
-144 -154 0
-145 -146 0
-145 -147 0
-145 -148 0
-145 -149 0
-145 -150 0
-145 -151 0
-145 -152 0
-145 -153 0
-145 -154 0
-146 -147 0
-146 -148 0
-146 -149 0
-146 -150 0
-146 -151 0
-146 -152 0
-146 -153 0
-146 -154 0
-147 -148 0
-147 -149 0
-147 -150 0
-147 -151 0
-147 -152 0
-147 -153 0
-147 -154 0
-148 -149 0
-148 -150 0
-148 -151 0
-148 -152 0
-148 -153 0
-148 -154 0
-149 -150 0
-149 -151 0
-149 -152 0
-149 -153 0
-149 -154 0
-150 -151 0
-150 -152 0
-150 -153 0
-150 -154 0
-151 -152 0
-151 -153 0
-151 -154 0
-152 -153 0
-152 -154 0
-153 -154 0
155 156 157 158 159 160 161 162 163 164 165 0
-155 -156 0
-155 -157 0
-155 -158 0
-155 -159 0
-155 -160 0
-155 -161 0
-155 -162 0
-155 -163 0
-155 -164 0
-155 -165 0
-156 -157 0
-156 -158 0
-156 -159 0
-156 -160 0
-156 -161 0
-156 -162 0
-156 -163 0
-156 -164 0
-156 -165 0
-157 -158 0
-157 -159 0
-157 -160 0
-157 -161 0
-157 -162 0
-157 -163 0
-157 -164 0
-157 -165 0
-158 -159 0
-158 -160 0
-158 -161 0
-158 -162 0
-158 -163 0
-158 -164 0
-158 -165 0
-159 -160 0
-159 -161 0
-159 -162 0
-159 -163 0
-159 -164 0
-159 -165 0
-160 -161 0
-160 -162 0
-160 -163 0
-160 -164 0
-160 -165 0
-161 -162 0
-161 -163 0
-161 -164 0
-161 -165 0
-162 -163 0
-162 -164 0
-162 -165 0
-163 -164 0
-163 -165 0
-164 -165 0
166 167 168 169 170 171 172 173 174 175 176 0
-166 -167 0
-166 -168 0
-166 -169 0
-166 -170 0
-166 -171 0
-166 -172 0
-166 -173 0
-166 -174 0
-166 -175 0
-166 -176 0
-167 -168 0
-167 -169 0
-167 -170 0
-167 -171 0
-167 -172 0
-167 -173 0
-167 -174 0
-167 -175 0
-167 -176 0
-168 -169 0
-168 -170 0
-168 -171 0
-168 -172 0
-168 -173 0
-168 -174 0
-168 -175 0
-168 -176 0
-169 -170 0
-169 -171 0
-169 -172 0
-169 -173 0
-169 -174 0
-169 -175 0
-169 -176 0
-170 -171 0
-170 -172 0
-170 -173 0
-170 -174 0
-170 -175 0
-170 -176 0
-171 -172 0
-171 -173 0
-171 -174 0
-171 -175 0
-171 -176 0
-172 -173 0
-172 -174 0
-172 -175 0
-172 -176 0
-173 -174 0
-173 -175 0
-173 -176 0
-174 -175 0
-174 -176 0
-175 -176 0
177 178 179 180 181 182 183 184 185 186 187 0
-177 -178 0
-177 -179 0
-177 -180 0
-177 -181 0
-177 -182 0
-177 -183 0
-177 -184 0
-177 -185 0
-177 -186 0
-177 -187 0
-178 -179 0
-178 -180 0
-178 -181 0
-178 -182 0
-178 -183 0
-178 -184 0
-178 -185 0
-178 -186 0
-178 -187 0
-179 -180 0
-179 -181 0
-179 -182 0
-179 -183 0
-179 -184 0
-179 -185 0
-179 -186 0
-179 -187 0
-180 -181 0
-180 -182 0
-180 -183 0
-180 -184 0
-180 -185 0
-180 -186 0
-180 -187 0
-181 -182 0
-181 -183 0
-181 -184 0
-181 -185 0
-181 -186 0
-181 -187 0
-182 -183 0
-182 -184 0
-182 -185 0
-182 -186 0
-182 -187 0
-183 -184 0
-183 -185 0
-183 -186 0
-183 -187 0
-184 -185 0
-184 -186 0
-184 -187 0
-185 -186 0
-185 -187 0
-186 -187 0
188 189 190 191 192 193 194 195 196 197 198 0
-188 -189 0
-188 -190 0
-188 -191 0
-188 -192 0
-188 -193 0
-188 -194 0
-188 -195 0
-188 -196 0
-188 -197 0
-188 -198 0
-189 -190 0
-189 -191 0
-189 -192 0
-189 -193 0
-189 -194 0
-189 -195 0
-189 -196 0
-189 -197 0
-189 -198 0
-190 -191 0
-190 -192 0
-190 -193 0
-190 -194 0
-190 -195 0
-190 -196 0
-190 -197 0
-190 -198 0
-191 -192 0
-191 -193 0
-191 -194 0
-191 -195 0
-191 -196 0
-191 -197 0
-191 -198 0
-192 -193 0
-192 -194 0
-192 -195 0
-192 -196 0
-192 -197 0
-192 -198 0
-193 -194 0
-193 -195 0
-193 -196 0
-193 -197 0
-193 -198 0
-194 -195 0
-194 -196 0
-194 -197 0
-194 -198 0
-195 -196 0
-195 -197 0
-195 -198 0
-196 -197 0
-196 -198 0
-197 -198 0
199 200 201 202 203 204 205 206 207 208 209 0
-199 -200 0
-199 -201 0
-199 -202 0
-199 -203 0
-199 -204 0
-199 -205 0
-199 -206 0
-199 -207 0
-199 -208 0
-199 -209 0
-200 -201 0
-200 -202 0
-200 -203 0
-200 -204 0
-200 -205 0
-200 -206 0
-200 -207 0
-200 -208 0
-200 -209 0
-201 -202 0
-201 -203 0
-201 -204 0
-201 -205 0
-201 -206 0
-201 -207 0
-201 -208 0
-201 -209 0
-202 -203 0
-202 -204 0
-202 -205 0
-202 -206 0
-202 -207 0
-202 -208 0
-202 -209 0
-203 -204 0
-203 -205 0
-203 -206 0
-203 -207 0
-203 -208 0
-203 -209 0
-204 -205 0
-204 -206 0
-204 -207 0
-204 -208 0
-204 -209 0
-205 -206 0
-205 -207 0
-205 -208 0
-205 -209 0
-206 -207 0
-206 -208 0
-206 -209 0
-207 -208 0
-207 -209 0
-208 -209 0
210 211 212 213 214 215 216 217 218 219 220 0
-210 -211 0
-210 -212 0
-210 -213 0
-210 -214 0
-210 -215 0
-210 -216 0
-210 -217 0
-210 -218 0
-210 -219 0
-210 -220 0
-211 -212 0
-211 -213 0
-211 -214 0
-211 -215 0
-211 -216 0
-211 -217 0
-211 -218 0
-211 -219 0
-211 -220 0
-212 -213 0
-212 -214 0
-212 -215 0
-212 -216 0
-212 -217 0
-212 -218 0
-212 -219 0
-212 -220 0
-213 -214 0
-213 -215 0
-213 -216 0
-213 -217 0
-213 -218 0
-213 -219 0
-213 -220 0
-214 -215 0
-214 -216 0
-214 -217 0
-214 -218 0
-214 -219 0
-214 -220 0
-215 -216 0
-215 -217 0
-215 -218 0
-215 -219 0
-215 -220 0
-216 -217 0
-216 -218 0
-216 -219 0
-216 -220 0
-217 -218 0
-217 -219 0
-217 -220 0
-218 -219 0
-218 -220 0
-219 -220 0
221 222 223 224 225 226 227 228 229 230 231 0
-221 -222 0
-221 -223 0
-221 -224 0
-221 -225 0
-221 -226 0
-221 -227 0
-221 -228 0
-221 -229 0
-221 -230 0
-221 -231 0
-222 -223 0
-222 -224 0
-222 -225 0
-222 -226 0
-222 -227 0
-222 -228 0
-222 -229 0
-222 -230 0
-222 -231 0
-223 -224 0
-223 -225 0
-223 -226 0
-223 -227 0
-223 -228 0
-223 -229 0
-223 -230 0
-223 -231 0
-224 -225 0
-224 -226 0
-224 -227 0
-224 -228 0
-224 -229 0
-224 -230 0
-224 -231 0
-225 -226 0
-225 -227 0
-225 -228 0
-225 -229 0
-225 -230 0
-225 -231 0
-226 -227 0
-226 -228 0
-226 -229 0
-226 -230 0
-226 -231 0
-227 -228 0
-227 -229 0
-227 -230 0
-227 -231 0
-228 -229 0
-228 -230 0
-228 -231 0
-229 -230 0
-229 -231 0
-230 -231 0
232 233 234 235 236 237 238 239 240 241 242 0
-232 -233 0
-232 -234 0
-232 -235 0
-232 -236 0
-232 -237 0
-232 -238 0
-232 -239 0
-232 -240 0
-232 -241 0
-232 -242 0
-233 -234 0
-233 -235 0
-233 -236 0
-233 -237 0
-233 -238 0
-233 -239 0
-233 -240 0
-233 -241 0
-233 -242 0
-234 -235 0
-234 -236 0
-234 -237 0
-234 -238 0
-234 -239 0
-234 -240 0
-234 -241 0
-234 -242 0
-235 -236 0
-235 -237 0
-235 -238 0
-235 -239 0
-235 -240 0
-235 -241 0
-235 -242 0
-236 -237 0
-236 -238 0
-236 -239 0
-236 -240 0
-236 -241 0
-236 -242 0
-237 -238 0
-237 -239 0
-237 -240 0
-237 -241 0
-237 -242 0
-238 -239 0
-238 -240 0
-238 -241 0
-238 -242 0
-239 -240 0
-239 -241 0
-239 -242 0
-240 -241 0
-240 -242 0
-241 -242 0
243 244 245 246 247 248 249 250 251 252 253 0
-243 -244 0
-243 -245 0
-243 -246 0
-243 -247 0
-243 -248 0
-243 -249 0
-243 -250 0
-243 -251 0
-243 -252 0
-243 -253 0
-244 -245 0
-244 -246 0
-244 -247 0
-244 -248 0
-244 -249 0
-244 -250 0
-244 -251 0
-244 -252 0
-244 -253 0
-245 -246 0
-245 -247 0
-245 -248 0
-245 -249 0
-245 -250 0
-245 -251 0
-245 -252 0
-245 -253 0
-246 -247 0
-246 -248 0
-246 -249 0
-246 -250 0
-246 -251 0
-246 -252 0
-246 -253 0
-247 -248 0
-247 -249 0
-247 -250 0
-247 -251 0
-247 -252 0
-247 -253 0
-248 -249 0
-248 -250 0
-248 -251 0
-248 -252 0
-248 -253 0
-249 -250 0
-249 -251 0
-249 -252 0
-249 -253 0
-250 -251 0
-250 -252 0
-250 -253 0
-251 -252 0
-251 -253 0
-252 -253 0
254 255 256 257 258 259 260 261 262 263 264 0
-254 -255 0
-254 -256 0
-254 -257 0
-254 -258 0
-254 -259 0
-254 -260 0
-254 -261 0
-254 -262 0
-254 -263 0
-254 -264 0
-255 -256 0
-255 -257 0
-255 -258 0
-255 -259 0
-255 -260 0
-255 -261 0
-255 -262 0
-255 -263 0
-255 -264 0
-256 -257 0
-256 -258 0
-256 -259 0
-256 -260 0
-256 -261 0
-256 -262 0
-256 -263 0
-256 -264 0
-257 -258 0
-257 -259 0
-257 -260 0
-257 -261 0
-257 -262 0
-257 -263 0
-257 -264 0
-258 -259 0
-258 -260 0
-258 -261 0
-258 -262 0
-258 -263 0
-258 -264 0
-259 -260 0
-259 -261 0
-259 -262 0
-259 -263 0
-259 -264 0
-260 -261 0
-260 -262 0
-260 -263 0
-260 -264 0
-261 -262 0
-261 -263 0
-261 -264 0
-262 -263 0
-262 -264 0
-263 -264 0
265 266 267 268 269 270 271 272 273 274 275 0
-265 -266 0
-265 -267 0
-265 -268 0
-265 -269 0
-265 -270 0
-265 -271 0
-265 -272 0
-265 -273 0
-265 -274 0
-265 -275 0
-266 -267 0
-266 -268 0
-266 -269 0
-266 -270 0
-266 -271 0
-266 -272 0
-266 -273 0
-266 -274 0
-266 -275 0
-267 -268 0
-267 -269 0
-267 -270 0
-267 -271 0
-267 -272 0
-267 -273 0
-267 -274 0
-267 -275 0
-268 -269 0
-268 -270 0
-268 -271 0
-268 -272 0
-268 -273 0
-268 -274 0
-268 -275 0
-269 -270 0
-269 -271 0
-269 -272 0
-269 -273 0
-269 -274 0
-269 -275 0
-270 -271 0
-270 -272 0
-270 -273 0
-270 -274 0
-270 -275 0
-271 -272 0
-271 -273 0
-271 -274 0
-271 -275 0
-272 -273 0
-272 -274 0
-272 -275 0
-273 -274 0
-273 -275 0
-274 -275 0
276 277 278 279 280 281 282 283 284 285 286 0
-276 -277 0
-276 -278 0
-276 -279 0
-276 -280 0
-276 -281 0
-276 -282 0
-276 -283 0
-276 -284 0
-276 -285 0
-276 -286 0
-277 -278 0
-277 -279 0
-277 -280 0
-277 -281 0
-277 -282 0
-277 -283 0
-277 -284 0
-277 -285 0
-277 -286 0
-278 -279 0
-278 -280 0
-278 -281 0
-278 -282 0
-278 -283 0
-278 -284 0
-278 -285 0
-278 -286 0
-279 -280 0
-279 -281 0
-279 -282 0
-279 -283 0
-279 -284 0
-279 -285 0
-279 -286 0
-280 -281 0
-280 -282 0
-280 -283 0
-280 -284 0
-280 -285 0
-280 -286 0
-281 -282 0
-281 -283 0
-281 -284 0
-281 -285 0
-281 -286 0
-282 -283 0
-282 -284 0
-282 -285 0
-282 -286 0
-283 -284 0
-283 -285 0
-283 -286 0
-284 -285 0
-284 -286 0
-285 -286 0
287 288 289 290 291 292 293 294 295 296 297 0
-287 -288 0
-287 -289 0
-287 -290 0
-287 -291 0
-287 -292 0
-287 -293 0
-287 -294 0
-287 -295 0
-287 -296 0
-287 -297 0
-288 -289 0
-288 -290 0
-288 -291 0
-288 -292 0
-288 -293 0
-288 -294 0
-288 -295 0
-288 -296 0
-288 -297 0
-289 -290 0
-289 -291 0
-289 -292 0
-289 -293 0
-289 -294 0
-289 -295 0
-289 -296 0
-289 -297 0
-290 -291 0
-290 -292 0
-290 -293 0
-290 -294 0
-290 -295 0
-290 -296 0
-290 -297 0
-291 -292 0
-291 -293 0
-291 -294 0
-291 -295 0
-291 -296 0
-291 -297 0
-292 -293 0
-292 -294 0
-292 -295 0
-292 -296 0
-292 -297 0
-293 -294 0
-293 -295 0
-293 -296 0
-293 -297 0
-294 -295 0
-294 -296 0
-294 -297 0
-295 -296 0
-295 -297 0
-296 -297 0
298 299 300 301 302 303 304 305 306 307 308 0
-298 -299 0
-298 -300 0
-298 -301 0
-298 -302 0
-298 -303 0
-298 -304 0
-298 -305 0
-298 -306 0
-298 -307 0
-298 -308 0
-299 -300 0
-299 -301 0
-299 -302 0
-299 -303 0
-299 -304 0
-299 -305 0
-299 -306 0
-299 -307 0
-299 -308 0
-300 -301 0
-300 -302 0
-300 -303 0
-300 -304 0
-300 -305 0
-300 -306 0
-300 -307 0
-300 -308 0
-301 -302 0
-301 -303 0
-301 -304 0
-301 -305 0
-301 -306 0
-301 -307 0
-301 -308 0
-302 -303 0
-302 -304 0
-302 -305 0
-302 -306 0
-302 -307 0
-302 -308 0
-303 -304 0
-303 -305 0
-303 -306 0
-303 -307 0
-303 -308 0
-304 -305 0
-304 -306 0
-304 -307 0
-304 -308 0
-305 -306 0
-305 -307 0
-305 -308 0
-306 -307 0
-306 -308 0
-307 -308 0
309 310 311 312 313 314 315 316 317 318 319 0
-309 -310 0
-309 -311 0
-309 -312 0
-309 -313 0
-309 -314 0
-309 -315 0
-309 -316 0
-309 -317 0
-309 -318 0
-309 -319 0
-310 -311 0
-310 -312 0
-310 -313 0
-310 -314 0
-310 -315 0
-310 -316 0
-310 -317 0
-310 -318 0
-310 -319 0
-311 -312 0
-311 -313 0
-311 -314 0
-311 -315 0
-311 -316 0
-311 -317 0
-311 -318 0
-311 -319 0
-312 -313 0
-312 -314 0
-312 -315 0
-312 -316 0
-312 -317 0
-312 -318 0
-312 -319 0
-313 -314 0
-313 -315 0
-313 -316 0
-313 -317 0
-313 -318 0
-313 -319 0
-314 -315 0
-314 -316 0
-314 -317 0
-314 -318 0
-314 -319 0
-315 -316 0
-315 -317 0
-315 -318 0
-315 -319 0
-316 -317 0
-316 -318 0
-316 -319 0
-317 -318 0
-317 -319 0
-318 -319 0
320 321 322 323 324 325 326 327 328 329 330 0
-320 -321 0
-320 -322 0
-320 -323 0
-320 -324 0
-320 -325 0
-320 -326 0
-320 -327 0
-320 -328 0
-320 -329 0
-320 -330 0
-321 -322 0
-321 -323 0
-321 -324 0
-321 -325 0
-321 -326 0
-321 -327 0
-321 -328 0
-321 -329 0
-321 -330 0
-322 -323 0
-322 -324 0
-322 -325 0
-322 -326 0
-322 -327 0
-322 -328 0
-322 -329 0
-322 -330 0
-323 -324 0
-323 -325 0
-323 -326 0
-323 -327 0
-323 -328 0
-323 -329 0
-323 -330 0
-324 -325 0
-324 -326 0
-324 -327 0
-324 -328 0
-324 -329 0
-324 -330 0
-325 -326 0
-325 -327 0
-325 -328 0
-325 -329 0
-325 -330 0
-326 -327 0
-326 -328 0
-326 -329 0
-326 -330 0
-327 -328 0
-327 -329 0
-327 -330 0
-328 -329 0
-328 -330 0
-329 -330 0
331 332 333 334 335 336 337 338 339 340 341 0
-331 -332 0
-331 -333 0
-331 -334 0
-331 -335 0
-331 -336 0
-331 -337 0
-331 -338 0
-331 -339 0
-331 -340 0
-331 -341 0
-332 -333 0
-332 -334 0
-332 -335 0
-332 -336 0
-332 -337 0
-332 -338 0
-332 -339 0
-332 -340 0
-332 -341 0
-333 -334 0
-333 -335 0
-333 -336 0
-333 -337 0
-333 -338 0
-333 -339 0
-333 -340 0
-333 -341 0
-334 -335 0
-334 -336 0
-334 -337 0
-334 -338 0
-334 -339 0
-334 -340 0
-334 -341 0
-335 -336 0
-335 -337 0
-335 -338 0
-335 -339 0
-335 -340 0
-335 -341 0
-336 -337 0
-336 -338 0
-336 -339 0
-336 -340 0
-336 -341 0
-337 -338 0
-337 -339 0
-337 -340 0
-337 -341 0
-338 -339 0
-338 -340 0
-338 -341 0
-339 -340 0
-339 -341 0
-340 -341 0
342 343 344 345 346 347 348 349 350 351 352 0
-342 -343 0
-342 -344 0
-342 -345 0
-342 -346 0
-342 -347 0
-342 -348 0
-342 -349 0
-342 -350 0
-342 -351 0
-342 -352 0
-343 -344 0
-343 -345 0
-343 -346 0
-343 -347 0
-343 -348 0
-343 -349 0
-343 -350 0
-343 -351 0
-343 -352 0
-344 -345 0
-344 -346 0
-344 -347 0
-344 -348 0
-344 -349 0
-344 -350 0
-344 -351 0
-344 -352 0
-345 -346 0
-345 -347 0
-345 -348 0
-345 -349 0
-345 -350 0
-345 -351 0
-345 -352 0
-346 -347 0
-346 -348 0
-346 -349 0
-346 -350 0
-346 -351 0
-346 -352 0
-347 -348 0
-347 -349 0
-347 -350 0
-347 -351 0
-347 -352 0
-348 -349 0
-348 -350 0
-348 -351 0
-348 -352 0
-349 -350 0
-349 -351 0
-349 -352 0
-350 -351 0
-350 -352 0
-351 -352 0
353 354 355 356 357 358 359 360 361 362 363 0
-353 -354 0
-353 -355 0
-353 -356 0
-353 -357 0
-353 -358 0
-353 -359 0
-353 -360 0
-353 -361 0
-353 -362 0
-353 -363 0
-354 -355 0
-354 -356 0
-354 -357 0
-354 -358 0
-354 -359 0
-354 -360 0
-354 -361 0
-354 -362 0
-354 -363 0
-355 -356 0
-355 -357 0
-355 -358 0
-355 -359 0
-355 -360 0
-355 -361 0
-355 -362 0
-355 -363 0
-356 -357 0
-356 -358 0
-356 -359 0
-356 -360 0
-356 -361 0
-356 -362 0
-356 -363 0
-357 -358 0
-357 -359 0
-357 -360 0
-357 -361 0
-357 -362 0
-357 -363 0
-358 -359 0
-358 -360 0
-358 -361 0
-358 -362 0
-358 -363 0
-359 -360 0
-359 -361 0
-359 -362 0
-359 -363 0
-360 -361 0
-360 -362 0
-360 -363 0
-361 -362 0
-361 -363 0
-362 -363 0
364 365 366 367 368 369 370 371 372 373 374 0
-364 -365 0
-364 -366 0
-364 -367 0
-364 -368 0
-364 -369 0
-364 -370 0
-364 -371 0
-364 -372 0
-364 -373 0
-364 -374 0
-365 -366 0
-365 -367 0
-365 -368 0
-365 -369 0
-365 -370 0
-365 -371 0
-365 -372 0
-365 -373 0
-365 -374 0
-366 -367 0
-366 -368 0
-366 -369 0
-366 -370 0
-366 -371 0
-366 -372 0
-366 -373 0
-366 -374 0
-367 -368 0
-367 -369 0
-367 -370 0
-367 -371 0
-367 -372 0
-367 -373 0
-367 -374 0
-368 -369 0
-368 -370 0
-368 -371 0
-368 -372 0
-368 -373 0
-368 -374 0
-369 -370 0
-369 -371 0
-369 -372 0
-369 -373 0
-369 -374 0
-370 -371 0
-370 -372 0
-370 -373 0
-370 -374 0
-371 -372 0
-371 -373 0
-371 -374 0
-372 -373 0
-372 -374 0
-373 -374 0
-1 -12 0
-1 -23 0
-1 -34 0
-12 -23 0
-12 -34 0
-23 -34 0
-2 -13 0
-2 -24 0
-2 -35 0
-13 -24 0
-13 -35 0
-24 -35 0
-3 -14 0
-3 -25 0
-3 -36 0
-14 -25 0
-14 -36 0
-25 -36 0
-4 -15 0
-4 -26 0
-4 -37 0
-15 -26 0
-15 -37 0
-26 -37 0
-5 -16 0
-5 -27 0
-5 -38 0
-16 -27 0
-16 -38 0
-27 -38 0
-6 -17 0
-6 -28 0
-6 -39 0
-17 -28 0
-17 -39 0
-28 -39 0
-7 -18 0
-7 -29 0
-7 -40 0
-18 -29 0
-18 -40 0
-29 -40 0
-8 -19 0
-8 -30 0
-8 -41 0
-19 -30 0
-19 -41 0
-30 -41 0
-9 -20 0
-9 -31 0
-9 -42 0
-20 -31 0
-20 -42 0
-31 -42 0
-10 -21 0
-10 -32 0
-10 -43 0
-21 -32 0
-21 -43 0
-32 -43 0
-11 -22 0
-11 -33 0
-11 -44 0
-22 -33 0
-22 -44 0
-33 -44 0
375 376 377 378 379 380 381 382 0
-375 -376 0
-375 -377 0
-375 -378 0
-375 -379 0
-375 -380 0
-375 -381 0
-375 -382 0
-376 -377 0
-376 -378 0
-376 -379 0
-376 -380 0
-376 -381 0
-376 -382 0
-377 -378 0
-377 -379 0
-377 -380 0
-377 -381 0
-377 -382 0
-378 -379 0
-378 -380 0
-378 -381 0
-378 -382 0
-379 -380 0
-379 -381 0
-379 -382 0
-380 -381 0
-380 -382 0
-381 -382 0
-1 375 0
-2 375 376 0
-3 375 376 377 0
-4 375 376 377 378 0
-5 376 377 378 379 0
-6 377 378 379 380 0
-7 378 379 380 381 0
-8 379 380 381 382 0
-9 380 381 382 0
-10 381 382 0
-11 382 0
-12 375 0
-13 375 376 0
-14 375 376 377 0
-15 375 376 377 378 0
-16 376 377 378 379 0
-17 377 378 379 380 0
-18 378 379 380 381 0
-19 379 380 381 382 0
-20 380 381 382 0
-21 381 382 0
-22 382 0
-23 375 0
-24 375 376 0
-25 375 376 377 0
-26 375 376 377 378 0
-27 376 377 378 379 0
-28 377 378 379 380 0
-29 378 379 380 381 0
-30 379 380 381 382 0
-31 380 381 382 0
-32 381 382 0
-33 382 0
-34 375 0
-35 375 376 0
-36 375 376 377 0
-37 375 376 377 378 0
-38 376 377 378 379 0
-39 377 378 379 380 0
-40 378 379 380 381 0
-41 379 380 381 382 0
-42 380 381 382 0
-43 381 382 0
-44 382 0
-375 -5 0
-375 -6 0
-375 -7 0
-375 -8 0
-375 -9 0
-375 -10 0
-375 -11 0
-375 -16 0
-375 -17 0
-375 -18 0
-375 -19 0
-375 -20 0
-375 -21 0
-375 -22 0
-375 -27 0
-375 -28 0
-375 -29 0
-375 -30 0
-375 -31 0
-375 -32 0
-375 -33 0
-375 -38 0
-375 -39 0
-375 -40 0
-375 -41 0
-375 -42 0
-375 -43 0
-375 -44 0
-376 -1 0
-376 -6 0
-376 -7 0
-376 -8 0
-376 -9 0
-376 -10 0
-376 -11 0
-376 -12 0
-376 -17 0
-376 -18 0
-376 -19 0
-376 -20 0
-376 -21 0
-376 -22 0
-376 -23 0
-376 -28 0
-376 -29 0
-376 -30 0
-376 -31 0
-376 -32 0
-376 -33 0
-376 -34 0
-376 -39 0
-376 -40 0
-376 -41 0
-376 -42 0
-376 -43 0
-376 -44 0
-377 -1 0
-377 -2 0
-377 -7 0
-377 -8 0
-377 -9 0
-377 -10 0
-377 -11 0
-377 -12 0
-377 -13 0
-377 -18 0
-377 -19 0
-377 -20 0
-377 -21 0
-377 -22 0
-377 -23 0
-377 -24 0
-377 -29 0
-377 -30 0
-377 -31 0
-377 -32 0
-377 -33 0
-377 -34 0
-377 -35 0
-377 -40 0
-377 -41 0
-377 -42 0
-377 -43 0
-377 -44 0
-378 -1 0
-378 -2 0
-378 -3 0
-378 -8 0
-378 -9 0
-378 -10 0
-378 -11 0
-378 -12 0
-378 -13 0
-378 -14 0
-378 -19 0
-378 -20 0
-378 -21 0
-378 -22 0
-378 -23 0
-378 -24 0
-378 -25 0
-378 -30 0
-378 -31 0
-378 -32 0
-378 -33 0
-378 -34 0
-378 -35 0
-378 -36 0
-378 -41 0
-378 -42 0
-378 -43 0
-378 -44 0
-379 -1 0
-379 -2 0
-379 -3 0
-379 -4 0
-379 -9 0
-379 -10 0
-379 -11 0
-379 -12 0
-379 -13 0
-379 -14 0
-379 -15 0
-379 -20 0
-379 -21 0
-379 -22 0
-379 -23 0
-379 -24 0
-379 -25 0
-379 -26 0
-379 -31 0
-379 -32 0
-379 -33 0
-379 -34 0
-379 -35 0
-379 -36 0
-379 -37 0
-379 -42 0
-379 -43 0
-379 -44 0
-380 -1 0
-380 -2 0
-380 -3 0
-380 -4 0
-380 -5 0
-380 -10 0
-380 -11 0
-380 -12 0
-380 -13 0
-380 -14 0
-380 -15 0
-380 -16 0
-380 -21 0
-380 -22 0
-380 -23 0
-380 -24 0
-380 -25 0
-380 -26 0
-380 -27 0
-380 -32 0
-380 -33 0
-380 -34 0
-380 -35 0
-380 -36 0
-380 -37 0
-380 -38 0
-380 -43 0
-380 -44 0
-381 -1 0
-381 -2 0
-381 -3 0
-381 -4 0
-381 -5 0
-381 -6 0
-381 -11 0
-381 -12 0
-381 -13 0
-381 -14 0
-381 -15 0
-381 -16 0
-381 -17 0
-381 -22 0
-381 -23 0
-381 -24 0
-381 -25 0
-381 -26 0
-381 -27 0
-381 -28 0
-381 -33 0
-381 -34 0
-381 -35 0
-381 -36 0
-381 -37 0
-381 -38 0
-381 -39 0
-381 -44 0
-382 -1 0
-382 -2 0
-382 -3 0
-382 -4 0
-382 -5 0
-382 -6 0
-382 -7 0
-382 -12 0
-382 -13 0
-382 -14 0
-382 -15 0
-382 -16 0
-382 -17 0
-382 -18 0
-382 -23 0
-382 -24 0
-382 -25 0
-382 -26 0
-382 -27 0
-382 -28 0
-382 -29 0
-382 -34 0
-382 -35 0
-382 -36 0
-382 -37 0
-382 -38 0
-382 -39 0
-382 -40 0
-45 -56 0
-45 -67 0
-56 -67 0
-46 -57 0
-46 -68 0
-57 -68 0
-47 -58 0
-47 -69 0
-58 -69 0
-48 -59 0
-48 -70 0
-59 -70 0
-49 -60 0
-49 -71 0
-60 -71 0
-50 -61 0
-50 -72 0
-61 -72 0
-51 -62 0
-51 -73 0
-62 -73 0
-52 -63 0
-52 -74 0
-63 -74 0
-53 -64 0
-53 -75 0
-64 -75 0
-54 -65 0
-54 -76 0
-65 -76 0
-55 -66 0
-55 -77 0
-66 -77 0
383 384 385 386 387 388 389 390 391 0
-383 -384 0
-383 -385 0
-383 -386 0
-383 -387 0
-383 -388 0
-383 -389 0
-383 -390 0
-383 -391 0
-384 -385 0
-384 -386 0
-384 -387 0
-384 -388 0
-384 -389 0
-384 -390 0
-384 -391 0
-385 -386 0
-385 -387 0
-385 -388 0
-385 -389 0
-385 -390 0
-385 -391 0
-386 -387 0
-386 -388 0
-386 -389 0
-386 -390 0
-386 -391 0
-387 -388 0
-387 -389 0
-387 -390 0
-387 -391 0
-388 -389 0
-388 -390 0
-388 -391 0
-389 -390 0
-389 -391 0
-390 -391 0
-45 383 0
-46 383 384 0
-47 383 384 385 0
-48 384 385 386 0
-49 385 386 387 0
-50 386 387 388 0
-51 387 388 389 0
-52 388 389 390 0
-53 389 390 391 0
-54 390 391 0
-55 391 0
-56 383 0
-57 383 384 0
-58 383 384 385 0
-59 384 385 386 0
-60 385 386 387 0
-61 386 387 388 0
-62 387 388 389 0
-63 388 389 390 0
-64 389 390 391 0
-65 390 391 0
-66 391 0
-67 383 0
-68 383 384 0
-69 383 384 385 0
-70 384 385 386 0
-71 385 386 387 0
-72 386 387 388 0
-73 387 388 389 0
-74 388 389 390 0
-75 389 390 391 0
-76 390 391 0
-77 391 0
-383 -48 0
-383 -49 0
-383 -50 0
-383 -51 0
-383 -52 0
-383 -53 0
-383 -54 0
-383 -55 0
-383 -59 0
-383 -60 0
-383 -61 0
-383 -62 0
-383 -63 0
-383 -64 0
-383 -65 0
-383 -66 0
-383 -70 0
-383 -71 0
-383 -72 0
-383 -73 0
-383 -74 0
-383 -75 0
-383 -76 0
-383 -77 0
-384 -45 0
-384 -49 0
-384 -50 0
-384 -51 0
-384 -52 0
-384 -53 0
-384 -54 0
-384 -55 0
-384 -56 0
-384 -60 0
-384 -61 0
-384 -62 0
-384 -63 0
-384 -64 0
-384 -65 0
-384 -66 0
-384 -67 0
-384 -71 0
-384 -72 0
-384 -73 0
-384 -74 0
-384 -75 0
-384 -76 0
-384 -77 0
-385 -45 0
-385 -46 0
-385 -50 0
-385 -51 0
-385 -52 0
-385 -53 0
-385 -54 0
-385 -55 0
-385 -56 0
-385 -57 0
-385 -61 0
-385 -62 0
-385 -63 0
-385 -64 0
-385 -65 0
-385 -66 0
-385 -67 0
-385 -68 0
-385 -72 0
-385 -73 0
-385 -74 0
-385 -75 0
-385 -76 0
-385 -77 0
-386 -45 0
-386 -46 0
-386 -47 0
-386 -51 0
-386 -52 0
-386 -53 0
-386 -54 0
-386 -55 0
-386 -56 0
-386 -57 0
-386 -58 0
-386 -62 0
-386 -63 0
-386 -64 0
-386 -65 0
-386 -66 0
-386 -67 0
-386 -68 0
-386 -69 0
-386 -73 0
-386 -74 0
-386 -75 0
-386 -76 0
-386 -77 0
-387 -45 0
-387 -46 0
-387 -47 0
-387 -48 0
-387 -52 0
-387 -53 0
-387 -54 0
-387 -55 0
-387 -56 0
-387 -57 0
-387 -58 0
-387 -59 0
-387 -63 0
-387 -64 0
-387 -65 0
-387 -66 0
-387 -67 0
-387 -68 0
-387 -69 0
-387 -70 0
-387 -74 0
-387 -75 0
-387 -76 0
-387 -77 0
-388 -45 0
-388 -46 0
-388 -47 0
-388 -48 0
-388 -49 0
-388 -53 0
-388 -54 0
-388 -55 0
-388 -56 0
-388 -57 0
-388 -58 0
-388 -59 0
-388 -60 0
-388 -64 0
-388 -65 0
-388 -66 0
-388 -67 0
-388 -68 0
-388 -69 0
-388 -70 0
-388 -71 0
-388 -75 0
-388 -76 0
-388 -77 0
-389 -45 0
-389 -46 0
-389 -47 0
-389 -48 0
-389 -49 0
-389 -50 0
-389 -54 0
-389 -55 0
-389 -56 0
-389 -57 0
-389 -58 0
-389 -59 0
-389 -60 0
-389 -61 0
-389 -65 0
-389 -66 0
-389 -67 0
-389 -68 0
-389 -69 0
-389 -70 0
-389 -71 0
-389 -72 0
-389 -76 0
-389 -77 0
-390 -45 0
-390 -46 0
-390 -47 0
-390 -48 0
-390 -49 0
-390 -50 0
-390 -51 0
-390 -55 0
-390 -56 0
-390 -57 0
-390 -58 0
-390 -59 0
-390 -60 0
-390 -61 0
-390 -62 0
-390 -66 0
-390 -67 0
-390 -68 0
-390 -69 0
-390 -70 0
-390 -71 0
-390 -72 0
-390 -73 0
-390 -77 0
-391 -45 0
-391 -46 0
-391 -47 0
-391 -48 0
-391 -49 0
-391 -50 0
-391 -51 0
-391 -52 0
-391 -56 0
-391 -57 0
-391 -58 0
-391 -59 0
-391 -60 0
-391 -61 0
-391 -62 0
-391 -63 0
-391 -67 0
-391 -68 0
-391 -69 0
-391 -70 0
-391 -71 0
-391 -72 0
-391 -73 0
-391 -74 0
-78 -89 0
-78 -100 0
-89 -100 0
-79 -90 0
-79 -101 0
-90 -101 0
-80 -91 0
-80 -102 0
-91 -102 0
-81 -92 0
-81 -103 0
-92 -103 0
-82 -93 0
-82 -104 0
-93 -104 0
-83 -94 0
-83 -105 0
-94 -105 0
-84 -95 0
-84 -106 0
-95 -106 0
-85 -96 0
-85 -107 0
-96 -107 0
-86 -97 0
-86 -108 0
-97 -108 0
-87 -98 0
-87 -109 0
-98 -109 0
-88 -99 0
-88 -110 0
-99 -110 0
392 393 394 395 396 397 398 399 400 0
-392 -393 0
-392 -394 0
-392 -395 0
-392 -396 0
-392 -397 0
-392 -398 0
-392 -399 0
-392 -400 0
-393 -394 0
-393 -395 0
-393 -396 0
-393 -397 0
-393 -398 0
-393 -399 0
-393 -400 0
-394 -395 0
-394 -396 0
-394 -397 0
-394 -398 0
-394 -399 0
-394 -400 0
-395 -396 0
-395 -397 0
-395 -398 0
-395 -399 0
-395 -400 0
-396 -397 0
-396 -398 0
-396 -399 0
-396 -400 0
-397 -398 0
-397 -399 0
-397 -400 0
-398 -399 0
-398 -400 0
-399 -400 0
-78 392 0
-79 392 393 0
-80 392 393 394 0
-81 393 394 395 0
-82 394 395 396 0
-83 395 396 397 0
-84 396 397 398 0
-85 397 398 399 0
-86 398 399 400 0
-87 399 400 0
-88 400 0
-89 392 0
-90 392 393 0
-91 392 393 394 0
-92 393 394 395 0
-93 394 395 396 0
-94 395 396 397 0
-95 396 397 398 0
-96 397 398 399 0
-97 398 399 400 0
-98 399 400 0
-99 400 0
-100 392 0
-101 392 393 0
-102 392 393 394 0
-103 393 394 395 0
-104 394 395 396 0
-105 395 396 397 0
-106 396 397 398 0
-107 397 398 399 0
-108 398 399 400 0
-109 399 400 0
-110 400 0
-392 -81 0
-392 -82 0
-392 -83 0
-392 -84 0
-392 -85 0
-392 -86 0
-392 -87 0
-392 -88 0
-392 -92 0
-392 -93 0
-392 -94 0
-392 -95 0
-392 -96 0
-392 -97 0
-392 -98 0
-392 -99 0
-392 -103 0
-392 -104 0
-392 -105 0
-392 -106 0
-392 -107 0
-392 -108 0
-392 -109 0
-392 -110 0
-393 -78 0
-393 -82 0
-393 -83 0
-393 -84 0
-393 -85 0
-393 -86 0
-393 -87 0
-393 -88 0
-393 -89 0
-393 -93 0
-393 -94 0
-393 -95 0
-393 -96 0
-393 -97 0
-393 -98 0
-393 -99 0
-393 -100 0
-393 -104 0
-393 -105 0
-393 -106 0
-393 -107 0
-393 -108 0
-393 -109 0
-393 -110 0
-394 -78 0
-394 -79 0
-394 -83 0
-394 -84 0
-394 -85 0
-394 -86 0
-394 -87 0
-394 -88 0
-394 -89 0
-394 -90 0
-394 -94 0
-394 -95 0
-394 -96 0
-394 -97 0
-394 -98 0
-394 -99 0
-394 -100 0
-394 -101 0
-394 -105 0
-394 -106 0
-394 -107 0
-394 -108 0
-394 -109 0
-394 -110 0
-395 -78 0
-395 -79 0
-395 -80 0
-395 -84 0
-395 -85 0
-395 -86 0
-395 -87 0
-395 -88 0
-395 -89 0
-395 -90 0
-395 -91 0
-395 -95 0
-395 -96 0
-395 -97 0
-395 -98 0
-395 -99 0
-395 -100 0
-395 -101 0
-395 -102 0
-395 -106 0
-395 -107 0
-395 -108 0
-395 -109 0
-395 -110 0
-396 -78 0
-396 -79 0
-396 -80 0
-396 -81 0
-396 -85 0
-396 -86 0
-396 -87 0
-396 -88 0
-396 -89 0
-396 -90 0
-396 -91 0
-396 -92 0
-396 -96 0
-396 -97 0
-396 -98 0
-396 -99 0
-396 -100 0
-396 -101 0
-396 -102 0
-396 -103 0
-396 -107 0
-396 -108 0
-396 -109 0
-396 -110 0
-397 -78 0
-397 -79 0
-397 -80 0
-397 -81 0
-397 -82 0
-397 -86 0
-397 -87 0
-397 -88 0
-397 -89 0
-397 -90 0
-397 -91 0
-397 -92 0
-397 -93 0
-397 -97 0
-397 -98 0
-397 -99 0
-397 -100 0
-397 -101 0
-397 -102 0
-397 -103 0
-397 -104 0
-397 -108 0
-397 -109 0
-397 -110 0
-398 -78 0
-398 -79 0
-398 -80 0
-398 -81 0
-398 -82 0
-398 -83 0
-398 -87 0
-398 -88 0
-398 -89 0
-398 -90 0
-398 -91 0
-398 -92 0
-398 -93 0
-398 -94 0
-398 -98 0
-398 -99 0
-398 -100 0
-398 -101 0
-398 -102 0
-398 -103 0
-398 -104 0
-398 -105 0
-398 -109 0
-398 -110 0
-399 -78 0
-399 -79 0
-399 -80 0
-399 -81 0
-399 -82 0
-399 -83 0
-399 -84 0
-399 -88 0
-399 -89 0
-399 -90 0
-399 -91 0
-399 -92 0
-399 -93 0
-399 -94 0
-399 -95 0
-399 -99 0
-399 -100 0
-399 -101 0
-399 -102 0
-399 -103 0
-399 -104 0
-399 -105 0
-399 -106 0
-399 -110 0
-400 -78 0
-400 -79 0
-400 -80 0
-400 -81 0
-400 -82 0
-400 -83 0
-400 -84 0
-400 -85 0
-400 -89 0
-400 -90 0
-400 -91 0
-400 -92 0
-400 -93 0
-400 -94 0
-400 -95 0
-400 -96 0
-400 -100 0
-400 -101 0
-400 -102 0
-400 -103 0
-400 -104 0
-400 -105 0
-400 -106 0
-400 -107 0
-111 -122 0
-111 -133 0
-122 -133 0
-112 -123 0
-112 -134 0
-123 -134 0
-113 -124 0
-113 -135 0
-124 -135 0
-114 -125 0
-114 -136 0
-125 -136 0
-115 -126 0
-115 -137 0
-126 -137 0
-116 -127 0
-116 -138 0
-127 -138 0
-117 -128 0
-117 -139 0
-128 -139 0
-118 -129 0
-118 -140 0
-129 -140 0
-119 -130 0
-119 -141 0
-130 -141 0
-120 -131 0
-120 -142 0
-131 -142 0
-121 -132 0
-121 -143 0
-132 -143 0
401 402 403 404 405 406 407 408 409 0
-401 -402 0
-401 -403 0
-401 -404 0
-401 -405 0
-401 -406 0
-401 -407 0
-401 -408 0
-401 -409 0
-402 -403 0
-402 -404 0
-402 -405 0
-402 -406 0
-402 -407 0
-402 -408 0
-402 -409 0
-403 -404 0
-403 -405 0
-403 -406 0
-403 -407 0
-403 -408 0
-403 -409 0
-404 -405 0
-404 -406 0
-404 -407 0
-404 -408 0
-404 -409 0
-405 -406 0
-405 -407 0
-405 -408 0
-405 -409 0
-406 -407 0
-406 -408 0
-406 -409 0
-407 -408 0
-407 -409 0
-408 -409 0
-111 401 0
-112 401 402 0
-113 401 402 403 0
-114 402 403 404 0
-115 403 404 405 0
-116 404 405 406 0
-117 405 406 407 0
-118 406 407 408 0
-119 407 408 409 0
-120 408 409 0
-121 409 0
-122 401 0
-123 401 402 0
-124 401 402 403 0
-125 402 403 404 0
-126 403 404 405 0
-127 404 405 406 0
-128 405 406 407 0
-129 406 407 408 0
-130 407 408 409 0
-131 408 409 0
-132 409 0
-133 401 0
-134 401 402 0
-135 401 402 403 0
-136 402 403 404 0
-137 403 404 405 0
-138 404 405 406 0
-139 405 406 407 0
-140 406 407 408 0
-141 407 408 409 0
-142 408 409 0
-143 409 0
-401 -114 0
-401 -115 0
-401 -116 0
-401 -117 0
-401 -118 0
-401 -119 0
-401 -120 0
-401 -121 0
-401 -125 0
-401 -126 0
-401 -127 0
-401 -128 0
-401 -129 0
-401 -130 0
-401 -131 0
-401 -132 0
-401 -136 0
-401 -137 0
-401 -138 0
-401 -139 0
-401 -140 0
-401 -141 0
-401 -142 0
-401 -143 0
-402 -111 0
-402 -115 0
-402 -116 0
-402 -117 0
-402 -118 0
-402 -119 0
-402 -120 0
-402 -121 0
-402 -122 0
-402 -126 0
-402 -127 0
-402 -128 0
-402 -129 0
-402 -130 0
-402 -131 0
-402 -132 0
-402 -133 0
-402 -137 0
-402 -138 0
-402 -139 0
-402 -140 0
-402 -141 0
-402 -142 0
-402 -143 0
-403 -111 0
-403 -112 0
-403 -116 0
-403 -117 0
-403 -118 0
-403 -119 0
-403 -120 0
-403 -121 0
-403 -122 0
-403 -123 0
-403 -127 0
-403 -128 0
-403 -129 0
-403 -130 0
-403 -131 0
-403 -132 0
-403 -133 0
-403 -134 0
-403 -138 0
-403 -139 0
-403 -140 0
-403 -141 0
-403 -142 0
-403 -143 0
-404 -111 0
-404 -112 0
-404 -113 0
-404 -117 0
-404 -118 0
-404 -119 0
-404 -120 0
-404 -121 0
-404 -122 0
-404 -123 0
-404 -124 0
-404 -128 0
-404 -129 0
-404 -130 0
-404 -131 0
-404 -132 0
-404 -133 0
-404 -134 0
-404 -135 0
-404 -139 0
-404 -140 0
-404 -141 0
-404 -142 0
-404 -143 0
-405 -111 0
-405 -112 0
-405 -113 0
-405 -114 0
-405 -118 0
-405 -119 0
-405 -120 0
-405 -121 0
-405 -122 0
-405 -123 0
-405 -124 0
-405 -125 0
-405 -129 0
-405 -130 0
-405 -131 0
-405 -132 0
-405 -133 0
-405 -134 0
-405 -135 0
-405 -136 0
-405 -140 0
-405 -141 0
-405 -142 0
-405 -143 0
-406 -111 0
-406 -112 0
-406 -113 0
-406 -114 0
-406 -115 0
-406 -119 0
-406 -120 0
-406 -121 0
-406 -122 0
-406 -123 0
-406 -124 0
-406 -125 0
-406 -126 0
-406 -130 0
-406 -131 0
-406 -132 0
-406 -133 0
-406 -134 0
-406 -135 0
-406 -136 0
-406 -137 0
-406 -141 0
-406 -142 0
-406 -143 0
-407 -111 0
-407 -112 0
-407 -113 0
-407 -114 0
-407 -115 0
-407 -116 0
-407 -120 0
-407 -121 0
-407 -122 0
-407 -123 0
-407 -124 0
-407 -125 0
-407 -126 0
-407 -127 0
-407 -131 0
-407 -132 0
-407 -133 0
-407 -134 0
-407 -135 0
-407 -136 0
-407 -137 0
-407 -138 0
-407 -142 0
-407 -143 0
-408 -111 0
-408 -112 0
-408 -113 0
-408 -114 0
-408 -115 0
-408 -116 0
-408 -117 0
-408 -121 0
-408 -122 0
-408 -123 0
-408 -124 0
-408 -125 0
-408 -126 0
-408 -127 0
-408 -128 0
-408 -132 0
-408 -133 0
-408 -134 0
-408 -135 0
-408 -136 0
-408 -137 0
-408 -138 0
-408 -139 0
-408 -143 0
-409 -111 0
-409 -112 0
-409 -113 0
-409 -114 0
-409 -115 0
-409 -116 0
-409 -117 0
-409 -118 0
-409 -122 0
-409 -123 0
-409 -124 0
-409 -125 0
-409 -126 0
-409 -127 0
-409 -128 0
-409 -129 0
-409 -133 0
-409 -134 0
-409 -135 0
-409 -136 0
-409 -137 0
-409 -138 0
-409 -139 0
-409 -140 0
-144 -155 0
-144 -166 0
-155 -166 0
-145 -156 0
-145 -167 0
-156 -167 0
-146 -157 0
-146 -168 0
-157 -168 0
-147 -158 0
-147 -169 0
-158 -169 0
-148 -159 0
-148 -170 0
-159 -170 0
-149 -160 0
-149 -171 0
-160 -171 0
-150 -161 0
-150 -172 0
-161 -172 0
-151 -162 0
-151 -173 0
-162 -173 0
-152 -163 0
-152 -174 0
-163 -174 0
-153 -164 0
-153 -175 0
-164 -175 0
-154 -165 0
-154 -176 0
-165 -176 0
410 411 412 413 414 415 416 417 418 0
-410 -411 0
-410 -412 0
-410 -413 0
-410 -414 0
-410 -415 0
-410 -416 0
-410 -417 0
-410 -418 0
-411 -412 0
-411 -413 0
-411 -414 0
-411 -415 0
-411 -416 0
-411 -417 0
-411 -418 0
-412 -413 0
-412 -414 0
-412 -415 0
-412 -416 0
-412 -417 0
-412 -418 0
-413 -414 0
-413 -415 0
-413 -416 0
-413 -417 0
-413 -418 0
-414 -415 0
-414 -416 0
-414 -417 0
-414 -418 0
-415 -416 0
-415 -417 0
-415 -418 0
-416 -417 0
-416 -418 0
-417 -418 0
-144 410 0
-145 410 411 0
-146 410 411 412 0
-147 411 412 413 0
-148 412 413 414 0
-149 413 414 415 0
-150 414 415 416 0
-151 415 416 417 0
-152 416 417 418 0
-153 417 418 0
-154 418 0
-155 410 0
-156 410 411 0
-157 410 411 412 0
-158 411 412 413 0
-159 412 413 414 0
-160 413 414 415 0
-161 414 415 416 0
-162 415 416 417 0
-163 416 417 418 0
-164 417 418 0
-165 418 0
-166 410 0
-167 410 411 0
-168 410 411 412 0
-169 411 412 413 0
-170 412 413 414 0
-171 413 414 415 0
-172 414 415 416 0
-173 415 416 417 0
-174 416 417 418 0
-175 417 418 0
-176 418 0
-410 -147 0
-410 -148 0
-410 -149 0
-410 -150 0
-410 -151 0
-410 -152 0
-410 -153 0
-410 -154 0
-410 -158 0
-410 -159 0
-410 -160 0
-410 -161 0
-410 -162 0
-410 -163 0
-410 -164 0
-410 -165 0
-410 -169 0
-410 -170 0
-410 -171 0
-410 -172 0
-410 -173 0
-410 -174 0
-410 -175 0
-410 -176 0
-411 -144 0
-411 -148 0
-411 -149 0
-411 -150 0
-411 -151 0
-411 -152 0
-411 -153 0
-411 -154 0
-411 -155 0
-411 -159 0
-411 -160 0
-411 -161 0
-411 -162 0
-411 -163 0
-411 -164 0
-411 -165 0
-411 -166 0
-411 -170 0
-411 -171 0
-411 -172 0
-411 -173 0
-411 -174 0
-411 -175 0
-411 -176 0
-412 -144 0
-412 -145 0
-412 -149 0
-412 -150 0
-412 -151 0
-412 -152 0
-412 -153 0
-412 -154 0
-412 -155 0
-412 -156 0
-412 -160 0
-412 -161 0
-412 -162 0
-412 -163 0
-412 -164 0
-412 -165 0
-412 -166 0
-412 -167 0
-412 -171 0
-412 -172 0
-412 -173 0
-412 -174 0
-412 -175 0
-412 -176 0
-413 -144 0
-413 -145 0
-413 -146 0
-413 -150 0
-413 -151 0
-413 -152 0
-413 -153 0
-413 -154 0
-413 -155 0
-413 -156 0
-413 -157 0
-413 -161 0
-413 -162 0
-413 -163 0
-413 -164 0
-413 -165 0
-413 -166 0
-413 -167 0
-413 -168 0
-413 -172 0
-413 -173 0
-413 -174 0
-413 -175 0
-413 -176 0
-414 -144 0
-414 -145 0
-414 -146 0
-414 -147 0
-414 -151 0
-414 -152 0
-414 -153 0
-414 -154 0
-414 -155 0
-414 -156 0
-414 -157 0
-414 -158 0
-414 -162 0
-414 -163 0
-414 -164 0
-414 -165 0
-414 -166 0
-414 -167 0
-414 -168 0
-414 -169 0
-414 -173 0
-414 -174 0
-414 -175 0
-414 -176 0
-415 -144 0
-415 -145 0
-415 -146 0
-415 -147 0
-415 -148 0
-415 -152 0
-415 -153 0
-415 -154 0
-415 -155 0
-415 -156 0
-415 -157 0
-415 -158 0
-415 -159 0
-415 -163 0
-415 -164 0
-415 -165 0
-415 -166 0
-415 -167 0
-415 -168 0
-415 -169 0
-415 -170 0
-415 -174 0
-415 -175 0
-415 -176 0
-416 -144 0
-416 -145 0
-416 -146 0
-416 -147 0
-416 -148 0
-416 -149 0
-416 -153 0
-416 -154 0
-416 -155 0
-416 -156 0
-416 -157 0
-416 -158 0
-416 -159 0
-416 -160 0
-416 -164 0
-416 -165 0
-416 -166 0
-416 -167 0
-416 -168 0
-416 -169 0
-416 -170 0
-416 -171 0
-416 -175 0
-416 -176 0
-417 -144 0
-417 -145 0
-417 -146 0
-417 -147 0
-417 -148 0
-417 -149 0
-417 -150 0
-417 -154 0
-417 -155 0
-417 -156 0
-417 -157 0
-417 -158 0
-417 -159 0
-417 -160 0
-417 -161 0
-417 -165 0
-417 -166 0
-417 -167 0
-417 -168 0
-417 -169 0
-417 -170 0
-417 -171 0
-417 -172 0
-417 -176 0
-418 -144 0
-418 -145 0
-418 -146 0
-418 -147 0
-418 -148 0
-418 -149 0
-418 -150 0
-418 -151 0
-418 -155 0
-418 -156 0
-418 -157 0
-418 -158 0
-418 -159 0
-418 -160 0
-418 -161 0
-418 -162 0
-418 -166 0
-418 -167 0
-418 -168 0
-418 -169 0
-418 -170 0
-418 -171 0
-418 -172 0
-418 -173 0
-177 -188 0
-177 -199 0
-188 -199 0
-178 -189 0
-178 -200 0
-189 -200 0
-179 -190 0
-179 -201 0
-190 -201 0
-180 -191 0
-180 -202 0
-191 -202 0
-181 -192 0
-181 -203 0
-192 -203 0
-182 -193 0
-182 -204 0
-193 -204 0
-183 -194 0
-183 -205 0
-194 -205 0
-184 -195 0
-184 -206 0
-195 -206 0
-185 -196 0
-185 -207 0
-196 -207 0
-186 -197 0
-186 -208 0
-197 -208 0
-187 -198 0
-187 -209 0
-198 -209 0
419 420 421 422 423 424 425 426 427 0
-419 -420 0
-419 -421 0
-419 -422 0
-419 -423 0
-419 -424 0
-419 -425 0
-419 -426 0
-419 -427 0
-420 -421 0
-420 -422 0
-420 -423 0
-420 -424 0
-420 -425 0
-420 -426 0
-420 -427 0
-421 -422 0
-421 -423 0
-421 -424 0
-421 -425 0
-421 -426 0
-421 -427 0
-422 -423 0
-422 -424 0
-422 -425 0
-422 -426 0
-422 -427 0
-423 -424 0
-423 -425 0
-423 -426 0
-423 -427 0
-424 -425 0
-424 -426 0
-424 -427 0
-425 -426 0
-425 -427 0
-426 -427 0
-177 419 0
-178 419 420 0
-179 419 420 421 0
-180 420 421 422 0
-181 421 422 423 0
-182 422 423 424 0
-183 423 424 425 0
-184 424 425 426 0
-185 425 426 427 0
-186 426 427 0
-187 427 0
-188 419 0
-189 419 420 0
-190 419 420 421 0
-191 420 421 422 0
-192 421 422 423 0
-193 422 423 424 0
-194 423 424 425 0
-195 424 425 426 0
-196 425 426 427 0
-197 426 427 0
-198 427 0
-199 419 0
-200 419 420 0
-201 419 420 421 0
-202 420 421 422 0
-203 421 422 423 0
-204 422 423 424 0
-205 423 424 425 0
-206 424 425 426 0
-207 425 426 427 0
-208 426 427 0
-209 427 0
-419 -180 0
-419 -181 0
-419 -182 0
-419 -183 0
-419 -184 0
-419 -185 0
-419 -186 0
-419 -187 0
-419 -191 0
-419 -192 0
-419 -193 0
-419 -194 0
-419 -195 0
-419 -196 0
-419 -197 0
-419 -198 0
-419 -202 0
-419 -203 0
-419 -204 0
-419 -205 0
-419 -206 0
-419 -207 0
-419 -208 0
-419 -209 0
-420 -177 0
-420 -181 0
-420 -182 0
-420 -183 0
-420 -184 0
-420 -185 0
-420 -186 0
-420 -187 0
-420 -188 0
-420 -192 0
-420 -193 0
-420 -194 0
-420 -195 0
-420 -196 0
-420 -197 0
-420 -198 0
-420 -199 0
-420 -203 0
-420 -204 0
-420 -205 0
-420 -206 0
-420 -207 0
-420 -208 0
-420 -209 0
-421 -177 0
-421 -178 0
-421 -182 0
-421 -183 0
-421 -184 0
-421 -185 0
-421 -186 0
-421 -187 0
-421 -188 0
-421 -189 0
-421 -193 0
-421 -194 0
-421 -195 0
-421 -196 0
-421 -197 0
-421 -198 0
-421 -199 0
-421 -200 0
-421 -204 0
-421 -205 0
-421 -206 0
-421 -207 0
-421 -208 0
-421 -209 0
-422 -177 0
-422 -178 0
-422 -179 0
-422 -183 0
-422 -184 0
-422 -185 0
-422 -186 0
-422 -187 0
-422 -188 0
-422 -189 0
-422 -190 0
-422 -194 0
-422 -195 0
-422 -196 0
-422 -197 0
-422 -198 0
-422 -199 0
-422 -200 0
-422 -201 0
-422 -205 0
-422 -206 0
-422 -207 0
-422 -208 0
-422 -209 0
-423 -177 0
-423 -178 0
-423 -179 0
-423 -180 0
-423 -184 0
-423 -185 0
-423 -186 0
-423 -187 0
-423 -188 0
-423 -189 0
-423 -190 0
-423 -191 0
-423 -195 0
-423 -196 0
-423 -197 0
-423 -198 0
-423 -199 0
-423 -200 0
-423 -201 0
-423 -202 0
-423 -206 0
-423 -207 0
-423 -208 0
-423 -209 0
-424 -177 0
-424 -178 0
-424 -179 0
-424 -180 0
-424 -181 0
-424 -185 0
-424 -186 0
-424 -187 0
-424 -188 0
-424 -189 0
-424 -190 0
-424 -191 0
-424 -192 0
-424 -196 0
-424 -197 0
-424 -198 0
-424 -199 0
-424 -200 0
-424 -201 0
-424 -202 0
-424 -203 0
-424 -207 0
-424 -208 0
-424 -209 0
-425 -177 0
-425 -178 0
-425 -179 0
-425 -180 0
-425 -181 0
-425 -182 0
-425 -186 0
-425 -187 0
-425 -188 0
-425 -189 0
-425 -190 0
-425 -191 0
-425 -192 0
-425 -193 0
-425 -197 0
-425 -198 0
-425 -199 0
-425 -200 0
-425 -201 0
-425 -202 0
-425 -203 0
-425 -204 0
-425 -208 0
-425 -209 0
-426 -177 0
-426 -178 0
-426 -179 0
-426 -180 0
-426 -181 0
-426 -182 0
-426 -183 0
-426 -187 0
-426 -188 0
-426 -189 0
-426 -190 0
-426 -191 0
-426 -192 0
-426 -193 0
-426 -194 0
-426 -198 0
-426 -199 0
-426 -200 0
-426 -201 0
-426 -202 0
-426 -203 0
-426 -204 0
-426 -205 0
-426 -209 0
-427 -177 0
-427 -178 0
-427 -179 0
-427 -180 0
-427 -181 0
-427 -182 0
-427 -183 0
-427 -184 0
-427 -188 0
-427 -189 0
-427 -190 0
-427 -191 0
-427 -192 0
-427 -193 0
-427 -194 0
-427 -195 0
-427 -199 0
-427 -200 0
-427 -201 0
-427 -202 0
-427 -203 0
-427 -204 0
-427 -205 0
-427 -206 0
-210 -221 0
-210 -232 0
-221 -232 0
-211 -222 0
-211 -233 0
-222 -233 0
-212 -223 0
-212 -234 0
-223 -234 0
-213 -224 0
-213 -235 0
-224 -235 0
-214 -225 0
-214 -236 0
-225 -236 0
-215 -226 0
-215 -237 0
-226 -237 0
-216 -227 0
-216 -238 0
-227 -238 0
-217 -228 0
-217 -239 0
-228 -239 0
-218 -229 0
-218 -240 0
-229 -240 0
-219 -230 0
-219 -241 0
-230 -241 0
-220 -231 0
-220 -242 0
-231 -242 0
428 429 430 431 432 433 434 435 436 0
-428 -429 0
-428 -430 0
-428 -431 0
-428 -432 0
-428 -433 0
-428 -434 0
-428 -435 0
-428 -436 0
-429 -430 0
-429 -431 0
-429 -432 0
-429 -433 0
-429 -434 0
-429 -435 0
-429 -436 0
-430 -431 0
-430 -432 0
-430 -433 0
-430 -434 0
-430 -435 0
-430 -436 0
-431 -432 0
-431 -433 0
-431 -434 0
-431 -435 0
-431 -436 0
-432 -433 0
-432 -434 0
-432 -435 0
-432 -436 0
-433 -434 0
-433 -435 0
-433 -436 0
-434 -435 0
-434 -436 0
-435 -436 0
-210 428 0
-211 428 429 0
-212 428 429 430 0
-213 429 430 431 0
-214 430 431 432 0
-215 431 432 433 0
-216 432 433 434 0
-217 433 434 435 0
-218 434 435 436 0
-219 435 436 0
-220 436 0
-221 428 0
-222 428 429 0
-223 428 429 430 0
-224 429 430 431 0
-225 430 431 432 0
-226 431 432 433 0
-227 432 433 434 0
-228 433 434 435 0
-229 434 435 436 0
-230 435 436 0
-231 436 0
-232 428 0
-233 428 429 0
-234 428 429 430 0
-235 429 430 431 0
-236 430 431 432 0
-237 431 432 433 0
-238 432 433 434 0
-239 433 434 435 0
-240 434 435 436 0
-241 435 436 0
-242 436 0
-428 -213 0
-428 -214 0
-428 -215 0
-428 -216 0
-428 -217 0
-428 -218 0
-428 -219 0
-428 -220 0
-428 -224 0
-428 -225 0
-428 -226 0
-428 -227 0
-428 -228 0
-428 -229 0
-428 -230 0
-428 -231 0
-428 -235 0
-428 -236 0
-428 -237 0
-428 -238 0
-428 -239 0
-428 -240 0
-428 -241 0
-428 -242 0
-429 -210 0
-429 -214 0
-429 -215 0
-429 -216 0
-429 -217 0
-429 -218 0
-429 -219 0
-429 -220 0
-429 -221 0
-429 -225 0
-429 -226 0
-429 -227 0
-429 -228 0
-429 -229 0
-429 -230 0
-429 -231 0
-429 -232 0
-429 -236 0
-429 -237 0
-429 -238 0
-429 -239 0
-429 -240 0
-429 -241 0
-429 -242 0
-430 -210 0
-430 -211 0
-430 -215 0
-430 -216 0
-430 -217 0
-430 -218 0
-430 -219 0
-430 -220 0
-430 -221 0
-430 -222 0
-430 -226 0
-430 -227 0
-430 -228 0
-430 -229 0
-430 -230 0
-430 -231 0
-430 -232 0
-430 -233 0
-430 -237 0
-430 -238 0
-430 -239 0
-430 -240 0
-430 -241 0
-430 -242 0
-431 -210 0
-431 -211 0
-431 -212 0
-431 -216 0
-431 -217 0
-431 -218 0
-431 -219 0
-431 -220 0
-431 -221 0
-431 -222 0
-431 -223 0
-431 -227 0
-431 -228 0
-431 -229 0
-431 -230 0
-431 -231 0
-431 -232 0
-431 -233 0
-431 -234 0
-431 -238 0
-431 -239 0
-431 -240 0
-431 -241 0
-431 -242 0
-432 -210 0
-432 -211 0
-432 -212 0
-432 -213 0
-432 -217 0
-432 -218 0
-432 -219 0
-432 -220 0
-432 -221 0
-432 -222 0
-432 -223 0
-432 -224 0
-432 -228 0
-432 -229 0
-432 -230 0
-432 -231 0
-432 -232 0
-432 -233 0
-432 -234 0
-432 -235 0
-432 -239 0
-432 -240 0
-432 -241 0
-432 -242 0
-433 -210 0
-433 -211 0
-433 -212 0
-433 -213 0
-433 -214 0
-433 -218 0
-433 -219 0
-433 -220 0
-433 -221 0
-433 -222 0
-433 -223 0
-433 -224 0
-433 -225 0
-433 -229 0
-433 -230 0
-433 -231 0
-433 -232 0
-433 -233 0
-433 -234 0
-433 -235 0
-433 -236 0
-433 -240 0
-433 -241 0
-433 -242 0
-434 -210 0
-434 -211 0
-434 -212 0
-434 -213 0
-434 -214 0
-434 -215 0
-434 -219 0
-434 -220 0
-434 -221 0
-434 -222 0
-434 -223 0
-434 -224 0
-434 -225 0
-434 -226 0
-434 -230 0
-434 -231 0
-434 -232 0
-434 -233 0
-434 -234 0
-434 -235 0
-434 -236 0
-434 -237 0
-434 -241 0
-434 -242 0
-435 -210 0
-435 -211 0
-435 -212 0
-435 -213 0
-435 -214 0
-435 -215 0
-435 -216 0
-435 -220 0
-435 -221 0
-435 -222 0
-435 -223 0
-435 -224 0
-435 -225 0
-435 -226 0
-435 -227 0
-435 -231 0
-435 -232 0
-435 -233 0
-435 -234 0
-435 -235 0
-435 -236 0
-435 -237 0
-435 -238 0
-435 -242 0
-436 -210 0
-436 -211 0
-436 -212 0
-436 -213 0
-436 -214 0
-436 -215 0
-436 -216 0
-436 -217 0
-436 -221 0
-436 -222 0
-436 -223 0
-436 -224 0
-436 -225 0
-436 -226 0
-436 -227 0
-436 -228 0
-436 -232 0
-436 -233 0
-436 -234 0
-436 -235 0
-436 -236 0
-436 -237 0
-436 -238 0
-436 -239 0
-243 -254 0
-243 -265 0
-254 -265 0
-244 -255 0
-244 -266 0
-255 -266 0
-245 -256 0
-245 -267 0
-256 -267 0
-246 -257 0
-246 -268 0
-257 -268 0
-247 -258 0
-247 -269 0
-258 -269 0
-248 -259 0
-248 -270 0
-259 -270 0
-249 -260 0
-249 -271 0
-260 -271 0
-250 -261 0
-250 -272 0
-261 -272 0
-251 -262 0
-251 -273 0
-262 -273 0
-252 -263 0
-252 -274 0
-263 -274 0
-253 -264 0
-253 -275 0
-264 -275 0
437 438 439 440 441 442 443 444 445 0
-437 -438 0
-437 -439 0
-437 -440 0
-437 -441 0
-437 -442 0
-437 -443 0
-437 -444 0
-437 -445 0
-438 -439 0
-438 -440 0
-438 -441 0
-438 -442 0
-438 -443 0
-438 -444 0
-438 -445 0
-439 -440 0
-439 -441 0
-439 -442 0
-439 -443 0
-439 -444 0
-439 -445 0
-440 -441 0
-440 -442 0
-440 -443 0
-440 -444 0
-440 -445 0
-441 -442 0
-441 -443 0
-441 -444 0
-441 -445 0
-442 -443 0
-442 -444 0
-442 -445 0
-443 -444 0
-443 -445 0
-444 -445 0
-243 437 0
-244 437 438 0
-245 437 438 439 0
-246 438 439 440 0
-247 439 440 441 0
-248 440 441 442 0
-249 441 442 443 0
-250 442 443 444 0
-251 443 444 445 0
-252 444 445 0
-253 445 0
-254 437 0
-255 437 438 0
-256 437 438 439 0
-257 438 439 440 0
-258 439 440 441 0
-259 440 441 442 0
-260 441 442 443 0
-261 442 443 444 0
-262 443 444 445 0
-263 444 445 0
-264 445 0
-265 437 0
-266 437 438 0
-267 437 438 439 0
-268 438 439 440 0
-269 439 440 441 0
-270 440 441 442 0
-271 441 442 443 0
-272 442 443 444 0
-273 443 444 445 0
-274 444 445 0
-275 445 0
-437 -246 0
-437 -247 0
-437 -248 0
-437 -249 0
-437 -250 0
-437 -251 0
-437 -252 0
-437 -253 0
-437 -257 0
-437 -258 0
-437 -259 0
-437 -260 0
-437 -261 0
-437 -262 0
-437 -263 0
-437 -264 0
-437 -268 0
-437 -269 0
-437 -270 0
-437 -271 0
-437 -272 0
-437 -273 0
-437 -274 0
-437 -275 0
-438 -243 0
-438 -247 0
-438 -248 0
-438 -249 0
-438 -250 0
-438 -251 0
-438 -252 0
-438 -253 0
-438 -254 0
-438 -258 0
-438 -259 0
-438 -260 0
-438 -261 0
-438 -262 0
-438 -263 0
-438 -264 0
-438 -265 0
-438 -269 0
-438 -270 0
-438 -271 0
-438 -272 0
-438 -273 0
-438 -274 0
-438 -275 0
-439 -243 0
-439 -244 0
-439 -248 0
-439 -249 0
-439 -250 0
-439 -251 0
-439 -252 0
-439 -253 0
-439 -254 0
-439 -255 0
-439 -259 0
-439 -260 0
-439 -261 0
-439 -262 0
-439 -263 0
-439 -264 0
-439 -265 0
-439 -266 0
-439 -270 0
-439 -271 0
-439 -272 0
-439 -273 0
-439 -274 0
-439 -275 0
-440 -243 0
-440 -244 0
-440 -245 0
-440 -249 0
-440 -250 0
-440 -251 0
-440 -252 0
-440 -253 0
-440 -254 0
-440 -255 0
-440 -256 0
-440 -260 0
-440 -261 0
-440 -262 0
-440 -263 0
-440 -264 0
-440 -265 0
-440 -266 0
-440 -267 0
-440 -271 0
-440 -272 0
-440 -273 0
-440 -274 0
-440 -275 0
-441 -243 0
-441 -244 0
-441 -245 0
-441 -246 0
-441 -250 0
-441 -251 0
-441 -252 0
-441 -253 0
-441 -254 0
-441 -255 0
-441 -256 0
-441 -257 0
-441 -261 0
-441 -262 0
-441 -263 0
-441 -264 0
-441 -265 0
-441 -266 0
-441 -267 0
-441 -268 0
-441 -272 0
-441 -273 0
-441 -274 0
-441 -275 0
-442 -243 0
-442 -244 0
-442 -245 0
-442 -246 0
-442 -247 0
-442 -251 0
-442 -252 0
-442 -253 0
-442 -254 0
-442 -255 0
-442 -256 0
-442 -257 0
-442 -258 0
-442 -262 0
-442 -263 0
-442 -264 0
-442 -265 0
-442 -266 0
-442 -267 0
-442 -268 0
-442 -269 0
-442 -273 0
-442 -274 0
-442 -275 0
-443 -243 0
-443 -244 0
-443 -245 0
-443 -246 0
-443 -247 0
-443 -248 0
-443 -252 0
-443 -253 0
-443 -254 0
-443 -255 0
-443 -256 0
-443 -257 0
-443 -258 0
-443 -259 0
-443 -263 0
-443 -264 0
-443 -265 0
-443 -266 0
-443 -267 0
-443 -268 0
-443 -269 0
-443 -270 0
-443 -274 0
-443 -275 0
-444 -243 0
-444 -244 0
-444 -245 0
-444 -246 0
-444 -247 0
-444 -248 0
-444 -249 0
-444 -253 0
-444 -254 0
-444 -255 0
-444 -256 0
-444 -257 0
-444 -258 0
-444 -259 0
-444 -260 0
-444 -264 0
-444 -265 0
-444 -266 0
-444 -267 0
-444 -268 0
-444 -269 0
-444 -270 0
-444 -271 0
-444 -275 0
-445 -243 0
-445 -244 0
-445 -245 0
-445 -246 0
-445 -247 0
-445 -248 0
-445 -249 0
-445 -250 0
-445 -254 0
-445 -255 0
-445 -256 0
-445 -257 0
-445 -258 0
-445 -259 0
-445 -260 0
-445 -261 0
-445 -265 0
-445 -266 0
-445 -267 0
-445 -268 0
-445 -269 0
-445 -270 0
-445 -271 0
-445 -272 0
-276 -287 0
-276 -298 0
-287 -298 0
-277 -288 0
-277 -299 0
-288 -299 0
-278 -289 0
-278 -300 0
-289 -300 0
-279 -290 0
-279 -301 0
-290 -301 0
-280 -291 0
-280 -302 0
-291 -302 0
-281 -292 0
-281 -303 0
-292 -303 0
-282 -293 0
-282 -304 0
-293 -304 0
-283 -294 0
-283 -305 0
-294 -305 0
-284 -295 0
-284 -306 0
-295 -306 0
-285 -296 0
-285 -307 0
-296 -307 0
-286 -297 0
-286 -308 0
-297 -308 0
446 447 448 449 450 451 452 453 454 0
-446 -447 0
-446 -448 0
-446 -449 0
-446 -450 0
-446 -451 0
-446 -452 0
-446 -453 0
-446 -454 0
-447 -448 0
-447 -449 0
-447 -450 0
-447 -451 0
-447 -452 0
-447 -453 0
-447 -454 0
-448 -449 0
-448 -450 0
-448 -451 0
-448 -452 0
-448 -453 0
-448 -454 0
-449 -450 0
-449 -451 0
-449 -452 0
-449 -453 0
-449 -454 0
-450 -451 0
-450 -452 0
-450 -453 0
-450 -454 0
-451 -452 0
-451 -453 0
-451 -454 0
-452 -453 0
-452 -454 0
-453 -454 0
-276 446 0
-277 446 447 0
-278 446 447 448 0
-279 447 448 449 0
-280 448 449 450 0
-281 449 450 451 0
-282 450 451 452 0
-283 451 452 453 0
-284 452 453 454 0
-285 453 454 0
-286 454 0
-287 446 0
-288 446 447 0
-289 446 447 448 0
-290 447 448 449 0
-291 448 449 450 0
-292 449 450 451 0
-293 450 451 452 0
-294 451 452 453 0
-295 452 453 454 0
-296 453 454 0
-297 454 0
-298 446 0
-299 446 447 0
-300 446 447 448 0
-301 447 448 449 0
-302 448 449 450 0
-303 449 450 451 0
-304 450 451 452 0
-305 451 452 453 0
-306 452 453 454 0
-307 453 454 0
-308 454 0
-446 -279 0
-446 -280 0
-446 -281 0
-446 -282 0
-446 -283 0
-446 -284 0
-446 -285 0
-446 -286 0
-446 -290 0
-446 -291 0
-446 -292 0
-446 -293 0
-446 -294 0
-446 -295 0
-446 -296 0
-446 -297 0
-446 -301 0
-446 -302 0
-446 -303 0
-446 -304 0
-446 -305 0
-446 -306 0
-446 -307 0
-446 -308 0
-447 -276 0
-447 -280 0
-447 -281 0
-447 -282 0
-447 -283 0
-447 -284 0
-447 -285 0
-447 -286 0
-447 -287 0
-447 -291 0
-447 -292 0
-447 -293 0
-447 -294 0
-447 -295 0
-447 -296 0
-447 -297 0
-447 -298 0
-447 -302 0
-447 -303 0
-447 -304 0
-447 -305 0
-447 -306 0
-447 -307 0
-447 -308 0
-448 -276 0
-448 -277 0
-448 -281 0
-448 -282 0
-448 -283 0
-448 -284 0
-448 -285 0
-448 -286 0
-448 -287 0
-448 -288 0
-448 -292 0
-448 -293 0
-448 -294 0
-448 -295 0
-448 -296 0
-448 -297 0
-448 -298 0
-448 -299 0
-448 -303 0
-448 -304 0
-448 -305 0
-448 -306 0
-448 -307 0
-448 -308 0
-449 -276 0
-449 -277 0
-449 -278 0
-449 -282 0
-449 -283 0
-449 -284 0
-449 -285 0
-449 -286 0
-449 -287 0
-449 -288 0
-449 -289 0
-449 -293 0
-449 -294 0
-449 -295 0
-449 -296 0
-449 -297 0
-449 -298 0
-449 -299 0
-449 -300 0
-449 -304 0
-449 -305 0
-449 -306 0
-449 -307 0
-449 -308 0
-450 -276 0
-450 -277 0
-450 -278 0
-450 -279 0
-450 -283 0
-450 -284 0
-450 -285 0
-450 -286 0
-450 -287 0
-450 -288 0
-450 -289 0
-450 -290 0
-450 -294 0
-450 -295 0
-450 -296 0
-450 -297 0
-450 -298 0
-450 -299 0
-450 -300 0
-450 -301 0
-450 -305 0
-450 -306 0
-450 -307 0
-450 -308 0
-451 -276 0
-451 -277 0
-451 -278 0
-451 -279 0
-451 -280 0
-451 -284 0
-451 -285 0
-451 -286 0
-451 -287 0
-451 -288 0
-451 -289 0
-451 -290 0
-451 -291 0
-451 -295 0
-451 -296 0
-451 -297 0
-451 -298 0
-451 -299 0
-451 -300 0
-451 -301 0
-451 -302 0
-451 -306 0
-451 -307 0
-451 -308 0
-452 -276 0
-452 -277 0
-452 -278 0
-452 -279 0
-452 -280 0
-452 -281 0
-452 -285 0
-452 -286 0
-452 -287 0
-452 -288 0
-452 -289 0
-452 -290 0
-452 -291 0
-452 -292 0
-452 -296 0
-452 -297 0
-452 -298 0
-452 -299 0
-452 -300 0
-452 -301 0
-452 -302 0
-452 -303 0
-452 -307 0
-452 -308 0
-453 -276 0
-453 -277 0
-453 -278 0
-453 -279 0
-453 -280 0
-453 -281 0
-453 -282 0
-453 -286 0
-453 -287 0
-453 -288 0
-453 -289 0
-453 -290 0
-453 -291 0
-453 -292 0
-453 -293 0
-453 -297 0
-453 -298 0
-453 -299 0
-453 -300 0
-453 -301 0
-453 -302 0
-453 -303 0
-453 -304 0
-453 -308 0
-454 -276 0
-454 -277 0
-454 -278 0
-454 -279 0
-454 -280 0
-454 -281 0
-454 -282 0
-454 -283 0
-454 -287 0
-454 -288 0
-454 -289 0
-454 -290 0
-454 -291 0
-454 -292 0
-454 -293 0
-454 -294 0
-454 -298 0
-454 -299 0
-454 -300 0
-454 -301 0
-454 -302 0
-454 -303 0
-454 -304 0
-454 -305 0
-309 -320 0
-309 -331 0
-320 -331 0
-310 -321 0
-310 -332 0
-321 -332 0
-311 -322 0
-311 -333 0
-322 -333 0
-312 -323 0
-312 -334 0
-323 -334 0
-313 -324 0
-313 -335 0
-324 -335 0
-314 -325 0
-314 -336 0
-325 -336 0
-315 -326 0
-315 -337 0
-326 -337 0
-316 -327 0
-316 -338 0
-327 -338 0
-317 -328 0
-317 -339 0
-328 -339 0
-318 -329 0
-318 -340 0
-329 -340 0
-319 -330 0
-319 -341 0
-330 -341 0
455 456 457 458 459 460 461 462 463 0
-455 -456 0
-455 -457 0
-455 -458 0
-455 -459 0
-455 -460 0
-455 -461 0
-455 -462 0
-455 -463 0
-456 -457 0
-456 -458 0
-456 -459 0
-456 -460 0
-456 -461 0
-456 -462 0
-456 -463 0
-457 -458 0
-457 -459 0
-457 -460 0
-457 -461 0
-457 -462 0
-457 -463 0
-458 -459 0
-458 -460 0
-458 -461 0
-458 -462 0
-458 -463 0
-459 -460 0
-459 -461 0
-459 -462 0
-459 -463 0
-460 -461 0
-460 -462 0
-460 -463 0
-461 -462 0
-461 -463 0
-462 -463 0
-309 455 0
-310 455 456 0
-311 455 456 457 0
-312 456 457 458 0
-313 457 458 459 0
-314 458 459 460 0
-315 459 460 461 0
-316 460 461 462 0
-317 461 462 463 0
-318 462 463 0
-319 463 0
-320 455 0
-321 455 456 0
-322 455 456 457 0
-323 456 457 458 0
-324 457 458 459 0
-325 458 459 460 0
-326 459 460 461 0
-327 460 461 462 0
-328 461 462 463 0
-329 462 463 0
-330 463 0
-331 455 0
-332 455 456 0
-333 455 456 457 0
-334 456 457 458 0
-335 457 458 459 0
-336 458 459 460 0
-337 459 460 461 0
-338 460 461 462 0
-339 461 462 463 0
-340 462 463 0
-341 463 0
-455 -312 0
-455 -313 0
-455 -314 0
-455 -315 0
-455 -316 0
-455 -317 0
-455 -318 0
-455 -319 0
-455 -323 0
-455 -324 0
-455 -325 0
-455 -326 0
-455 -327 0
-455 -328 0
-455 -329 0
-455 -330 0
-455 -334 0
-455 -335 0
-455 -336 0
-455 -337 0
-455 -338 0
-455 -339 0
-455 -340 0
-455 -341 0
-456 -309 0
-456 -313 0
-456 -314 0
-456 -315 0
-456 -316 0
-456 -317 0
-456 -318 0
-456 -319 0
-456 -320 0
-456 -324 0
-456 -325 0
-456 -326 0
-456 -327 0
-456 -328 0
-456 -329 0
-456 -330 0
-456 -331 0
-456 -335 0
-456 -336 0
-456 -337 0
-456 -338 0
-456 -339 0
-456 -340 0
-456 -341 0
-457 -309 0
-457 -310 0
-457 -314 0
-457 -315 0
-457 -316 0
-457 -317 0
-457 -318 0
-457 -319 0
-457 -320 0
-457 -321 0
-457 -325 0
-457 -326 0
-457 -327 0
-457 -328 0
-457 -329 0
-457 -330 0
-457 -331 0
-457 -332 0
-457 -336 0
-457 -337 0
-457 -338 0
-457 -339 0
-457 -340 0
-457 -341 0
-458 -309 0
-458 -310 0
-458 -311 0
-458 -315 0
-458 -316 0
-458 -317 0
-458 -318 0
-458 -319 0
-458 -320 0
-458 -321 0
-458 -322 0
-458 -326 0
-458 -327 0
-458 -328 0
-458 -329 0
-458 -330 0
-458 -331 0
-458 -332 0
-458 -333 0
-458 -337 0
-458 -338 0
-458 -339 0
-458 -340 0
-458 -341 0
-459 -309 0
-459 -310 0
-459 -311 0
-459 -312 0
-459 -316 0
-459 -317 0
-459 -318 0
-459 -319 0
-459 -320 0
-459 -321 0
-459 -322 0
-459 -323 0
-459 -327 0
-459 -328 0
-459 -329 0
-459 -330 0
-459 -331 0
-459 -332 0
-459 -333 0
-459 -334 0
-459 -338 0
-459 -339 0
-459 -340 0
-459 -341 0
-460 -309 0
-460 -310 0
-460 -311 0
-460 -312 0
-460 -313 0
-460 -317 0
-460 -318 0
-460 -319 0
-460 -320 0
-460 -321 0
-460 -322 0
-460 -323 0
-460 -324 0
-460 -328 0
-460 -329 0
-460 -330 0
-460 -331 0
-460 -332 0
-460 -333 0
-460 -334 0
-460 -335 0
-460 -339 0
-460 -340 0
-460 -341 0
-461 -309 0
-461 -310 0
-461 -311 0
-461 -312 0
-461 -313 0
-461 -314 0
-461 -318 0
-461 -319 0
-461 -320 0
-461 -321 0
-461 -322 0
-461 -323 0
-461 -324 0
-461 -325 0
-461 -329 0
-461 -330 0
-461 -331 0
-461 -332 0
-461 -333 0
-461 -334 0
-461 -335 0
-461 -336 0
-461 -340 0
-461 -341 0
-462 -309 0
-462 -310 0
-462 -311 0
-462 -312 0
-462 -313 0
-462 -314 0
-462 -315 0
-462 -319 0
-462 -320 0
-462 -321 0
-462 -322 0
-462 -323 0
-462 -324 0
-462 -325 0
-462 -326 0
-462 -330 0
-462 -331 0
-462 -332 0
-462 -333 0
-462 -334 0
-462 -335 0
-462 -336 0
-462 -337 0
-462 -341 0
-463 -309 0
-463 -310 0
-463 -311 0
-463 -312 0
-463 -313 0
-463 -314 0
-463 -315 0
-463 -316 0
-463 -320 0
-463 -321 0
-463 -322 0
-463 -323 0
-463 -324 0
-463 -325 0
-463 -326 0
-463 -327 0
-463 -331 0
-463 -332 0
-463 -333 0
-463 -334 0
-463 -335 0
-463 -336 0
-463 -337 0
-463 -338 0
-342 -353 0
-342 -364 0
-353 -364 0
-343 -354 0
-343 -365 0
-354 -365 0
-344 -355 0
-344 -366 0
-355 -366 0
-345 -356 0
-345 -367 0
-356 -367 0
-346 -357 0
-346 -368 0
-357 -368 0
-347 -358 0
-347 -369 0
-358 -369 0
-348 -359 0
-348 -370 0
-359 -370 0
-349 -360 0
-349 -371 0
-360 -371 0
-350 -361 0
-350 -372 0
-361 -372 0
-351 -362 0
-351 -373 0
-362 -373 0
-352 -363 0
-352 -374 0
-363 -374 0
464 465 466 467 468 469 470 471 472 0
-464 -465 0
-464 -466 0
-464 -467 0
-464 -468 0
-464 -469 0
-464 -470 0
-464 -471 0
-464 -472 0
-465 -466 0
-465 -467 0
-465 -468 0
-465 -469 0
-465 -470 0
-465 -471 0
-465 -472 0
-466 -467 0
-466 -468 0
-466 -469 0
-466 -470 0
-466 -471 0
-466 -472 0
-467 -468 0
-467 -469 0
-467 -470 0
-467 -471 0
-467 -472 0
-468 -469 0
-468 -470 0
-468 -471 0
-468 -472 0
-469 -470 0
-469 -471 0
-469 -472 0
-470 -471 0
-470 -472 0
-471 -472 0
-342 464 0
-343 464 465 0
-344 464 465 466 0
-345 465 466 467 0
-346 466 467 468 0
-347 467 468 469 0
-348 468 469 470 0
-349 469 470 471 0
-350 470 471 472 0
-351 471 472 0
-352 472 0
-353 464 0
-354 464 465 0
-355 464 465 466 0
-356 465 466 467 0
-357 466 467 468 0
-358 467 468 469 0
-359 468 469 470 0
-360 469 470 471 0
-361 470 471 472 0
-362 471 472 0
-363 472 0
-364 464 0
-365 464 465 0
-366 464 465 466 0
-367 465 466 467 0
-368 466 467 468 0
-369 467 468 469 0
-370 468 469 470 0
-371 469 470 471 0
-372 470 471 472 0
-373 471 472 0
-374 472 0
-464 -345 0
-464 -346 0
-464 -347 0
-464 -348 0
-464 -349 0
-464 -350 0
-464 -351 0
-464 -352 0
-464 -356 0
-464 -357 0
-464 -358 0
-464 -359 0
-464 -360 0
-464 -361 0
-464 -362 0
-464 -363 0
-464 -367 0
-464 -368 0
-464 -369 0
-464 -370 0
-464 -371 0
-464 -372 0
-464 -373 0
-464 -374 0
-465 -342 0
-465 -346 0
-465 -347 0
-465 -348 0
-465 -349 0
-465 -350 0
-465 -351 0
-465 -352 0
-465 -353 0
-465 -357 0
-465 -358 0
-465 -359 0
-465 -360 0
-465 -361 0
-465 -362 0
-465 -363 0
-465 -364 0
-465 -368 0
-465 -369 0
-465 -370 0
-465 -371 0
-465 -372 0
-465 -373 0
-465 -374 0
-466 -342 0
-466 -343 0
-466 -347 0
-466 -348 0
-466 -349 0
-466 -350 0
-466 -351 0
-466 -352 0
-466 -353 0
-466 -354 0
-466 -358 0
-466 -359 0
-466 -360 0
-466 -361 0
-466 -362 0
-466 -363 0
-466 -364 0
-466 -365 0
-466 -369 0
-466 -370 0
-466 -371 0
-466 -372 0
-466 -373 0
-466 -374 0
-467 -342 0
-467 -343 0
-467 -344 0
-467 -348 0
-467 -349 0
-467 -350 0
-467 -351 0
-467 -352 0
-467 -353 0
-467 -354 0
-467 -355 0
-467 -359 0
-467 -360 0
-467 -361 0
-467 -362 0
-467 -363 0
-467 -364 0
-467 -365 0
-467 -366 0
-467 -370 0
-467 -371 0
-467 -372 0
-467 -373 0
-467 -374 0
-468 -342 0
-468 -343 0
-468 -344 0
-468 -345 0
-468 -349 0
-468 -350 0
-468 -351 0
-468 -352 0
-468 -353 0
-468 -354 0
-468 -355 0
-468 -356 0
-468 -360 0
-468 -361 0
-468 -362 0
-468 -363 0
-468 -364 0
-468 -365 0
-468 -366 0
-468 -367 0
-468 -371 0
-468 -372 0
-468 -373 0
-468 -374 0
-469 -342 0
-469 -343 0
-469 -344 0
-469 -345 0
-469 -346 0
-469 -350 0
-469 -351 0
-469 -352 0
-469 -353 0
-469 -354 0
-469 -355 0
-469 -356 0
-469 -357 0
-469 -361 0
-469 -362 0
-469 -363 0
-469 -364 0
-469 -365 0
-469 -366 0
-469 -367 0
-469 -368 0
-469 -372 0
-469 -373 0
-469 -374 0
-470 -342 0
-470 -343 0
-470 -344 0
-470 -345 0
-470 -346 0
-470 -347 0
-470 -351 0
-470 -352 0
-470 -353 0
-470 -354 0
-470 -355 0
-470 -356 0
-470 -357 0
-470 -358 0
-470 -362 0
-470 -363 0
-470 -364 0
-470 -365 0
-470 -366 0
-470 -367 0
-470 -368 0
-470 -369 0
-470 -373 0
-470 -374 0
-471 -342 0
-471 -343 0
-471 -344 0
-471 -345 0
-471 -346 0
-471 -347 0
-471 -348 0
-471 -352 0
-471 -353 0
-471 -354 0
-471 -355 0
-471 -356 0
-471 -357 0
-471 -358 0
-471 -359 0
-471 -363 0
-471 -364 0
-471 -365 0
-471 -366 0
-471 -367 0
-471 -368 0
-471 -369 0
-471 -370 0
-471 -374 0
-472 -342 0
-472 -343 0
-472 -344 0
-472 -345 0
-472 -346 0
-472 -347 0
-472 -348 0
-472 -349 0
-472 -353 0
-472 -354 0
-472 -355 0
-472 -356 0
-472 -357 0
-472 -358 0
-472 -359 0
-472 -360 0
-472 -364 0
-472 -365 0
-472 -366 0
-472 -367 0
-472 -368 0
-472 -369 0
-472 -370 0
-472 -371 0
-34 -67 0
-34 -100 0
-34 -133 0
-34 -166 0
-34 -199 0
-34 -232 0
-34 -265 0
-34 -298 0
-34 -331 0
-34 -364 0
-67 -100 0
-67 -133 0
-67 -166 0
-67 -199 0
-67 -232 0
-67 -265 0
-67 -298 0
-67 -331 0
-67 -364 0
-100 -133 0
-100 -166 0
-100 -199 0
-100 -232 0
-100 -265 0
-100 -298 0
-100 -331 0
-100 -364 0
-133 -166 0
-133 -199 0
-133 -232 0
-133 -265 0
-133 -298 0
-133 -331 0
-133 -364 0
-166 -199 0
-166 -232 0
-166 -265 0
-166 -298 0
-166 -331 0
-166 -364 0
-199 -232 0
-199 -265 0
-199 -298 0
-199 -331 0
-199 -364 0
-232 -265 0
-232 -298 0
-232 -331 0
-232 -364 0
-265 -298 0
-265 -331 0
-265 -364 0
-298 -331 0
-298 -364 0
-331 -364 0
-35 -68 0
-35 -101 0
-35 -134 0
-35 -167 0
-35 -200 0
-35 -233 0
-35 -266 0
-35 -299 0
-35 -332 0
-35 -365 0
-68 -101 0
-68 -134 0
-68 -167 0
-68 -200 0
-68 -233 0
-68 -266 0
-68 -299 0
-68 -332 0
-68 -365 0
-101 -134 0
-101 -167 0
-101 -200 0
-101 -233 0
-101 -266 0
-101 -299 0
-101 -332 0
-101 -365 0
-134 -167 0
-134 -200 0
-134 -233 0
-134 -266 0
-134 -299 0
-134 -332 0
-134 -365 0
-167 -200 0
-167 -233 0
-167 -266 0
-167 -299 0
-167 -332 0
-167 -365 0
-200 -233 0
-200 -266 0
-200 -299 0
-200 -332 0
-200 -365 0
-233 -266 0
-233 -299 0
-233 -332 0
-233 -365 0
-266 -299 0
-266 -332 0
-266 -365 0
-299 -332 0
-299 -365 0
-332 -365 0
-36 -69 0
-36 -102 0
-36 -135 0
-36 -168 0
-36 -201 0
-36 -234 0
-36 -267 0
-36 -300 0
-36 -333 0
-36 -366 0
-69 -102 0
-69 -135 0
-69 -168 0
-69 -201 0
-69 -234 0
-69 -267 0
-69 -300 0
-69 -333 0
-69 -366 0
-102 -135 0
-102 -168 0
-102 -201 0
-102 -234 0
-102 -267 0
-102 -300 0
-102 -333 0
-102 -366 0
-135 -168 0
-135 -201 0
-135 -234 0
-135 -267 0
-135 -300 0
-135 -333 0
-135 -366 0
-168 -201 0
-168 -234 0
-168 -267 0
-168 -300 0
-168 -333 0
-168 -366 0
-201 -234 0
-201 -267 0
-201 -300 0
-201 -333 0
-201 -366 0
-234 -267 0
-234 -300 0
-234 -333 0
-234 -366 0
-267 -300 0
-267 -333 0
-267 -366 0
-300 -333 0
-300 -366 0
-333 -366 0
-37 -70 0
-37 -103 0
-37 -136 0
-37 -169 0
-37 -202 0
-37 -235 0
-37 -268 0
-37 -301 0
-37 -334 0
-37 -367 0
-70 -103 0
-70 -136 0
-70 -169 0
-70 -202 0
-70 -235 0
-70 -268 0
-70 -301 0
-70 -334 0
-70 -367 0
-103 -136 0
-103 -169 0
-103 -202 0
-103 -235 0
-103 -268 0
-103 -301 0
-103 -334 0
-103 -367 0
-136 -169 0
-136 -202 0
-136 -235 0
-136 -268 0
-136 -301 0
-136 -334 0
-136 -367 0
-169 -202 0
-169 -235 0
-169 -268 0
-169 -301 0
-169 -334 0
-169 -367 0
-202 -235 0
-202 -268 0
-202 -301 0
-202 -334 0
-202 -367 0
-235 -268 0
-235 -301 0
-235 -334 0
-235 -367 0
-268 -301 0
-268 -334 0
-268 -367 0
-301 -334 0
-301 -367 0
-334 -367 0
-38 -71 0
-38 -104 0
-38 -137 0
-38 -170 0
-38 -203 0
-38 -236 0
-38 -269 0
-38 -302 0
-38 -335 0
-38 -368 0
-71 -104 0
-71 -137 0
-71 -170 0
-71 -203 0
-71 -236 0
-71 -269 0
-71 -302 0
-71 -335 0
-71 -368 0
-104 -137 0
-104 -170 0
-104 -203 0
-104 -236 0
-104 -269 0
-104 -302 0
-104 -335 0
-104 -368 0
-137 -170 0
-137 -203 0
-137 -236 0
-137 -269 0
-137 -302 0
-137 -335 0
-137 -368 0
-170 -203 0
-170 -236 0
-170 -269 0
-170 -302 0
-170 -335 0
-170 -368 0
-203 -236 0
-203 -269 0
-203 -302 0
-203 -335 0
-203 -368 0
-236 -269 0
-236 -302 0
-236 -335 0
-236 -368 0
-269 -302 0
-269 -335 0
-269 -368 0
-302 -335 0
-302 -368 0
-335 -368 0
-39 -72 0
-39 -105 0
-39 -138 0
-39 -171 0
-39 -204 0
-39 -237 0
-39 -270 0
-39 -303 0
-39 -336 0
-39 -369 0
-72 -105 0
-72 -138 0
-72 -171 0
-72 -204 0
-72 -237 0
-72 -270 0
-72 -303 0
-72 -336 0
-72 -369 0
-105 -138 0
-105 -171 0
-105 -204 0
-105 -237 0
-105 -270 0
-105 -303 0
-105 -336 0
-105 -369 0
-138 -171 0
-138 -204 0
-138 -237 0
-138 -270 0
-138 -303 0
-138 -336 0
-138 -369 0
-171 -204 0
-171 -237 0
-171 -270 0
-171 -303 0
-171 -336 0
-171 -369 0
-204 -237 0
-204 -270 0
-204 -303 0
-204 -336 0
-204 -369 0
-237 -270 0
-237 -303 0
-237 -336 0
-237 -369 0
-270 -303 0
-270 -336 0
-270 -369 0
-303 -336 0
-303 -369 0
-336 -369 0
-40 -73 0
-40 -106 0
-40 -139 0
-40 -172 0
-40 -205 0
-40 -238 0
-40 -271 0
-40 -304 0
-40 -337 0
-40 -370 0
-73 -106 0
-73 -139 0
-73 -172 0
-73 -205 0
-73 -238 0
-73 -271 0
-73 -304 0
-73 -337 0
-73 -370 0
-106 -139 0
-106 -172 0
-106 -205 0
-106 -238 0
-106 -271 0
-106 -304 0
-106 -337 0
-106 -370 0
-139 -172 0
-139 -205 0
-139 -238 0
-139 -271 0
-139 -304 0
-139 -337 0
-139 -370 0
-172 -205 0
-172 -238 0
-172 -271 0
-172 -304 0
-172 -337 0
-172 -370 0
-205 -238 0
-205 -271 0
-205 -304 0
-205 -337 0
-205 -370 0
-238 -271 0
-238 -304 0
-238 -337 0
-238 -370 0
-271 -304 0
-271 -337 0
-271 -370 0
-304 -337 0
-304 -370 0
-337 -370 0
-41 -74 0
-41 -107 0
-41 -140 0
-41 -173 0
-41 -206 0
-41 -239 0
-41 -272 0
-41 -305 0
-41 -338 0
-41 -371 0
-74 -107 0
-74 -140 0
-74 -173 0
-74 -206 0
-74 -239 0
-74 -272 0
-74 -305 0
-74 -338 0
-74 -371 0
-107 -140 0
-107 -173 0
-107 -206 0
-107 -239 0
-107 -272 0
-107 -305 0
-107 -338 0
-107 -371 0
-140 -173 0
-140 -206 0
-140 -239 0
-140 -272 0
-140 -305 0
-140 -338 0
-140 -371 0
-173 -206 0
-173 -239 0
-173 -272 0
-173 -305 0
-173 -338 0
-173 -371 0
-206 -239 0
-206 -272 0
-206 -305 0
-206 -338 0
-206 -371 0
-239 -272 0
-239 -305 0
-239 -338 0
-239 -371 0
-272 -305 0
-272 -338 0
-272 -371 0
-305 -338 0
-305 -371 0
-338 -371 0
-42 -75 0
-42 -108 0
-42 -141 0
-42 -174 0
-42 -207 0
-42 -240 0
-42 -273 0
-42 -306 0
-42 -339 0
-42 -372 0
-75 -108 0
-75 -141 0
-75 -174 0
-75 -207 0
-75 -240 0
-75 -273 0
-75 -306 0
-75 -339 0
-75 -372 0
-108 -141 0
-108 -174 0
-108 -207 0
-108 -240 0
-108 -273 0
-108 -306 0
-108 -339 0
-108 -372 0
-141 -174 0
-141 -207 0
-141 -240 0
-141 -273 0
-141 -306 0
-141 -339 0
-141 -372 0
-174 -207 0
-174 -240 0
-174 -273 0
-174 -306 0
-174 -339 0
-174 -372 0
-207 -240 0
-207 -273 0
-207 -306 0
-207 -339 0
-207 -372 0
-240 -273 0
-240 -306 0
-240 -339 0
-240 -372 0
-273 -306 0
-273 -339 0
-273 -372 0
-306 -339 0
-306 -372 0
-339 -372 0
-43 -76 0
-43 -109 0
-43 -142 0
-43 -175 0
-43 -208 0
-43 -241 0
-43 -274 0
-43 -307 0
-43 -340 0
-43 -373 0
-76 -109 0
-76 -142 0
-76 -175 0
-76 -208 0
-76 -241 0
-76 -274 0
-76 -307 0
-76 -340 0
-76 -373 0
-109 -142 0
-109 -175 0
-109 -208 0
-109 -241 0
-109 -274 0
-109 -307 0
-109 -340 0
-109 -373 0
-142 -175 0
-142 -208 0
-142 -241 0
-142 -274 0
-142 -307 0
-142 -340 0
-142 -373 0
-175 -208 0
-175 -241 0
-175 -274 0
-175 -307 0
-175 -340 0
-175 -373 0
-208 -241 0
-208 -274 0
-208 -307 0
-208 -340 0
-208 -373 0
-241 -274 0
-241 -307 0
-241 -340 0
-241 -373 0
-274 -307 0
-274 -340 0
-274 -373 0
-307 -340 0
-307 -373 0
-340 -373 0
-44 -77 0
-44 -110 0
-44 -143 0
-44 -176 0
-44 -209 0
-44 -242 0
-44 -275 0
-44 -308 0
-44 -341 0
-44 -374 0
-77 -110 0
-77 -143 0
-77 -176 0
-77 -209 0
-77 -242 0
-77 -275 0
-77 -308 0
-77 -341 0
-77 -374 0
-110 -143 0
-110 -176 0
-110 -209 0
-110 -242 0
-110 -275 0
-110 -308 0
-110 -341 0
-110 -374 0
-143 -176 0
-143 -209 0
-143 -242 0
-143 -275 0
-143 -308 0
-143 -341 0
-143 -374 0
-176 -209 0
-176 -242 0
-176 -275 0
-176 -308 0
-176 -341 0
-176 -374 0
-209 -242 0
-209 -275 0
-209 -308 0
-209 -341 0
-209 -374 0
-242 -275 0
-242 -308 0
-242 -341 0
-242 -374 0
-275 -308 0
-275 -341 0
-275 -374 0
-308 -341 0
-308 -374 0
-341 -374 0
473 0
-34 473 0
-35 473 0
-36 473 0
-37 473 0
-38 473 0
-39 473 0
-40 473 0
-41 473 0
-42 473 0
-43 473 0
-44 473 0
-67 473 0
-68 473 0
-69 473 0
-70 473 0
-71 473 0
-72 473 0
-73 473 0
-74 473 0
-75 473 0
-76 473 0
-77 473 0
-100 473 0
-101 473 0
-102 473 0
-103 473 0
-104 473 0
-105 473 0
-106 473 0
-107 473 0
-108 473 0
-109 473 0
-110 473 0
-133 473 0
-134 473 0
-135 473 0
-136 473 0
-137 473 0
-138 473 0
-139 473 0
-140 473 0
-141 473 0
-142 473 0
-143 473 0
-166 473 0
-167 473 0
-168 473 0
-169 473 0
-170 473 0
-171 473 0
-172 473 0
-173 473 0
-174 473 0
-175 473 0
-176 473 0
-199 473 0
-200 473 0
-201 473 0
-202 473 0
-203 473 0
-204 473 0
-205 473 0
-206 473 0
-207 473 0
-208 473 0
-209 473 0
-232 473 0
-233 473 0
-234 473 0
-235 473 0
-236 473 0
-237 473 0
-238 473 0
-239 473 0
-240 473 0
-241 473 0
-242 473 0
-265 473 0
-266 473 0
-267 473 0
-268 473 0
-269 473 0
-270 473 0
-271 473 0
-272 473 0
-273 473 0
-274 473 0
-275 473 0
-298 473 0
-299 473 0
-300 473 0
-301 473 0
-302 473 0
-303 473 0
-304 473 0
-305 473 0
-306 473 0
-307 473 0
-308 473 0
-331 473 0
-332 473 0
-333 473 0
-334 473 0
-335 473 0
-336 473 0
-337 473 0
-338 473 0
-339 473 0
-340 473 0
-341 473 0
-364 473 0
-365 473 0
-366 473 0
-367 473 0
-368 473 0
-369 473 0
-370 473 0
-371 473 0
-372 473 0
-373 473 0
-374 473 0
-1 -111 0
-1 -144 0
-111 -144 0
-2 -112 0
-2 -145 0
-112 -145 0
-3 -113 0
-3 -146 0
-113 -146 0
-4 -114 0
-4 -147 0
-114 -147 0
-5 -115 0
-5 -148 0
-115 -148 0
-6 -116 0
-6 -149 0
-116 -149 0
-7 -117 0
-7 -150 0
-117 -150 0
-8 -118 0
-8 -151 0
-118 -151 0
-9 -119 0
-9 -152 0
-119 -152 0
-10 -120 0
-10 -153 0
-120 -153 0
-11 -121 0
-11 -154 0
-121 -154 0
474 475 476 477 478 479 480 481 482 0
-474 -475 0
-474 -476 0
-474 -477 0
-474 -478 0
-474 -479 0
-474 -480 0
-474 -481 0
-474 -482 0
-475 -476 0
-475 -477 0
-475 -478 0
-475 -479 0
-475 -480 0
-475 -481 0
-475 -482 0
-476 -477 0
-476 -478 0
-476 -479 0
-476 -480 0
-476 -481 0
-476 -482 0
-477 -478 0
-477 -479 0
-477 -480 0
-477 -481 0
-477 -482 0
-478 -479 0
-478 -480 0
-478 -481 0
-478 -482 0
-479 -480 0
-479 -481 0
-479 -482 0
-480 -481 0
-480 -482 0
-481 -482 0
-1 474 0
-2 474 475 0
-3 474 475 476 0
-4 475 476 477 0
-5 476 477 478 0
-6 477 478 479 0
-7 478 479 480 0
-8 479 480 481 0
-9 480 481 482 0
-10 481 482 0
-11 482 0
-111 474 0
-112 474 475 0
-113 474 475 476 0
-114 475 476 477 0
-115 476 477 478 0
-116 477 478 479 0
-117 478 479 480 0
-118 479 480 481 0
-119 480 481 482 0
-120 481 482 0
-121 482 0
-144 474 0
-145 474 475 0
-146 474 475 476 0
-147 475 476 477 0
-148 476 477 478 0
-149 477 478 479 0
-150 478 479 480 0
-151 479 480 481 0
-152 480 481 482 0
-153 481 482 0
-154 482 0
-474 -4 0
-474 -5 0
-474 -6 0
-474 -7 0
-474 -8 0
-474 -9 0
-474 -10 0
-474 -11 0
-474 -114 0
-474 -115 0
-474 -116 0
-474 -117 0
-474 -118 0
-474 -119 0
-474 -120 0
-474 -121 0
-474 -147 0
-474 -148 0
-474 -149 0
-474 -150 0
-474 -151 0
-474 -152 0
-474 -153 0
-474 -154 0
-475 -1 0
-475 -5 0
-475 -6 0
-475 -7 0
-475 -8 0
-475 -9 0
-475 -10 0
-475 -11 0
-475 -111 0
-475 -115 0
-475 -116 0
-475 -117 0
-475 -118 0
-475 -119 0
-475 -120 0
-475 -121 0
-475 -144 0
-475 -148 0
-475 -149 0
-475 -150 0
-475 -151 0
-475 -152 0
-475 -153 0
-475 -154 0
-476 -1 0
-476 -2 0
-476 -6 0
-476 -7 0
-476 -8 0
-476 -9 0
-476 -10 0
-476 -11 0
-476 -111 0
-476 -112 0
-476 -116 0
-476 -117 0
-476 -118 0
-476 -119 0
-476 -120 0
-476 -121 0
-476 -144 0
-476 -145 0
-476 -149 0
-476 -150 0
-476 -151 0
-476 -152 0
-476 -153 0
-476 -154 0
-477 -1 0
-477 -2 0
-477 -3 0
-477 -7 0
-477 -8 0
-477 -9 0
-477 -10 0
-477 -11 0
-477 -111 0
-477 -112 0
-477 -113 0
-477 -117 0
-477 -118 0
-477 -119 0
-477 -120 0
-477 -121 0
-477 -144 0
-477 -145 0
-477 -146 0
-477 -150 0
-477 -151 0
-477 -152 0
-477 -153 0
-477 -154 0
-478 -1 0
-478 -2 0
-478 -3 0
-478 -4 0
-478 -8 0
-478 -9 0
-478 -10 0
-478 -11 0
-478 -111 0
-478 -112 0
-478 -113 0
-478 -114 0
-478 -118 0
-478 -119 0
-478 -120 0
-478 -121 0
-478 -144 0
-478 -145 0
-478 -146 0
-478 -147 0
-478 -151 0
-478 -152 0
-478 -153 0
-478 -154 0
-479 -1 0
-479 -2 0
-479 -3 0
-479 -4 0
-479 -5 0
-479 -9 0
-479 -10 0
-479 -11 0
-479 -111 0
-479 -112 0
-479 -113 0
-479 -114 0
-479 -115 0
-479 -119 0
-479 -120 0
-479 -121 0
-479 -144 0
-479 -145 0
-479 -146 0
-479 -147 0
-479 -148 0
-479 -152 0
-479 -153 0
-479 -154 0
-480 -1 0
-480 -2 0
-480 -3 0
-480 -4 0
-480 -5 0
-480 -6 0
-480 -10 0
-480 -11 0
-480 -111 0
-480 -112 0
-480 -113 0
-480 -114 0
-480 -115 0
-480 -116 0
-480 -120 0
-480 -121 0
-480 -144 0
-480 -145 0
-480 -146 0
-480 -147 0
-480 -148 0
-480 -149 0
-480 -153 0
-480 -154 0
-481 -1 0
-481 -2 0
-481 -3 0
-481 -4 0
-481 -5 0
-481 -6 0
-481 -7 0
-481 -11 0
-481 -111 0
-481 -112 0
-481 -113 0
-481 -114 0
-481 -115 0
-481 -116 0
-481 -117 0
-481 -121 0
-481 -144 0
-481 -145 0
-481 -146 0
-481 -147 0
-481 -148 0
-481 -149 0
-481 -150 0
-481 -154 0
-482 -1 0
-482 -2 0
-482 -3 0
-482 -4 0
-482 -5 0
-482 -6 0
-482 -7 0
-482 -8 0
-482 -111 0
-482 -112 0
-482 -113 0
-482 -114 0
-482 -115 0
-482 -116 0
-482 -117 0
-482 -118 0
-482 -144 0
-482 -145 0
-482 -146 0
-482 -147 0
-482 -148 0
-482 -149 0
-482 -150 0
-482 -151 0
-177 -210 0
-177 -243 0
-177 -276 0
-210 -243 0
-210 -276 0
-243 -276 0
-178 -211 0
-178 -244 0
-178 -277 0
-211 -244 0
-211 -277 0
-244 -277 0
-179 -212 0
-179 -245 0
-179 -278 0
-212 -245 0
-212 -278 0
-245 -278 0
-180 -213 0
-180 -246 0
-180 -279 0
-213 -246 0
-213 -279 0
-246 -279 0
-181 -214 0
-181 -247 0
-181 -280 0
-214 -247 0
-214 -280 0
-247 -280 0
-182 -215 0
-182 -248 0
-182 -281 0
-215 -248 0
-215 -281 0
-248 -281 0
-183 -216 0
-183 -249 0
-183 -282 0
-216 -249 0
-216 -282 0
-249 -282 0
-184 -217 0
-184 -250 0
-184 -283 0
-217 -250 0
-217 -283 0
-250 -283 0
-185 -218 0
-185 -251 0
-185 -284 0
-218 -251 0
-218 -284 0
-251 -284 0
-186 -219 0
-186 -252 0
-186 -285 0
-219 -252 0
-219 -285 0
-252 -285 0
-187 -220 0
-187 -253 0
-187 -286 0
-220 -253 0
-220 -286 0
-253 -286 0
483 484 485 486 487 488 489 490 0
-483 -484 0
-483 -485 0
-483 -486 0
-483 -487 0
-483 -488 0
-483 -489 0
-483 -490 0
-484 -485 0
-484 -486 0
-484 -487 0
-484 -488 0
-484 -489 0
-484 -490 0
-485 -486 0
-485 -487 0
-485 -488 0
-485 -489 0
-485 -490 0
-486 -487 0
-486 -488 0
-486 -489 0
-486 -490 0
-487 -488 0
-487 -489 0
-487 -490 0
-488 -489 0
-488 -490 0
-489 -490 0
-177 483 0
-178 483 484 0
-179 483 484 485 0
-180 483 484 485 486 0
-181 484 485 486 487 0
-182 485 486 487 488 0
-183 486 487 488 489 0
-184 487 488 489 490 0
-185 488 489 490 0
-186 489 490 0
-187 490 0
-210 483 0
-211 483 484 0
-212 483 484 485 0
-213 483 484 485 486 0
-214 484 485 486 487 0
-215 485 486 487 488 0
-216 486 487 488 489 0
-217 487 488 489 490 0
-218 488 489 490 0
-219 489 490 0
-220 490 0
-243 483 0
-244 483 484 0
-245 483 484 485 0
-246 483 484 485 486 0
-247 484 485 486 487 0
-248 485 486 487 488 0
-249 486 487 488 489 0
-250 487 488 489 490 0
-251 488 489 490 0
-252 489 490 0
-253 490 0
-276 483 0
-277 483 484 0
-278 483 484 485 0
-279 483 484 485 486 0
-280 484 485 486 487 0
-281 485 486 487 488 0
-282 486 487 488 489 0
-283 487 488 489 490 0
-284 488 489 490 0
-285 489 490 0
-286 490 0
-483 -181 0
-483 -182 0
-483 -183 0
-483 -184 0
-483 -185 0
-483 -186 0
-483 -187 0
-483 -214 0
-483 -215 0
-483 -216 0
-483 -217 0
-483 -218 0
-483 -219 0
-483 -220 0
-483 -247 0
-483 -248 0
-483 -249 0
-483 -250 0
-483 -251 0
-483 -252 0
-483 -253 0
-483 -280 0
-483 -281 0
-483 -282 0
-483 -283 0
-483 -284 0
-483 -285 0
-483 -286 0
-484 -177 0
-484 -182 0
-484 -183 0
-484 -184 0
-484 -185 0
-484 -186 0
-484 -187 0
-484 -210 0
-484 -215 0
-484 -216 0
-484 -217 0
-484 -218 0
-484 -219 0
-484 -220 0
-484 -243 0
-484 -248 0
-484 -249 0
-484 -250 0
-484 -251 0
-484 -252 0
-484 -253 0
-484 -276 0
-484 -281 0
-484 -282 0
-484 -283 0
-484 -284 0
-484 -285 0
-484 -286 0
-485 -177 0
-485 -178 0
-485 -183 0
-485 -184 0
-485 -185 0
-485 -186 0
-485 -187 0
-485 -210 0
-485 -211 0
-485 -216 0
-485 -217 0
-485 -218 0
-485 -219 0
-485 -220 0
-485 -243 0
-485 -244 0
-485 -249 0
-485 -250 0
-485 -251 0
-485 -252 0
-485 -253 0
-485 -276 0
-485 -277 0
-485 -282 0
-485 -283 0
-485 -284 0
-485 -285 0
-485 -286 0
-486 -177 0
-486 -178 0
-486 -179 0
-486 -184 0
-486 -185 0
-486 -186 0
-486 -187 0
-486 -210 0
-486 -211 0
-486 -212 0
-486 -217 0
-486 -218 0
-486 -219 0
-486 -220 0
-486 -243 0
-486 -244 0
-486 -245 0
-486 -250 0
-486 -251 0
-486 -252 0
-486 -253 0
-486 -276 0
-486 -277 0
-486 -278 0
-486 -283 0
-486 -284 0
-486 -285 0
-486 -286 0
-487 -177 0
-487 -178 0
-487 -179 0
-487 -180 0
-487 -185 0
-487 -186 0
-487 -187 0
-487 -210 0
-487 -211 0
-487 -212 0
-487 -213 0
-487 -218 0
-487 -219 0
-487 -220 0
-487 -243 0
-487 -244 0
-487 -245 0
-487 -246 0
-487 -251 0
-487 -252 0
-487 -253 0
-487 -276 0
-487 -277 0
-487 -278 0
-487 -279 0
-487 -284 0
-487 -285 0
-487 -286 0
-488 -177 0
-488 -178 0
-488 -179 0
-488 -180 0
-488 -181 0
-488 -186 0
-488 -187 0
-488 -210 0
-488 -211 0
-488 -212 0
-488 -213 0
-488 -214 0
-488 -219 0
-488 -220 0
-488 -243 0
-488 -244 0
-488 -245 0
-488 -246 0
-488 -247 0
-488 -252 0
-488 -253 0
-488 -276 0
-488 -277 0
-488 -278 0
-488 -279 0
-488 -280 0
-488 -285 0
-488 -286 0
-489 -177 0
-489 -178 0
-489 -179 0
-489 -180 0
-489 -181 0
-489 -182 0
-489 -187 0
-489 -210 0
-489 -211 0
-489 -212 0
-489 -213 0
-489 -214 0
-489 -215 0
-489 -220 0
-489 -243 0
-489 -244 0
-489 -245 0
-489 -246 0
-489 -247 0
-489 -248 0
-489 -253 0
-489 -276 0
-489 -277 0
-489 -278 0
-489 -279 0
-489 -280 0
-489 -281 0
-489 -286 0
-490 -177 0
-490 -178 0
-490 -179 0
-490 -180 0
-490 -181 0
-490 -182 0
-490 -183 0
-490 -210 0
-490 -211 0
-490 -212 0
-490 -213 0
-490 -214 0
-490 -215 0
-490 -216 0
-490 -243 0
-490 -244 0
-490 -245 0
-490 -246 0
-490 -247 0
-490 -248 0
-490 -249 0
-490 -276 0
-490 -277 0
-490 -278 0
-490 -279 0
-490 -280 0
-490 -281 0
-490 -282 0
-45 -78 0
-45 -309 0
-45 -342 0
-78 -309 0
-78 -342 0
-309 -342 0
-46 -79 0
-46 -310 0
-46 -343 0
-79 -310 0
-79 -343 0
-310 -343 0
-47 -80 0
-47 -311 0
-47 -344 0
-80 -311 0
-80 -344 0
-311 -344 0
-48 -81 0
-48 -312 0
-48 -345 0
-81 -312 0
-81 -345 0
-312 -345 0
-49 -82 0
-49 -313 0
-49 -346 0
-82 -313 0
-82 -346 0
-313 -346 0
-50 -83 0
-50 -314 0
-50 -347 0
-83 -314 0
-83 -347 0
-314 -347 0
-51 -84 0
-51 -315 0
-51 -348 0
-84 -315 0
-84 -348 0
-315 -348 0
-52 -85 0
-52 -316 0
-52 -349 0
-85 -316 0
-85 -349 0
-316 -349 0
-53 -86 0
-53 -317 0
-53 -350 0
-86 -317 0
-86 -350 0
-317 -350 0
-54 -87 0
-54 -318 0
-54 -351 0
-87 -318 0
-87 -351 0
-318 -351 0
-55 -88 0
-55 -319 0
-55 -352 0
-88 -319 0
-88 -352 0
-319 -352 0
491 492 493 494 495 496 497 498 0
-491 -492 0
-491 -493 0
-491 -494 0
-491 -495 0
-491 -496 0
-491 -497 0
-491 -498 0
-492 -493 0
-492 -494 0
-492 -495 0
-492 -496 0
-492 -497 0
-492 -498 0
-493 -494 0
-493 -495 0
-493 -496 0
-493 -497 0
-493 -498 0
-494 -495 0
-494 -496 0
-494 -497 0
-494 -498 0
-495 -496 0
-495 -497 0
-495 -498 0
-496 -497 0
-496 -498 0
-497 -498 0
-45 491 0
-46 491 492 0
-47 491 492 493 0
-48 491 492 493 494 0
-49 492 493 494 495 0
-50 493 494 495 496 0
-51 494 495 496 497 0
-52 495 496 497 498 0
-53 496 497 498 0
-54 497 498 0
-55 498 0
-78 491 0
-79 491 492 0
-80 491 492 493 0
-81 491 492 493 494 0
-82 492 493 494 495 0
-83 493 494 495 496 0
-84 494 495 496 497 0
-85 495 496 497 498 0
-86 496 497 498 0
-87 497 498 0
-88 498 0
-309 491 0
-310 491 492 0
-311 491 492 493 0
-312 491 492 493 494 0
-313 492 493 494 495 0
-314 493 494 495 496 0
-315 494 495 496 497 0
-316 495 496 497 498 0
-317 496 497 498 0
-318 497 498 0
-319 498 0
-342 491 0
-343 491 492 0
-344 491 492 493 0
-345 491 492 493 494 0
-346 492 493 494 495 0
-347 493 494 495 496 0
-348 494 495 496 497 0
-349 495 496 497 498 0
-350 496 497 498 0
-351 497 498 0
-352 498 0
-491 -49 0
-491 -50 0
-491 -51 0
-491 -52 0
-491 -53 0
-491 -54 0
-491 -55 0
-491 -82 0
-491 -83 0
-491 -84 0
-491 -85 0
-491 -86 0
-491 -87 0
-491 -88 0
-491 -313 0
-491 -314 0
-491 -315 0
-491 -316 0
-491 -317 0
-491 -318 0
-491 -319 0
-491 -346 0
-491 -347 0
-491 -348 0
-491 -349 0
-491 -350 0
-491 -351 0
-491 -352 0
-492 -45 0
-492 -50 0
-492 -51 0
-492 -52 0
-492 -53 0
-492 -54 0
-492 -55 0
-492 -78 0
-492 -83 0
-492 -84 0
-492 -85 0
-492 -86 0
-492 -87 0
-492 -88 0
-492 -309 0
-492 -314 0
-492 -315 0
-492 -316 0
-492 -317 0
-492 -318 0
-492 -319 0
-492 -342 0
-492 -347 0
-492 -348 0
-492 -349 0
-492 -350 0
-492 -351 0
-492 -352 0
-493 -45 0
-493 -46 0
-493 -51 0
-493 -52 0
-493 -53 0
-493 -54 0
-493 -55 0
-493 -78 0
-493 -79 0
-493 -84 0
-493 -85 0
-493 -86 0
-493 -87 0
-493 -88 0
-493 -309 0
-493 -310 0
-493 -315 0
-493 -316 0
-493 -317 0
-493 -318 0
-493 -319 0
-493 -342 0
-493 -343 0
-493 -348 0
-493 -349 0
-493 -350 0
-493 -351 0
-493 -352 0
-494 -45 0
-494 -46 0
-494 -47 0
-494 -52 0
-494 -53 0
-494 -54 0
-494 -55 0
-494 -78 0
-494 -79 0
-494 -80 0
-494 -85 0
-494 -86 0
-494 -87 0
-494 -88 0
-494 -309 0
-494 -310 0
-494 -311 0
-494 -316 0
-494 -317 0
-494 -318 0
-494 -319 0
-494 -342 0
-494 -343 0
-494 -344 0
-494 -349 0
-494 -350 0
-494 -351 0
-494 -352 0
-495 -45 0
-495 -46 0
-495 -47 0
-495 -48 0
-495 -53 0
-495 -54 0
-495 -55 0
-495 -78 0
-495 -79 0
-495 -80 0
-495 -81 0
-495 -86 0
-495 -87 0
-495 -88 0
-495 -309 0
-495 -310 0
-495 -311 0
-495 -312 0
-495 -317 0
-495 -318 0
-495 -319 0
-495 -342 0
-495 -343 0
-495 -344 0
-495 -345 0
-495 -350 0
-495 -351 0
-495 -352 0
-496 -45 0
-496 -46 0
-496 -47 0
-496 -48 0
-496 -49 0
-496 -54 0
-496 -55 0
-496 -78 0
-496 -79 0
-496 -80 0
-496 -81 0
-496 -82 0
-496 -87 0
-496 -88 0
-496 -309 0
-496 -310 0
-496 -311 0
-496 -312 0
-496 -313 0
-496 -318 0
-496 -319 0
-496 -342 0
-496 -343 0
-496 -344 0
-496 -345 0
-496 -346 0
-496 -351 0
-496 -352 0
-497 -45 0
-497 -46 0
-497 -47 0
-497 -48 0
-497 -49 0
-497 -50 0
-497 -55 0
-497 -78 0
-497 -79 0
-497 -80 0
-497 -81 0
-497 -82 0
-497 -83 0
-497 -88 0
-497 -309 0
-497 -310 0
-497 -311 0
-497 -312 0
-497 -313 0
-497 -314 0
-497 -319 0
-497 -342 0
-497 -343 0
-497 -344 0
-497 -345 0
-497 -346 0
-497 -347 0
-497 -352 0
-498 -45 0
-498 -46 0
-498 -47 0
-498 -48 0
-498 -49 0
-498 -50 0
-498 -51 0
-498 -78 0
-498 -79 0
-498 -80 0
-498 -81 0
-498 -82 0
-498 -83 0
-498 -84 0
-498 -309 0
-498 -310 0
-498 -311 0
-498 -312 0
-498 -313 0
-498 -314 0
-498 -315 0
-498 -342 0
-498 -343 0
-498 -344 0
-498 -345 0
-498 -346 0
-498 -347 0
-498 -348 0
-12 -188 0
-12 -320 0
-188 -320 0
-13 -189 0
-13 -321 0
-189 -321 0
-14 -190 0
-14 -322 0
-190 -322 0
-15 -191 0
-15 -323 0
-191 -323 0
-16 -192 0
-16 -324 0
-192 -324 0
-17 -193 0
-17 -325 0
-193 -325 0
-18 -194 0
-18 -326 0
-194 -326 0
-19 -195 0
-19 -327 0
-195 -327 0
-20 -196 0
-20 -328 0
-196 -328 0
-21 -197 0
-21 -329 0
-197 -329 0
-22 -198 0
-22 -330 0
-198 -330 0
499 500 501 502 503 504 505 506 507 0
-499 -500 0
-499 -501 0
-499 -502 0
-499 -503 0
-499 -504 0
-499 -505 0
-499 -506 0
-499 -507 0
-500 -501 0
-500 -502 0
-500 -503 0
-500 -504 0
-500 -505 0
-500 -506 0
-500 -507 0
-501 -502 0
-501 -503 0
-501 -504 0
-501 -505 0
-501 -506 0
-501 -507 0
-502 -503 0
-502 -504 0
-502 -505 0
-502 -506 0
-502 -507 0
-503 -504 0
-503 -505 0
-503 -506 0
-503 -507 0
-504 -505 0
-504 -506 0
-504 -507 0
-505 -506 0
-505 -507 0
-506 -507 0
-12 499 0
-13 499 500 0
-14 499 500 501 0
-15 500 501 502 0
-16 501 502 503 0
-17 502 503 504 0
-18 503 504 505 0
-19 504 505 506 0
-20 505 506 507 0
-21 506 507 0
-22 507 0
-188 499 0
-189 499 500 0
-190 499 500 501 0
-191 500 501 502 0
-192 501 502 503 0
-193 502 503 504 0
-194 503 504 505 0
-195 504 505 506 0
-196 505 506 507 0
-197 506 507 0
-198 507 0
-320 499 0
-321 499 500 0
-322 499 500 501 0
-323 500 501 502 0
-324 501 502 503 0
-325 502 503 504 0
-326 503 504 505 0
-327 504 505 506 0
-328 505 506 507 0
-329 506 507 0
-330 507 0
-499 -15 0
-499 -16 0
-499 -17 0
-499 -18 0
-499 -19 0
-499 -20 0
-499 -21 0
-499 -22 0
-499 -191 0
-499 -192 0
-499 -193 0
-499 -194 0
-499 -195 0
-499 -196 0
-499 -197 0
-499 -198 0
-499 -323 0
-499 -324 0
-499 -325 0
-499 -326 0
-499 -327 0
-499 -328 0
-499 -329 0
-499 -330 0
-500 -12 0
-500 -16 0
-500 -17 0
-500 -18 0
-500 -19 0
-500 -20 0
-500 -21 0
-500 -22 0
-500 -188 0
-500 -192 0
-500 -193 0
-500 -194 0
-500 -195 0
-500 -196 0
-500 -197 0
-500 -198 0
-500 -320 0
-500 -324 0
-500 -325 0
-500 -326 0
-500 -327 0
-500 -328 0
-500 -329 0
-500 -330 0
-501 -12 0
-501 -13 0
-501 -17 0
-501 -18 0
-501 -19 0
-501 -20 0
-501 -21 0
-501 -22 0
-501 -188 0
-501 -189 0
-501 -193 0
-501 -194 0
-501 -195 0
-501 -196 0
-501 -197 0
-501 -198 0
-501 -320 0
-501 -321 0
-501 -325 0
-501 -326 0
-501 -327 0
-501 -328 0
-501 -329 0
-501 -330 0
-502 -12 0
-502 -13 0
-502 -14 0
-502 -18 0
-502 -19 0
-502 -20 0
-502 -21 0
-502 -22 0
-502 -188 0
-502 -189 0
-502 -190 0
-502 -194 0
-502 -195 0
-502 -196 0
-502 -197 0
-502 -198 0
-502 -320 0
-502 -321 0
-502 -322 0
-502 -326 0
-502 -327 0
-502 -328 0
-502 -329 0
-502 -330 0
-503 -12 0
-503 -13 0
-503 -14 0
-503 -15 0
-503 -19 0
-503 -20 0
-503 -21 0
-503 -22 0
-503 -188 0
-503 -189 0
-503 -190 0
-503 -191 0
-503 -195 0
-503 -196 0
-503 -197 0
-503 -198 0
-503 -320 0
-503 -321 0
-503 -322 0
-503 -323 0
-503 -327 0
-503 -328 0
-503 -329 0
-503 -330 0
-504 -12 0
-504 -13 0
-504 -14 0
-504 -15 0
-504 -16 0
-504 -20 0
-504 -21 0
-504 -22 0
-504 -188 0
-504 -189 0
-504 -190 0
-504 -191 0
-504 -192 0
-504 -196 0
-504 -197 0
-504 -198 0
-504 -320 0
-504 -321 0
-504 -322 0
-504 -323 0
-504 -324 0
-504 -328 0
-504 -329 0
-504 -330 0
-505 -12 0
-505 -13 0
-505 -14 0
-505 -15 0
-505 -16 0
-505 -17 0
-505 -21 0
-505 -22 0
-505 -188 0
-505 -189 0
-505 -190 0
-505 -191 0
-505 -192 0
-505 -193 0
-505 -197 0
-505 -198 0
-505 -320 0
-505 -321 0
-505 -322 0
-505 -323 0
-505 -324 0
-505 -325 0
-505 -329 0
-505 -330 0
-506 -12 0
-506 -13 0
-506 -14 0
-506 -15 0
-506 -16 0
-506 -17 0
-506 -18 0
-506 -22 0
-506 -188 0
-506 -189 0
-506 -190 0
-506 -191 0
-506 -192 0
-506 -193 0
-506 -194 0
-506 -198 0
-506 -320 0
-506 -321 0
-506 -322 0
-506 -323 0
-506 -324 0
-506 -325 0
-506 -326 0
-506 -330 0
-507 -12 0
-507 -13 0
-507 -14 0
-507 -15 0
-507 -16 0
-507 -17 0
-507 -18 0
-507 -19 0
-507 -188 0
-507 -189 0
-507 -190 0
-507 -191 0
-507 -192 0
-507 -193 0
-507 -194 0
-507 -195 0
-507 -320 0
-507 -321 0
-507 -322 0
-507 -323 0
-507 -324 0
-507 -325 0
-507 -326 0
-507 -327 0
-23 -221 0
-23 -353 0
-221 -353 0
-24 -222 0
-24 -354 0
-222 -354 0
-25 -223 0
-25 -355 0
-223 -355 0
-26 -224 0
-26 -356 0
-224 -356 0
-27 -225 0
-27 -357 0
-225 -357 0
-28 -226 0
-28 -358 0
-226 -358 0
-29 -227 0
-29 -359 0
-227 -359 0
-30 -228 0
-30 -360 0
-228 -360 0
-31 -229 0
-31 -361 0
-229 -361 0
-32 -230 0
-32 -362 0
-230 -362 0
-33 -231 0
-33 -363 0
-231 -363 0
508 509 510 511 512 513 514 515 516 0
-508 -509 0
-508 -510 0
-508 -511 0
-508 -512 0
-508 -513 0
-508 -514 0
-508 -515 0
-508 -516 0
-509 -510 0
-509 -511 0
-509 -512 0
-509 -513 0
-509 -514 0
-509 -515 0
-509 -516 0
-510 -511 0
-510 -512 0
-510 -513 0
-510 -514 0
-510 -515 0
-510 -516 0
-511 -512 0
-511 -513 0
-511 -514 0
-511 -515 0
-511 -516 0
-512 -513 0
-512 -514 0
-512 -515 0
-512 -516 0
-513 -514 0
-513 -515 0
-513 -516 0
-514 -515 0
-514 -516 0
-515 -516 0
-23 508 0
-24 508 509 0
-25 508 509 510 0
-26 509 510 511 0
-27 510 511 512 0
-28 511 512 513 0
-29 512 513 514 0
-30 513 514 515 0
-31 514 515 516 0
-32 515 516 0
-33 516 0
-221 508 0
-222 508 509 0
-223 508 509 510 0
-224 509 510 511 0
-225 510 511 512 0
-226 511 512 513 0
-227 512 513 514 0
-228 513 514 515 0
-229 514 515 516 0
-230 515 516 0
-231 516 0
-353 508 0
-354 508 509 0
-355 508 509 510 0
-356 509 510 511 0
-357 510 511 512 0
-358 511 512 513 0
-359 512 513 514 0
-360 513 514 515 0
-361 514 515 516 0
-362 515 516 0
-363 516 0
-508 -26 0
-508 -27 0
-508 -28 0
-508 -29 0
-508 -30 0
-508 -31 0
-508 -32 0
-508 -33 0
-508 -224 0
-508 -225 0
-508 -226 0
-508 -227 0
-508 -228 0
-508 -229 0
-508 -230 0
-508 -231 0
-508 -356 0
-508 -357 0
-508 -358 0
-508 -359 0
-508 -360 0
-508 -361 0
-508 -362 0
-508 -363 0
-509 -23 0
-509 -27 0
-509 -28 0
-509 -29 0
-509 -30 0
-509 -31 0
-509 -32 0
-509 -33 0
-509 -221 0
-509 -225 0
-509 -226 0
-509 -227 0
-509 -228 0
-509 -229 0
-509 -230 0
-509 -231 0
-509 -353 0
-509 -357 0
-509 -358 0
-509 -359 0
-509 -360 0
-509 -361 0
-509 -362 0
-509 -363 0
-510 -23 0
-510 -24 0
-510 -28 0
-510 -29 0
-510 -30 0
-510 -31 0
-510 -32 0
-510 -33 0
-510 -221 0
-510 -222 0
-510 -226 0
-510 -227 0
-510 -228 0
-510 -229 0
-510 -230 0
-510 -231 0
-510 -353 0
-510 -354 0
-510 -358 0
-510 -359 0
-510 -360 0
-510 -361 0
-510 -362 0
-510 -363 0
-511 -23 0
-511 -24 0
-511 -25 0
-511 -29 0
-511 -30 0
-511 -31 0
-511 -32 0
-511 -33 0
-511 -221 0
-511 -222 0
-511 -223 0
-511 -227 0
-511 -228 0
-511 -229 0
-511 -230 0
-511 -231 0
-511 -353 0
-511 -354 0
-511 -355 0
-511 -359 0
-511 -360 0
-511 -361 0
-511 -362 0
-511 -363 0
-512 -23 0
-512 -24 0
-512 -25 0
-512 -26 0
-512 -30 0
-512 -31 0
-512 -32 0
-512 -33 0
-512 -221 0
-512 -222 0
-512 -223 0
-512 -224 0
-512 -228 0
-512 -229 0
-512 -230 0
-512 -231 0
-512 -353 0
-512 -354 0
-512 -355 0
-512 -356 0
-512 -360 0
-512 -361 0
-512 -362 0
-512 -363 0
-513 -23 0
-513 -24 0
-513 -25 0
-513 -26 0
-513 -27 0
-513 -31 0
-513 -32 0
-513 -33 0
-513 -221 0
-513 -222 0
-513 -223 0
-513 -224 0
-513 -225 0
-513 -229 0
-513 -230 0
-513 -231 0
-513 -353 0
-513 -354 0
-513 -355 0
-513 -356 0
-513 -357 0
-513 -361 0
-513 -362 0
-513 -363 0
-514 -23 0
-514 -24 0
-514 -25 0
-514 -26 0
-514 -27 0
-514 -28 0
-514 -32 0
-514 -33 0
-514 -221 0
-514 -222 0
-514 -223 0
-514 -224 0
-514 -225 0
-514 -226 0
-514 -230 0
-514 -231 0
-514 -353 0
-514 -354 0
-514 -355 0
-514 -356 0
-514 -357 0
-514 -358 0
-514 -362 0
-514 -363 0
-515 -23 0
-515 -24 0
-515 -25 0
-515 -26 0
-515 -27 0
-515 -28 0
-515 -29 0
-515 -33 0
-515 -221 0
-515 -222 0
-515 -223 0
-515 -224 0
-515 -225 0
-515 -226 0
-515 -227 0
-515 -231 0
-515 -353 0
-515 -354 0
-515 -355 0
-515 -356 0
-515 -357 0
-515 -358 0
-515 -359 0
-515 -363 0
-516 -23 0
-516 -24 0
-516 -25 0
-516 -26 0
-516 -27 0
-516 -28 0
-516 -29 0
-516 -30 0
-516 -221 0
-516 -222 0
-516 -223 0
-516 -224 0
-516 -225 0
-516 -226 0
-516 -227 0
-516 -228 0
-516 -353 0
-516 -354 0
-516 -355 0
-516 -356 0
-516 -357 0
-516 -358 0
-516 -359 0
-516 -360 0
-56 -122 0
-56 -254 0
-122 -254 0
-57 -123 0
-57 -255 0
-123 -255 0
-58 -124 0
-58 -256 0
-124 -256 0
-59 -125 0
-59 -257 0
-125 -257 0
-60 -126 0
-60 -258 0
-126 -258 0
-61 -127 0
-61 -259 0
-127 -259 0
-62 -128 0
-62 -260 0
-128 -260 0
-63 -129 0
-63 -261 0
-129 -261 0
-64 -130 0
-64 -262 0
-130 -262 0
-65 -131 0
-65 -263 0
-131 -263 0
-66 -132 0
-66 -264 0
-132 -264 0
517 518 519 520 521 522 523 524 525 0
-517 -518 0
-517 -519 0
-517 -520 0
-517 -521 0
-517 -522 0
-517 -523 0
-517 -524 0
-517 -525 0
-518 -519 0
-518 -520 0
-518 -521 0
-518 -522 0
-518 -523 0
-518 -524 0
-518 -525 0
-519 -520 0
-519 -521 0
-519 -522 0
-519 -523 0
-519 -524 0
-519 -525 0
-520 -521 0
-520 -522 0
-520 -523 0
-520 -524 0
-520 -525 0
-521 -522 0
-521 -523 0
-521 -524 0
-521 -525 0
-522 -523 0
-522 -524 0
-522 -525 0
-523 -524 0
-523 -525 0
-524 -525 0
-56 517 0
-57 517 518 0
-58 517 518 519 0
-59 518 519 520 0
-60 519 520 521 0
-61 520 521 522 0
-62 521 522 523 0
-63 522 523 524 0
-64 523 524 525 0
-65 524 525 0
-66 525 0
-122 517 0
-123 517 518 0
-124 517 518 519 0
-125 518 519 520 0
-126 519 520 521 0
-127 520 521 522 0
-128 521 522 523 0
-129 522 523 524 0
-130 523 524 525 0
-131 524 525 0
-132 525 0
-254 517 0
-255 517 518 0
-256 517 518 519 0
-257 518 519 520 0
-258 519 520 521 0
-259 520 521 522 0
-260 521 522 523 0
-261 522 523 524 0
-262 523 524 525 0
-263 524 525 0
-264 525 0
-517 -59 0
-517 -60 0
-517 -61 0
-517 -62 0
-517 -63 0
-517 -64 0
-517 -65 0
-517 -66 0
-517 -125 0
-517 -126 0
-517 -127 0
-517 -128 0
-517 -129 0
-517 -130 0
-517 -131 0
-517 -132 0
-517 -257 0
-517 -258 0
-517 -259 0
-517 -260 0
-517 -261 0
-517 -262 0
-517 -263 0
-517 -264 0
-518 -56 0
-518 -60 0
-518 -61 0
-518 -62 0
-518 -63 0
-518 -64 0
-518 -65 0
-518 -66 0
-518 -122 0
-518 -126 0
-518 -127 0
-518 -128 0
-518 -129 0
-518 -130 0
-518 -131 0
-518 -132 0
-518 -254 0
-518 -258 0
-518 -259 0
-518 -260 0
-518 -261 0
-518 -262 0
-518 -263 0
-518 -264 0
-519 -56 0
-519 -57 0
-519 -61 0
-519 -62 0
-519 -63 0
-519 -64 0
-519 -65 0
-519 -66 0
-519 -122 0
-519 -123 0
-519 -127 0
-519 -128 0
-519 -129 0
-519 -130 0
-519 -131 0
-519 -132 0
-519 -254 0
-519 -255 0
-519 -259 0
-519 -260 0
-519 -261 0
-519 -262 0
-519 -263 0
-519 -264 0
-520 -56 0
-520 -57 0
-520 -58 0
-520 -62 0
-520 -63 0
-520 -64 0
-520 -65 0
-520 -66 0
-520 -122 0
-520 -123 0
-520 -124 0
-520 -128 0
-520 -129 0
-520 -130 0
-520 -131 0
-520 -132 0
-520 -254 0
-520 -255 0
-520 -256 0
-520 -260 0
-520 -261 0
-520 -262 0
-520 -263 0
-520 -264 0
-521 -56 0
-521 -57 0
-521 -58 0
-521 -59 0
-521 -63 0
-521 -64 0
-521 -65 0
-521 -66 0
-521 -122 0
-521 -123 0
-521 -124 0
-521 -125 0
-521 -129 0
-521 -130 0
-521 -131 0
-521 -132 0
-521 -254 0
-521 -255 0
-521 -256 0
-521 -257 0
-521 -261 0
-521 -262 0
-521 -263 0
-521 -264 0
-522 -56 0
-522 -57 0
-522 -58 0
-522 -59 0
-522 -60 0
-522 -64 0
-522 -65 0
-522 -66 0
-522 -122 0
-522 -123 0
-522 -124 0
-522 -125 0
-522 -126 0
-522 -130 0
-522 -131 0
-522 -132 0
-522 -254 0
-522 -255 0
-522 -256 0
-522 -257 0
-522 -258 0
-522 -262 0
-522 -263 0
-522 -264 0
-523 -56 0
-523 -57 0
-523 -58 0
-523 -59 0
-523 -60 0
-523 -61 0
-523 -65 0
-523 -66 0
-523 -122 0
-523 -123 0
-523 -124 0
-523 -125 0
-523 -126 0
-523 -127 0
-523 -131 0
-523 -132 0
-523 -254 0
-523 -255 0
-523 -256 0
-523 -257 0
-523 -258 0
-523 -259 0
-523 -263 0
-523 -264 0
-524 -56 0
-524 -57 0
-524 -58 0
-524 -59 0
-524 -60 0
-524 -61 0
-524 -62 0
-524 -66 0
-524 -122 0
-524 -123 0
-524 -124 0
-524 -125 0
-524 -126 0
-524 -127 0
-524 -128 0
-524 -132 0
-524 -254 0
-524 -255 0
-524 -256 0
-524 -257 0
-524 -258 0
-524 -259 0
-524 -260 0
-524 -264 0
-525 -56 0
-525 -57 0
-525 -58 0
-525 -59 0
-525 -60 0
-525 -61 0
-525 -62 0
-525 -63 0
-525 -122 0
-525 -123 0
-525 -124 0
-525 -125 0
-525 -126 0
-525 -127 0
-525 -128 0
-525 -129 0
-525 -254 0
-525 -255 0
-525 -256 0
-525 -257 0
-525 -258 0
-525 -259 0
-525 -260 0
-525 -261 0
-89 -155 0
-89 -287 0
-155 -287 0
-90 -156 0
-90 -288 0
-156 -288 0
-91 -157 0
-91 -289 0
-157 -289 0
-92 -158 0
-92 -290 0
-158 -290 0
-93 -159 0
-93 -291 0
-159 -291 0
-94 -160 0
-94 -292 0
-160 -292 0
-95 -161 0
-95 -293 0
-161 -293 0
-96 -162 0
-96 -294 0
-162 -294 0
-97 -163 0
-97 -295 0
-163 -295 0
-98 -164 0
-98 -296 0
-164 -296 0
-99 -165 0
-99 -297 0
-165 -297 0
526 527 528 529 530 531 532 533 534 0
-526 -527 0
-526 -528 0
-526 -529 0
-526 -530 0
-526 -531 0
-526 -532 0
-526 -533 0
-526 -534 0
-527 -528 0
-527 -529 0
-527 -530 0
-527 -531 0
-527 -532 0
-527 -533 0
-527 -534 0
-528 -529 0
-528 -530 0
-528 -531 0
-528 -532 0
-528 -533 0
-528 -534 0
-529 -530 0
-529 -531 0
-529 -532 0
-529 -533 0
-529 -534 0
-530 -531 0
-530 -532 0
-530 -533 0
-530 -534 0
-531 -532 0
-531 -533 0
-531 -534 0
-532 -533 0
-532 -534 0
-533 -534 0
-89 526 0
-90 526 527 0
-91 526 527 528 0
-92 527 528 529 0
-93 528 529 530 0
-94 529 530 531 0
-95 530 531 532 0
-96 531 532 533 0
-97 532 533 534 0
-98 533 534 0
-99 534 0
-155 526 0
-156 526 527 0
-157 526 527 528 0
-158 527 528 529 0
-159 528 529 530 0
-160 529 530 531 0
-161 530 531 532 0
-162 531 532 533 0
-163 532 533 534 0
-164 533 534 0
-165 534 0
-287 526 0
-288 526 527 0
-289 526 527 528 0
-290 527 528 529 0
-291 528 529 530 0
-292 529 530 531 0
-293 530 531 532 0
-294 531 532 533 0
-295 532 533 534 0
-296 533 534 0
-297 534 0
-526 -92 0
-526 -93 0
-526 -94 0
-526 -95 0
-526 -96 0
-526 -97 0
-526 -98 0
-526 -99 0
-526 -158 0
-526 -159 0
-526 -160 0
-526 -161 0
-526 -162 0
-526 -163 0
-526 -164 0
-526 -165 0
-526 -290 0
-526 -291 0
-526 -292 0
-526 -293 0
-526 -294 0
-526 -295 0
-526 -296 0
-526 -297 0
-527 -89 0
-527 -93 0
-527 -94 0
-527 -95 0
-527 -96 0
-527 -97 0
-527 -98 0
-527 -99 0
-527 -155 0
-527 -159 0
-527 -160 0
-527 -161 0
-527 -162 0
-527 -163 0
-527 -164 0
-527 -165 0
-527 -287 0
-527 -291 0
-527 -292 0
-527 -293 0
-527 -294 0
-527 -295 0
-527 -296 0
-527 -297 0
-528 -89 0
-528 -90 0
-528 -94 0
-528 -95 0
-528 -96 0
-528 -97 0
-528 -98 0
-528 -99 0
-528 -155 0
-528 -156 0
-528 -160 0
-528 -161 0
-528 -162 0
-528 -163 0
-528 -164 0
-528 -165 0
-528 -287 0
-528 -288 0
-528 -292 0
-528 -293 0
-528 -294 0
-528 -295 0
-528 -296 0
-528 -297 0
-529 -89 0
-529 -90 0
-529 -91 0
-529 -95 0
-529 -96 0
-529 -97 0
-529 -98 0
-529 -99 0
-529 -155 0
-529 -156 0
-529 -157 0
-529 -161 0
-529 -162 0
-529 -163 0
-529 -164 0
-529 -165 0
-529 -287 0
-529 -288 0
-529 -289 0
-529 -293 0
-529 -294 0
-529 -295 0
-529 -296 0
-529 -297 0
-530 -89 0
-530 -90 0
-530 -91 0
-530 -92 0
-530 -96 0
-530 -97 0
-530 -98 0
-530 -99 0
-530 -155 0
-530 -156 0
-530 -157 0
-530 -158 0
-530 -162 0
-530 -163 0
-530 -164 0
-530 -165 0
-530 -287 0
-530 -288 0
-530 -289 0
-530 -290 0
-530 -294 0
-530 -295 0
-530 -296 0
-530 -297 0
-531 -89 0
-531 -90 0
-531 -91 0
-531 -92 0
-531 -93 0
-531 -97 0
-531 -98 0
-531 -99 0
-531 -155 0
-531 -156 0
-531 -157 0
-531 -158 0
-531 -159 0
-531 -163 0
-531 -164 0
-531 -165 0
-531 -287 0
-531 -288 0
-531 -289 0
-531 -290 0
-531 -291 0
-531 -295 0
-531 -296 0
-531 -297 0
-532 -89 0
-532 -90 0
-532 -91 0
-532 -92 0
-532 -93 0
-532 -94 0
-532 -98 0
-532 -99 0
-532 -155 0
-532 -156 0
-532 -157 0
-532 -158 0
-532 -159 0
-532 -160 0
-532 -164 0
-532 -165 0
-532 -287 0
-532 -288 0
-532 -289 0
-532 -290 0
-532 -291 0
-532 -292 0
-532 -296 0
-532 -297 0
-533 -89 0
-533 -90 0
-533 -91 0
-533 -92 0
-533 -93 0
-533 -94 0
-533 -95 0
-533 -99 0
-533 -155 0
-533 -156 0
-533 -157 0
-533 -158 0
-533 -159 0
-533 -160 0
-533 -161 0
-533 -165 0
-533 -287 0
-533 -288 0
-533 -289 0
-533 -290 0
-533 -291 0
-533 -292 0
-533 -293 0
-533 -297 0
-534 -89 0
-534 -90 0
-534 -91 0
-534 -92 0
-534 -93 0
-534 -94 0
-534 -95 0
-534 -96 0
-534 -155 0
-534 -156 0
-534 -157 0
-534 -158 0
-534 -159 0
-534 -160 0
-534 -161 0
-534 -162 0
-534 -287 0
-534 -288 0
-534 -289 0
-534 -290 0
-534 -291 0
-534 -292 0
-534 -293 0
-534 -294 0
1 12 23 34 45 56 67 78 89 100 111 122 133 144 155 166 177 188 199 210 221 232 243 254 265 276 287 298 309 320 331 342 353 364 0
2 13 24 35 46 57 68 79 90 101 112 123 134 145 156 167 178 189 200 211 222 233 244 255 266 277 288 299 310 321 332 343 354 365 0
3 14 25 36 47 58 69 80 91 102 113 124 135 146 157 168 179 190 201 212 223 234 245 256 267 278 289 300 311 322 333 344 355 366 0
4 15 26 37 48 59 70 81 92 103 114 125 136 147 158 169 180 191 202 213 224 235 246 257 268 279 290 301 312 323 334 345 356 367 0
5 16 27 38 49 60 71 82 93 104 115 126 137 148 159 170 181 192 203 214 225 236 247 258 269 280 291 302 313 324 335 346 357 368 0
6 17 28 39 50 61 72 83 94 105 116 127 138 149 160 171 182 193 204 215 226 237 248 259 270 281 292 303 314 325 336 347 358 369 0
7 18 29 40 51 62 73 84 95 106 117 128 139 150 161 172 183 194 205 216 227 238 249 260 271 282 293 304 315 326 337 348 359 370 0
8 19 30 41 52 63 74 85 96 107 118 129 140 151 162 173 184 195 206 217 228 239 250 261 272 283 294 305 316 327 338 349 360 371 0
9 20 31 42 53 64 75 86 97 108 119 130 141 152 163 174 185 196 207 218 229 240 251 262 273 284 295 306 317 328 339 350 361 372 0
10 21 32 43 54 65 76 87 98 109 120 131 142 153 164 175 186 197 208 219 230 241 252 263 274 285 296 307 318 329 340 351 362 373 0
11 22 33 44 55 66 77 88 99 110 121 132 143 154 165 176 187 198 209 220 231 242 253 264 275 286 297 308 319 330 341 352 363 374 0
